6
MD Time 0.00
C          -1.00424993        0.00000000        0.00000000
C           1.00424993        0.00000000        0.00000000
H          -1.57974221        0.85087473        0.35244385
H          -1.57974221       -0.85087473       -0.35244385
H           1.57974221        0.85087473       -0.35244385
H           1.57974221       -0.85087473        0.35244385
6
MD Time 10.00
C          -1.00410867       -0.00000000        0.00000000
C           1.00410867        0.00000000        0.00000000
H          -1.57963101        0.85108904        0.35238641
H          -1.57963101       -0.85108904       -0.35238641
H           1.57963101        0.85108904       -0.35238641
H           1.57963101       -0.85108904        0.35238641
6
MD Time 20.00
C          -1.00368701       -0.00000000        0.00000000
C           1.00368701        0.00000000        0.00000000
H          -1.57928742        0.85171162        0.35221032
H          -1.57928742       -0.85171162       -0.35221032
H           1.57928742        0.85171162       -0.35221032
H           1.57928742       -0.85171162        0.35221032
6
MD Time 30.00
C          -1.00299108       -0.00000000        0.00000000
C           1.00299108        0.00000000        0.00000000
H          -1.57868322        0.85268403        0.35190525
H          -1.57868322       -0.85268403       -0.35190525
H           1.57868322        0.85268403       -0.35190525
H           1.57868322       -0.85268403        0.35190525
6
MD Time 40.00
C          -1.00203014       -0.00000000        0.00000000
C           1.00203014        0.00000000        0.00000000
H          -1.57777677        0.85391737        0.35145691
H          -1.57777677       -0.85391737       -0.35145691
H           1.57777677        0.85391737       -0.35145691
H           1.57777677       -0.85391737        0.35145691
6
MD Time 50.00
C          -1.00081540       -0.00000000        0.00000000
C           1.00081540        0.00000000        0.00000000
H          -1.57652031        0.85530366        0.35085099
H          -1.57652031       -0.85530366       -0.35085099
H           1.57652031        0.85530366       -0.35085099
H           1.57652031       -0.85530366        0.35085099
6
MD Time 60.00
C          -0.99935865       -0.00000000        0.00000000
C           0.99935865        0.00000000        0.00000000
H          -1.57486823        0.85672911        0.35007750
H          -1.57486823       -0.85672911       -0.35007750
H           1.57486823        0.85672911       -0.35007750
H           1.57486823       -0.85672911        0.35007750
6
MD Time 70.00
C          -0.99767083       -0.00000000        0.00000000
C           0.99767083        0.00000000        0.00000000
H          -1.57278535        0.85808752        0.34913509
H          -1.57278535       -0.85808752       -0.34913509
H           1.57278535        0.85808752       -0.34913509
H           1.57278535       -0.85808752        0.34913509
6
MD Time 80.00
C          -0.99576091       -0.00000000        0.00000000
C           0.99576091        0.00000000        0.00000000
H          -1.57025394        0.85929210        0.34803442
H          -1.57025394       -0.85929210       -0.34803442
H           1.57025394        0.85929210       -0.34803442
H           1.57025394       -0.85929210        0.34803442
6
MD Time 90.00
C          -0.99363510       -0.00000000        0.00000000
C           0.99363510        0.00000000        0.00000000
H          -1.56727847        0.86028414        0.34680022
H          -1.56727847       -0.86028414       -0.34680022
H           1.56727847        0.86028414       -0.34680022
H           1.56727847       -0.86028414        0.34680022
6
MD Time 100.00
C          -0.99129651       -0.00000000        0.00000000
C           0.99129651        0.00000000        0.00000000
H          -1.56388770        0.86103789        0.34547177
H          -1.56388770       -0.86103789       -0.34547177
H           1.56388770        0.86103789       -0.34547177
H           1.56388770       -0.86103789        0.34547177
6
MD Time 110.00
C          -0.98874540       -0.00000000        0.00000000
C           0.98874540        0.00000000        0.00000000
H          -1.56013375        0.86156092        0.34410144
H          -1.56013375       -0.86156092       -0.34410144
H           1.56013375        0.86156092       -0.34410144
H           1.56013375       -0.86156092        0.34410144
6
MD Time 120.00
C          -0.98597988       -0.00000000        0.00000000
C           0.98597988        0.00000000        0.00000000
H          -1.55608809        0.86189020        0.34275168
H          -1.55608809       -0.86189020       -0.34275168
H           1.55608809        0.86189020       -0.34275168
H           1.55608809       -0.86189020        0.34275168
