6
MD Time 0.00
C          -1.00424993        0.00000000        0.00000000
C           1.00424993        0.00000000        0.00000000
H          -1.57974221        0.85087473        0.35244385
H          -1.57974221       -0.85087473       -0.35244385
H           1.57974221        0.85087473       -0.35244385
H           1.57974221       -0.85087473        0.35244385
6
MD Time 10.00
C          -1.00413357       -0.00000000        0.00000000
C           1.00413356       -0.00000000       -0.00000000
H          -1.57960097        0.85102862        0.35240054
H          -1.57960097       -0.85102862       -0.35240054
H           1.57960097        0.85102862       -0.35240054
H           1.57960097       -0.85102862        0.35240054
6
MD Time 20.00
C          -1.00378450       -0.00000000        0.00000000
C           1.00378450       -0.00000000       -0.00000000
H          -1.57917665        0.85148848        0.35226968
H          -1.57917665       -0.85148848       -0.35226968
H           1.57917665        0.85148848       -0.35226968
H           1.57917665       -0.85148848        0.35226968
6
MD Time 30.00
C          -1.00320280       -0.00000000        0.00000000
C           1.00320280       -0.00000000       -0.00000000
H          -1.57846741        0.85224892        0.35204859
H          -1.57846741       -0.85224892       -0.35204859
H           1.57846741        0.85224892       -0.35204859
H           1.57846741       -0.85224892        0.35204859
6
MD Time 40.00
C          -1.00238857       -0.00000000        0.00000000
C           1.00238857       -0.00000000       -0.00000000
H          -1.57747025        0.85330106        0.35173281
H          -1.57747025       -0.85330106       -0.35173282
H           1.57747025        0.85330106       -0.35173281
H           1.57747025       -0.85330106        0.35173281
6
MD Time 50.00
C          -1.00134192       -0.00000000        0.00000000
C           1.00134192       -0.00000000       -0.00000000
H          -1.57618115        0.85463275        0.35131626
H          -1.57618115       -0.85463275       -0.35131626
H           1.57618116        0.85463275       -0.35131626
H           1.57618116       -0.85463275        0.35131626
6
MD Time 60.00
C          -1.00006297       -0.00000000        0.00000000
C           1.00006297       -0.00000000       -0.00000000
H          -1.57459521        0.85622881        0.35079133
H          -1.57459521       -0.85622881       -0.35079133
H           1.57459522        0.85622881       -0.35079132
H           1.57459522       -0.85622881        0.35079132
6
MD Time 70.00
C          -0.99855177       -0.00000000        0.00000000
C           0.99855177       -0.00000000       -0.00000000
H          -1.57270680        0.85807133        0.35014903
H          -1.57270680       -0.85807133       -0.35014903
H           1.57270680        0.85807133       -0.35014902
H           1.57270680       -0.85807133        0.35014902
6
MD Time 80.00
C          -0.99680832       -0.00000000        0.00000000
C           0.99680832       -0.00000000       -0.00000000
H          -1.57050979        0.86014007        0.34937919
H          -1.57050979       -0.86014007       -0.34937919
H           1.57050980        0.86014007       -0.34937918
H           1.57050980       -0.86014007        0.34937918
6
MD Time 90.00
C          -0.99483252       -0.00000000        0.00000000
C           0.99483252       -0.00000000       -0.00000000
H          -1.56799779        0.86241279        0.34847065
H          -1.56799779       -0.86241279       -0.34847065
H           1.56799780        0.86241279       -0.34847064
H           1.56799780       -0.86241279        0.34847064
6
MD Time 100.00
C          -0.99262410       -0.00000000        0.00000000
C           0.99262410       -0.00000000       -0.00000000
H          -1.56516436        0.86486574        0.34741144
H          -1.56516436       -0.86486574       -0.34741144
H           1.56516437        0.86486574       -0.34741143
H           1.56516437       -0.86486574        0.34741143
6
MD Time 110.00
C          -0.99018263       -0.00000000        0.00000000
C           0.99018263       -0.00000000       -0.00000000
H          -1.56200326        0.86747406        0.34618901
H          -1.56200326       -0.86747406       -0.34618901
H           1.56200328        0.86747406       -0.34618899
H           1.56200328       -0.86747406        0.34618899
6
MD Time 120.00
C          -0.98750744       -0.00000000        0.00000000
C           0.98750744       -0.00000000       -0.00000000
H          -1.55850871        0.87021223        0.34479043
H          -1.55850871       -0.87021223       -0.34479043
H           1.55850872        0.87021223       -0.34479041
H           1.55850872       -0.87021223        0.34479041
6
MD Time 130.00
C          -0.98459762       -0.00000000        0.00000000
C           0.98459762       -0.00000000       -0.00000000
H          -1.55467555        0.87305451        0.34320260
H          -1.55467555       -0.87305451       -0.34320260
H           1.55467557        0.87305451       -0.34320257
H           1.55467557       -0.87305451        0.34320257
6
MD Time 140.00
C          -0.98145196       -0.00000000        0.00000000
C           0.98145195       -0.00000000       -0.00000000
H          -1.55049955        0.87597536        0.34141243
H          -1.55049955       -0.87597536       -0.34141244
H           1.55049957        0.87597536       -0.34141241
H           1.55049957       -0.87597536        0.34141241
6
MD Time 150.00
C          -0.97806892       -0.00000000        0.00000000
C           0.97806892       -0.00000000       -0.00000000
H          -1.54597751        0.87894983        0.33940706
H          -1.54597751       -0.87894983       -0.33940706
H           1.54597753        0.87894983       -0.33940703
H           1.54597753       -0.87894983        0.33940703
6
MD Time 160.00
C          -0.97444666       -0.00000000        0.00000000
C           0.97444666       -0.00000000       -0.00000000
H          -1.54110748        0.88195395        0.33717396
H          -1.54110748       -0.88195395       -0.33717396
H           1.54110750        0.88195395       -0.33717393
H           1.54110750       -0.88195395        0.33717393
6
MD Time 170.00
C          -0.97058295       -0.00000000        0.00000000
C           0.97058295       -0.00000000       -0.00000000
H          -1.53588890        0.88496502        0.33470112
H          -1.53588890       -0.88496502       -0.33470113
H           1.53588893        0.88496502       -0.33470109
H           1.53588893       -0.88496502        0.33470109
6
MD Time 180.00
C          -0.96647518       -0.00000000        0.00000000
C           0.96647518       -0.00000000       -0.00000000
H          -1.53032272        0.88796199        0.33197717
H          -1.53032272       -0.88796199       -0.33197718
H           1.53032275        0.88796199       -0.33197713
H           1.53032275       -0.88796199        0.33197713
6
MD Time 190.00
C          -0.96212039       -0.00000000        0.00000000
C           0.96212038       -0.00000000       -0.00000000
H          -1.52441147        0.89092562        0.32899147
H          -1.52441147       -0.89092561       -0.32899147
H           1.52441150        0.89092562       -0.32899142
H           1.52441150       -0.89092561        0.32899142
6
MD Time 200.00
C          -0.95751519       -0.00000000        0.00000000
C           0.95751518       -0.00000000       -0.00000000
H          -1.51815933        0.89383875        0.32573418
H          -1.51815933       -0.89383875       -0.32573418
H           1.51815936        0.89383875       -0.32573413
H           1.51815936       -0.89383875        0.32573413
6
MD Time 210.00
C          -0.95265585       -0.00000000        0.00000000
C           0.95265585       -0.00000000       -0.00000000
H          -1.51157218        0.89668648        0.32219635
H          -1.51157218       -0.89668648       -0.32219636
H           1.51157221        0.89668648       -0.32219630
H           1.51157221       -0.89668648        0.32219630
6
MD Time 220.00
C          -0.94753826       -0.00000000        0.00000000
C           0.94753825       -0.00000000       -0.00000000
H          -1.50465759        0.89945624        0.31836996
H          -1.50465759       -0.89945624       -0.31836997
H           1.50465762        0.89945624       -0.31836990
H           1.50465762       -0.89945624        0.31836991
6
MD Time 230.00
C          -0.94215795       -0.00000000        0.00000000
C           0.94215795       -0.00000000       -0.00000000
H          -1.49742480        0.90213789        0.31424790
H          -1.49742479       -0.90213789       -0.31424790
H           1.49742483        0.90213789       -0.31424783
H           1.49742483       -0.90213789        0.31424784
6
MD Time 240.00
C          -0.93651014       -0.00000000        0.00000000
C           0.93651013       -0.00000000       -0.00000000
H          -1.48988467        0.90472376        0.30982399
H          -1.48988466       -0.90472376       -0.30982399
H           1.48988470        0.90472376       -0.30982392
H           1.48988470       -0.90472376        0.30982392
6
MD Time 250.00
C          -0.93058973       -0.00000000        0.00000000
C           0.93058973       -0.00000000       -0.00000000
H          -1.48204961        0.90720861        0.30509299
H          -1.48204961       -0.90720861       -0.30509299
H           1.48204965        0.90720862       -0.30509291
H           1.48204965       -0.90720861        0.30509292
6
MD Time 260.00
C          -0.92439140       -0.00000000        0.00000000
C           0.92439140       -0.00000000       -0.00000000
H          -1.47393351        0.90958958        0.30005052
H          -1.47393351       -0.90958958       -0.30005053
H           1.47393355        0.90958958       -0.30005044
H           1.47393355       -0.90958958        0.30005045
6
MD Time 270.00
C          -0.91790961       -0.00000000        0.00000000
C           0.91790960       -0.00000000       -0.00000000
H          -1.46555155        0.91186603        0.29469307
H          -1.46555155       -0.91186603       -0.29469307
H           1.46555159        0.91186603       -0.29469298
H           1.46555159       -0.91186603        0.29469299
6
MD Time 280.00
C          -0.91113867       -0.00000000        0.00000000
C           0.91113867       -0.00000000       -0.00000000
H          -1.45692013        0.91403944        0.28901788
H          -1.45692013       -0.91403944       -0.28901789
H           1.45692016        0.91403945       -0.28901779
H           1.45692016       -0.91403944        0.28901780
6
MD Time 290.00
C          -0.90407284       -0.00000000        0.00000000
C           0.90407283       -0.00000000       -0.00000000
H          -1.44805665        0.91611315        0.28302295
H          -1.44805665       -0.91611315       -0.28302295
H           1.44805669        0.91611316       -0.28302285
H           1.44805669       -0.91611316        0.28302286
6
MD Time 300.00
C          -0.89670635       -0.00000000        0.00000000
C           0.89670635       -0.00000000       -0.00000000
H          -1.43897938        0.91809214        0.27670689
H          -1.43897938       -0.91809214       -0.27670689
H           1.43897942        0.91809215       -0.27670679
H           1.43897942       -0.91809215        0.27670679
6
MD Time 310.00
C          -0.88903357       -0.00000000        0.00000000
C           0.88903357       -0.00000000       -0.00000000
H          -1.42970721        0.91998271        0.27006893
H          -1.42970721       -0.91998271       -0.27006893
H           1.42970725        0.91998272       -0.27006882
H           1.42970724       -0.91998271        0.27006883
6
MD Time 320.00
C          -0.88104906       -0.00000000        0.00000000
C           0.88104905       -0.00000000       -0.00000000
H          -1.42025946        0.92179215        0.26310879
H          -1.42025946       -0.92179215       -0.26310879
H           1.42025950        0.92179216       -0.26310868
H           1.42025950       -0.92179216        0.26310868
6
MD Time 330.00
C          -0.87274771       -0.00000000        0.00000000
C           0.87274770       -0.00000000       -0.00000000
H          -1.41065567        0.92352842        0.25582666
H          -1.41065567       -0.92352842       -0.25582667
H           1.41065571        0.92352843       -0.25582654
H           1.41065571       -0.92352843        0.25582655
6
MD Time 340.00
C          -0.86412489       -0.00000000        0.00000000
C           0.86412489       -0.00000000       -0.00000000
H          -1.40091534        0.92519970        0.24822313
H          -1.40091533       -0.92519970       -0.24822314
H           1.40091537        0.92519971       -0.24822301
H           1.40091537       -0.92519971        0.24822301
6
MD Time 350.00
C          -0.85517662       -0.00000000        0.00000000
C           0.85517661       -0.00000000       -0.00000000
H          -1.39105768        0.92681401        0.24029915
H          -1.39105768       -0.92681400       -0.24029916
H           1.39105771        0.92681402       -0.24029902
H           1.39105771       -0.92681402        0.24029903
6
MD Time 360.00
C          -0.84589972       -0.00000000        0.00000000
C           0.84589972       -0.00000000       -0.00000000
H          -1.38110143        0.92837879        0.23205602
H          -1.38110143       -0.92837879       -0.23205603
H           1.38110146        0.92837880       -0.23205589
H           1.38110146       -0.92837880        0.23205589
6
MD Time 370.00
C          -0.83629206       -0.00000000        0.00000000
C           0.83629206       -0.00000000       -0.00000000
H          -1.37106459        0.92990050        0.22349539
H          -1.37106459       -0.92990050       -0.22349540
H           1.37106462        0.92990052       -0.22349525
H           1.37106462       -0.92990052        0.22349526
6
MD Time 380.00
C          -0.82635278       -0.00000000        0.00000000
C           0.82635277       -0.00000000       -0.00000000
H          -1.36096420        0.93138421        0.21461930
H          -1.36096420       -0.93138421       -0.21461930
H           1.36096423        0.93138423       -0.21461915
H           1.36096423       -0.93138422        0.21461916
6
MD Time 390.00
C          -0.81608256       -0.00000000        0.00000000
C           0.81608255       -0.00000000       -0.00000000
H          -1.35081617        0.93283321        0.20543021
H          -1.35081617       -0.93283321       -0.20543021
H           1.35081620        0.93283323       -0.20543006
H           1.35081620       -0.93283323        0.20543006
6
MD Time 400.00
C          -0.80548394       -0.00000000        0.00000000
C           0.80548393       -0.00000000       -0.00000000
H          -1.34063508        0.93424871        0.19593111
H          -1.34063507       -0.93424871       -0.19593112
H           1.34063510        0.93424873       -0.19593095
H           1.34063510       -0.93424873        0.19593096
6
MD Time 410.00
C          -0.79456168       -0.00000000        0.00000000
C           0.79456167       -0.00000000       -0.00000000
H          -1.33043406        0.93562956        0.18612565
H          -1.33043406       -0.93562956       -0.18612565
H           1.33043409        0.93562958       -0.18612548
H           1.33043408       -0.93562958        0.18612549
6
MD Time 420.00
C          -0.78332315       -0.00000000        0.00000000
C           0.78332314       -0.00000000       -0.00000000
H          -1.32022471        0.93697203        0.17601824
H          -1.32022470       -0.93697203       -0.17601825
H           1.32022473        0.93697205       -0.17601807
H           1.32022473       -0.93697205        0.17601808
6
MD Time 430.00
C          -0.77177879       -0.00000000        0.00000000
C           0.77177878        0.00000000       -0.00000000
H          -1.31001699        0.93826968        0.16561428
H          -1.31001699       -0.93826968       -0.16561428
H           1.31001701        0.93826970       -0.16561410
H           1.31001701       -0.93826970        0.16561411
6
MD Time 440.00
C          -0.75994264       -0.00000000        0.00000000
C           0.75994264        0.00000000       -0.00000000
H          -1.29981929        0.93951335        0.15492029
H          -1.29981929       -0.93951335       -0.15492030
H           1.29981931        0.93951337       -0.15492011
H           1.29981931       -0.93951337        0.15492012
6
MD Time 450.00
C          -0.74783294       -0.00000000        0.00000000
C           0.74783293        0.00000000       -0.00000000
H          -1.28963845        0.94069120        0.14394419
H          -1.28963845       -0.94069120       -0.14394419
H           1.28963846        0.94069122       -0.14394400
H           1.28963846       -0.94069122        0.14394401
6
MD Time 460.00
C          -0.73547272       -0.00000000        0.00000000
C           0.73547272        0.00000000       -0.00000000
H          -1.27947988        0.94178887        0.13269544
H          -1.27947988       -0.94178888       -0.13269544
H           1.27947989        0.94178890       -0.13269525
H           1.27947989       -0.94178890        0.13269525
6
MD Time 470.00
C          -0.72289064       -0.00000000        0.00000000
C           0.72289064        0.00000000       -0.00000000
H          -1.26934777        0.94278977        0.12118533
H          -1.26934776       -0.94278978       -0.12118534
H           1.26934778        0.94278980       -0.12118514
H           1.26934778       -0.94278980        0.12118514
6
MD Time 480.00
C          -0.71012169       -0.00000000        0.00000000
C           0.71012169        0.00000000       -0.00000000
H          -1.25924533        0.94367541        0.10942715
H          -1.25924532       -0.94367541       -0.10942715
H           1.25924534        0.94367544       -0.10942694
H           1.25924534       -0.94367544        0.10942695
6
MD Time 490.00
C          -0.69720816       -0.00000000        0.00000000
C           0.69720815        0.00000000       -0.00000000
H          -1.24917512        0.94442589        0.09743635
H          -1.24917512       -0.94442589       -0.09743636
H           1.24917513        0.94442592       -0.09743614
H           1.24917513       -0.94442592        0.09743615
6
MD Time 500.00
C          -0.68420046       -0.00000000        0.00000000
C           0.68420046        0.00000000       -0.00000000
H          -1.23913948        0.94502045        0.08523077
H          -1.23913947       -0.94502045       -0.08523078
H           1.23913948        0.94502048       -0.08523056
H           1.23913948       -0.94502048        0.08523057
6
MD Time 510.00
C          -0.67115818       -0.00000000        0.00000000
C           0.67115818        0.00000000       -0.00000000
H          -1.22914091        0.94543809        0.07283070
H          -1.22914091       -0.94543809       -0.07283070
H           1.22914092        0.94543811       -0.07283048
H           1.22914091       -0.94543811        0.07283049
6
MD Time 520.00
C          -0.65815093       -0.00000000        0.00000000
C           0.65815093        0.00000000       -0.00000000
H          -1.21918272        0.94565828        0.06025894
H          -1.21918271       -0.94565828       -0.06025895
H           1.21918271        0.94565831       -0.06025872
H           1.21918271       -0.94565830        0.06025872
6
MD Time 530.00
C          -0.64525918       -0.00000000        0.00000000
C           0.64525918        0.00000000       -0.00000000
H          -1.20926948        0.94566171        0.04754087
H          -1.20926948       -0.94566172       -0.04754087
H           1.20926948        0.94566174       -0.04754064
H           1.20926948       -0.94566174        0.04754064
6
MD Time 540.00
C          -0.63257495       -0.00000000        0.00000000
C           0.63257495        0.00000000       -0.00000000
H          -1.19940778        0.94543110        0.03470432
H          -1.19940778       -0.94543110       -0.03470432
H           1.19940777        0.94543113       -0.03470408
H           1.19940777       -0.94543113        0.03470409
6
MD Time 550.00
C          -0.62020212       -0.00000000        0.00000000
C           0.62020212        0.00000000       -0.00000000
H          -1.18960679        0.94495198        0.02177951
H          -1.18960679       -0.94495198       -0.02177951
H           1.18960678        0.94495200       -0.02177927
H           1.18960678       -0.94495200        0.02177928
6
MD Time 560.00
C          -0.60825629       -0.00000000        0.00000000
C           0.60825629        0.00000000       -0.00000000
H          -1.17987902        0.94421354        0.00879884
H          -1.17987902       -0.94421354       -0.00879884
H           1.17987901        0.94421356       -0.00879859
H           1.17987901       -0.94421356        0.00879860
6
MD Time 570.00
C          -0.59686400       -0.00000000        0.00000000
C           0.59686400        0.00000000       -0.00000000
H          -1.17024095        0.94320947       -0.00420341
H          -1.17024095       -0.94320947        0.00420340
H           1.17024094        0.94320949        0.00420366
H           1.17024094       -0.94320949       -0.00420365
6
MD Time 580.00
C          -0.58616114       -0.00000000        0.00000000
C           0.58616115        0.00000000       -0.00000000
H          -1.16071372        0.94193878       -0.01719134
H          -1.16071372       -0.94193878        0.01719133
H           1.16071370        0.94193880        0.01719159
H           1.16071370       -0.94193880       -0.01719158
6
MD Time 590.00
C          -0.57629030       -0.00000000        0.00000000
C           0.57629030        0.00000000       -0.00000000
H          -1.15132371        0.94040660       -0.03012788
H          -1.15132371       -0.94040660        0.03012788
H           1.15132368        0.94040662        0.03012814
H           1.15132368       -0.94040662       -0.03012813
6
MD Time 600.00
C          -0.56739697       -0.00000000        0.00000000
C           0.56739697        0.00000000       -0.00000000
H          -1.14210306        0.93862493       -0.04297524
H          -1.14210306       -0.93862494        0.04297524
H           1.14210304        0.93862495        0.04297550
H           1.14210304       -0.93862495       -0.04297550
6
MD Time 610.00
C          -0.55962466       -0.00000000        0.00000000
C           0.55962467        0.00000000       -0.00000000
H          -1.13309011        0.93661340       -0.05569540
H          -1.13309011       -0.93661340        0.05569539
H           1.13309008        0.93661341        0.05569566
H           1.13309008       -0.93661341       -0.05569566
6
MD Time 620.00
C          -0.55310895       -0.00000000        0.00000000
C           0.55310895        0.00000000       -0.00000000
H          -1.12432962        0.93439987       -0.06825063
H          -1.12432962       -0.93439987        0.06825063
H           1.12432959        0.93439988        0.06825090
H           1.12432959       -0.93439988       -0.06825090
6
MD Time 630.00
C          -0.54797081       -0.00000000        0.00000000
C           0.54797082        0.00000000       -0.00000000
H          -1.11587288        0.93202103       -0.08060416
H          -1.11587288       -0.93202103        0.08060416
H           1.11587285        0.93202104        0.08060443
H           1.11587285       -0.93202104       -0.08060443
6
MD Time 640.00
C          -0.54430993       -0.00000000        0.00000000
C           0.54430993        0.00000000       -0.00000000
H          -1.10777759        0.92952277       -0.09272070
H          -1.10777758       -0.92952278        0.09272070
H           1.10777755        0.92952278        0.09272098
H           1.10777755       -0.92952278       -0.09272097
6
MD Time 650.00
C          -0.54219840       -0.00000000        0.00000000
C           0.54219840        0.00000000       -0.00000000
H          -1.10010749        0.92696038       -0.10456713
H          -1.10010749       -0.92696038        0.10456713
H           1.10010745        0.92696038        0.10456741
H           1.10010745       -0.92696038       -0.10456741
6
MD Time 660.00
C          -0.54167589       -0.00000000        0.00000000
C           0.54167590        0.00000000       -0.00000000
H          -1.09293178        0.92439839       -0.11611309
H          -1.09293178       -0.92439840        0.11611309
H           1.09293174        0.92439839        0.11611337
H           1.09293174       -0.92439839       -0.11611337
6
MD Time 670.00
C          -0.54274668       -0.00000000        0.00000000
C           0.54274668        0.00000000       -0.00000000
H          -1.08632419        0.92191012       -0.12733158
H          -1.08632418       -0.92191012        0.12733158
H           1.08632414        0.92191011        0.12733186
H           1.08632414       -0.92191011       -0.12733186
6
MD Time 680.00
C          -0.54537911       -0.00000000        0.00000000
C           0.54537912        0.00000000       -0.00000000
H          -1.08036171        0.91957660       -0.13819951
H          -1.08036170       -0.91957660        0.13819951
H           1.08036166        0.91957659        0.13819979
H           1.08036166       -0.91957659       -0.13819979
6
MD Time 690.00
C          -0.54950759       -0.00000000        0.00000000
C           0.54950760        0.00000000       -0.00000000
H          -1.07512308        0.91748504       -0.14869807
H          -1.07512308       -0.91748504        0.14869807
H           1.07512303        0.91748503        0.14869836
H           1.07512303       -0.91748503       -0.14869836
6
MD Time 700.00
C          -0.55503677       -0.00000000        0.00000000
C           0.55503678        0.00000000       -0.00000000
H          -1.07068689        0.91572654       -0.15881304
H          -1.07068689       -0.91572654        0.15881304
H           1.07068684        0.91572653        0.15881333
H           1.07068684       -0.91572653       -0.15881333
6
MD Time 710.00
C          -0.56184742       -0.00000000        0.00000000
C           0.56184743        0.00000000       -0.00000000
H          -1.06712937        0.91439323       -0.16853474
H          -1.06712937       -0.91439323        0.16853474
H           1.06712932        0.91439321        0.16853503
H           1.06712932       -0.91439321       -0.16853503
6
MD Time 720.00
C          -0.56980322       -0.00000000        0.00000000
C           0.56980322        0.00000000       -0.00000000
H          -1.06452207        0.91357474       -0.17785784
H          -1.06452207       -0.91357474        0.17785784
H           1.06452202        0.91357471        0.17785813
H           1.06452202       -0.91357471       -0.17785813
6
MD Time 730.00
C          -0.57875775       -0.00000000        0.00000000
C           0.57875776        0.00000000       -0.00000000
H          -1.06292935        0.91335429       -0.18678077
H          -1.06292935       -0.91335429        0.18678077
H           1.06292930        0.91335427        0.18678107
H           1.06292930       -0.91335427       -0.18678107
6
MD Time 740.00
C          -0.58856108       -0.00000000        0.00000000
C           0.58856109        0.00000000       -0.00000000
H          -1.06240606        0.91380452       -0.19530489
H          -1.06240606       -0.91380452        0.19530489
H           1.06240601        0.91380449        0.19530519
H           1.06240601       -0.91380449       -0.19530519
6
MD Time 750.00
C          -0.59906533       -0.00000000        0.00000000
C           0.59906534        0.00000000       -0.00000000
H          -1.06299538        0.91498334       -0.20343343
H          -1.06299538       -0.91498334        0.20343343
H           1.06299533        0.91498330        0.20343373
H           1.06299533       -0.91498330       -0.20343374
6
MD Time 760.00
C          -0.61012921       -0.00000000        0.00000000
C           0.61012922        0.00000000       -0.00000000
H          -1.06472718        0.91693025       -0.21117025
H          -1.06472718       -0.91693025        0.21117025
H           1.06472713        0.91693021        0.21117056
H           1.06472712       -0.91693021       -0.21117056
6
MD Time 770.00
C          -0.62162121       -0.00000000        0.00000000
C           0.62162122        0.00000000       -0.00000000
H          -1.06761683        0.91966336       -0.21851859
H          -1.06761683       -0.91966336        0.21851860
H           1.06761678        0.91966332        0.21851890
H           1.06761678       -0.91966332       -0.21851890
6
MD Time 780.00
C          -0.63342173       -0.00000000        0.00000000
C           0.63342173        0.00000000       -0.00000000
H          -1.07166481        0.92317740       -0.22547994
H          -1.07166481       -0.92317740        0.22547994
H           1.07166476        0.92317736        0.22548025
H           1.07166476       -0.92317736       -0.22548025
6
MD Time 790.00
C          -0.64542407       -0.00000000        0.00000000
C           0.64542408        0.00000000       -0.00000000
H          -1.07685685        0.92744300       -0.23205307
H          -1.07685684       -0.92744300        0.23205307
H           1.07685680        0.92744295        0.23205338
H           1.07685680       -0.92744295       -0.23205338
6
MD Time 800.00
C          -0.65753477       -0.00000000        0.00000000
C           0.65753478        0.00000000       -0.00000000
H          -1.08316474        0.93240712       -0.23823343
H          -1.08316473       -0.93240712        0.23823343
H           1.08316469        0.93240707        0.23823374
H           1.08316469       -0.93240707       -0.23823375
6
MD Time 810.00
C          -0.66967317       -0.00000000        0.00000000
C           0.66967318        0.00000000       -0.00000000
H          -1.09054769        0.93799482       -0.24401286
H          -1.09054769       -0.93799482        0.24401287
H           1.09054764        0.93799476        0.24401318
H           1.09054764       -0.93799476       -0.24401319
6
MD Time 820.00
C          -0.68177069       -0.00000000        0.00000000
C           0.68177070        0.00000000       -0.00000000
H          -1.09895400        0.94411192       -0.24937970
H          -1.09895400       -0.94411192        0.24937970
H           1.09895395        0.94411186        0.24938002
H           1.09895395       -0.94411186       -0.24938003
6
MD Time 830.00
C          -0.69376972       -0.00000000        0.00000000
C           0.69376973        0.00000000       -0.00000000
H          -1.10832298        0.95064852       -0.25431910
H          -1.10832297       -0.95064852        0.25431911
H           1.10832293        0.95064846        0.25431943
H           1.10832293       -0.95064845       -0.25431944
6
MD Time 840.00
C          -0.70562253       -0.00000000        0.00000000
C           0.70562253        0.00000000       -0.00000000
H          -1.11858689        0.95748288       -0.25881376
H          -1.11858689       -0.95748289        0.25881377
H           1.11858685        0.95748282        0.25881409
H           1.11858684       -0.95748282       -0.25881410
6
MD Time 850.00
C          -0.71728998       -0.00000000        0.00000000
C           0.71728999        0.00000000       -0.00000000
H          -1.12967291        0.96448555       -0.26284462
H          -1.12967291       -0.96448555        0.26284463
H           1.12967287        0.96448548        0.26284496
H           1.12967287       -0.96448548       -0.26284496
6
MD Time 860.00
C          -0.72874045       -0.00000000        0.00000000
C           0.72874046        0.00000000       -0.00000000
H          -1.14150488        0.97152328       -0.26639179
H          -1.14150488       -0.97152328        0.26639180
H           1.14150484        0.97152321        0.26639212
H           1.14150484       -0.97152320       -0.26639213
6
MD Time 870.00
C          -0.73994869       -0.00000000        0.00000000
C           0.73994870        0.00000000       -0.00000000
H          -1.15400486        0.97846270       -0.26943535
H          -1.15400485       -0.97846270        0.26943536
H           1.15400482        0.97846262        0.26943569
H           1.15400482       -0.97846262       -0.26943570
6
MD Time 880.00
C          -0.75089486       -0.00000000        0.00000000
C           0.75089487        0.00000000       -0.00000000
H          -1.16709444        0.98517353       -0.27195620
H          -1.16709444       -0.98517353        0.27195621
H           1.16709441        0.98517345        0.27195654
H           1.16709441       -0.98517345       -0.27195655
6
MD Time 890.00
C          -0.76156366       -0.00000000        0.00000000
C           0.76156366        0.00000000       -0.00000000
H          -1.18069589        0.99153123       -0.27393669
H          -1.18069589       -0.99153123        0.27393670
H           1.18069586        0.99153115        0.27393704
H           1.18069586       -0.99153115       -0.27393705
6
MD Time 900.00
C          -0.77194355       -0.00000000        0.00000000
C           0.77194355        0.00000000       -0.00000000
H          -1.19473292        0.99741919       -0.27536125
H          -1.19473292       -0.99741919        0.27536126
H           1.19473290        0.99741910        0.27536159
H           1.19473289       -0.99741910       -0.27536160
6
MD Time 910.00
C          -0.78202614       -0.00000000        0.00000000
C           0.78202614        0.00000000       -0.00000000
H          -1.20913143        1.00273032       -0.27621676
H          -1.20913143       -1.00273033        0.27621677
H           1.20913141        1.00273024        0.27621711
H           1.20913141       -1.00273023       -0.27621712
6
MD Time 920.00
C          -0.79180558       -0.00000000        0.00000000
C           0.79180558        0.00000000       -0.00000000
H          -1.22381995        1.00736831       -0.27649296
H          -1.22381995       -1.00736831        0.27649297
H           1.22381993        1.00736822        0.27649331
H           1.22381993       -1.00736822       -0.27649332
6
MD Time 930.00
C          -0.80127810       -0.00000000        0.00000000
C           0.80127811        0.00000000       -0.00000000
H          -1.23873000        1.01124838       -0.27618260
H          -1.23872999       -1.01124839        0.27618260
H           1.23872998        1.01124829        0.27618294
H           1.23872998       -1.01124829       -0.27618295
6
MD Time 940.00
C          -0.81044163       -0.00000000        0.00000000
C           0.81044163        0.00000000       -0.00000000
H          -1.25379636        1.01429787       -0.27528157
H          -1.25379635       -1.01429787        0.27528158
H           1.25379634        1.01429777        0.27528192
H           1.25379634       -1.01429777       -0.27528193
6
MD Time 950.00
C          -0.81929539       -0.00000000        0.00000000
C           0.81929539        0.00000000       -0.00000000
H          -1.26895724        1.01645646       -0.27378902
H          -1.26895723       -1.01645646        0.27378903
H           1.26895723        1.01645636        0.27378937
H           1.26895723       -1.01645636       -0.27378938
6
MD Time 960.00
C          -0.82783964       -0.00000000        0.00000000
C           0.82783964        0.00000000       -0.00000000
H          -1.28415440        1.01767637       -0.27170729
H          -1.28415440       -1.01767637        0.27170730
H           1.28415440        1.01767627        0.27170764
H           1.28415440       -1.01767627       -0.27170765
6
MD Time 970.00
C          -0.83607543       -0.00000000        0.00000000
C           0.83607543        0.00000000       -0.00000000
H          -1.29933328        1.01792237       -0.26904192
H          -1.29933328       -1.01792237        0.26904193
H           1.29933328        1.01792227        0.26904227
H           1.29933328       -1.01792226       -0.26904228
6
MD Time 980.00
C          -0.84400434       -0.00000000        0.00000000
C           0.84400434        0.00000000       -0.00000000
H          -1.31444306        1.01717173       -0.26580158
H          -1.31444306       -1.01717173        0.26580159
H           1.31444306        1.01717163        0.26580193
H           1.31444306       -1.01717163       -0.26580194
6
MD Time 990.00
C          -0.85162831       -0.00000000        0.00000000
C           0.85162831        0.00000000       -0.00000000
H          -1.32943675        1.01541422       -0.26199798
H          -1.32943675       -1.01541422        0.26199799
H           1.32943676        1.01541412        0.26199832
H           1.32943676       -1.01541412       -0.26199834
6
MD Time 1000.00
C          -0.85894949       -0.00000000        0.00000000
C           0.85894949        0.00000000       -0.00000000
H          -1.34427135        1.01265201       -0.25764579
H          -1.34427134       -1.01265201        0.25764580
H           1.34427136        1.01265191        0.25764613
H           1.34427136       -1.01265190       -0.25764614
6
MD Time 1010.00
C          -0.86597001       -0.00000000        0.00000000
C           0.86597001        0.00000000       -0.00000000
H          -1.35890789        1.00889963       -0.25276251
H          -1.35890789       -1.00889963        0.25276252
H           1.35890790        1.00889953        0.25276285
H           1.35890791       -1.00889953       -0.25276286
6
MD Time 1020.00
C          -0.87269194       -0.00000000        0.00000000
C           0.87269194        0.00000000       -0.00000000
H          -1.37331167        1.00418398       -0.24736840
H          -1.37331167       -1.00418398        0.24736841
H           1.37331169        1.00418388        0.24736874
H           1.37331169       -1.00418388       -0.24736875
6
MD Time 1030.00
C          -0.87911708       -0.00000000        0.00000000
C           0.87911707        0.00000000       -0.00000000
H          -1.38745236        0.99854423       -0.24148629
H          -1.38745236       -0.99854423        0.24148630
H           1.38745238        0.99854413        0.24148662
H           1.38745239       -0.99854413       -0.24148663
6
MD Time 1040.00
C          -0.88524687       -0.00000000        0.00000000
C           0.88524687        0.00000000       -0.00000000
H          -1.40130420        0.99203181       -0.23514144
H          -1.40130420       -0.99203181        0.23514145
H           1.40130423        0.99203171        0.23514178
H           1.40130423       -0.99203171       -0.23514179
6
MD Time 1050.00
C          -0.89108233       -0.00000000        0.00000000
C           0.89108233        0.00000000       -0.00000000
H          -1.41484618        0.98471027       -0.22836141
H          -1.41484617       -0.98471027        0.22836142
H           1.41484621        0.98471017        0.22836174
H           1.41484621       -0.98471017       -0.22836175
6
MD Time 1060.00
C          -0.89662391       -0.00000000        0.00000000
C           0.89662390        0.00000000       -0.00000000
H          -1.42806219        0.97665510       -0.22117573
H          -1.42806218       -0.97665511        0.22117574
H           1.42806222        0.97665501        0.22117606
H           1.42806222       -0.97665500       -0.22117607
6
MD Time 1070.00
C          -0.90187142       -0.00000000        0.00000000
C           0.90187141        0.00000000       -0.00000000
H          -1.44094116        0.96795342       -0.21361575
H          -1.44094116       -0.96795342        0.21361576
H           1.44094120        0.96795333        0.21361607
H           1.44094120       -0.96795332       -0.21361608
6
MD Time 1080.00
C          -0.90682403       -0.00000000        0.00000000
C           0.90682402        0.00000000       -0.00000000
H          -1.45347712        0.95870342       -0.20571422
H          -1.45347711       -0.95870343        0.20571423
H           1.45347716        0.95870333        0.20571454
H           1.45347716       -0.95870333       -0.20571455
6
MD Time 1090.00
C          -0.91148019       -0.00000000        0.00000000
C           0.91148018        0.00000000       -0.00000000
H          -1.46566910        0.94901367       -0.19750497
H          -1.46566910       -0.94901367        0.19750498
H           1.46566915        0.94901358        0.19750528
H           1.46566915       -0.94901357       -0.19750530
6
MD Time 1100.00
C          -0.91583765       -0.00000000        0.00000000
C           0.91583764        0.00000000       -0.00000000
H          -1.47752103        0.93900199       -0.18902245
H          -1.47752102       -0.93900200        0.18902246
H           1.47752107        0.93900191        0.18902275
H           1.47752108       -0.93900190       -0.18902277
6
MD Time 1110.00
C          -0.91989349       -0.00000000        0.00000000
C           0.91989348        0.00000000       -0.00000000
H          -1.48904125        0.92879415       -0.18030118
H          -1.48904125       -0.92879416        0.18030119
H           1.48904130        0.92879407        0.18030148
H           1.48904130       -0.92879406       -0.18030149
6
MD Time 1120.00
C          -0.92364423       -0.00000000        0.00000000
C           0.92364422        0.00000000       -0.00000000
H          -1.50024201        0.91852201       -0.17137524
H          -1.50024201       -0.91852201        0.17137525
H           1.50024207        0.91852193        0.17137553
H           1.50024207       -0.91852192       -0.17137555
6
MD Time 1130.00
C          -0.92708592       -0.00000000        0.00000000
C           0.92708591        0.00000000       -0.00000000
H          -1.51113855        0.90832137       -0.16227763
H          -1.51113855       -0.90832137        0.16227764
H           1.51113861        0.90832129        0.16227792
H           1.51113861       -0.90832128       -0.16227793
6
MD Time 1140.00
C          -0.93021433       -0.00000000        0.00000000
C           0.93021432        0.00000000       -0.00000000
H          -1.52174801        0.89832941       -0.15303966
H          -1.52174801       -0.89832941        0.15303967
H           1.52174807        0.89832933        0.15303995
H           1.52174807       -0.89832933       -0.15303996
6
MD Time 1150.00
C          -0.93302520       -0.00000000        0.00000000
C           0.93302519        0.00000000       -0.00000000
H          -1.53208799        0.88868178       -0.14369034
H          -1.53208799       -0.88868178        0.14369035
H           1.53208805        0.88868170        0.14369062
H           1.53208805       -0.88868170       -0.14369063
6
MD Time 1160.00
C          -0.93551450       -0.00000000        0.00000000
C           0.93551449        0.00000000       -0.00000000
H          -1.54217498        0.87950943       -0.13425581
H          -1.54217498       -0.87950944        0.13425582
H           1.54217504        0.87950936        0.13425608
H           1.54217504       -0.87950936       -0.13425609
6
MD Time 1170.00
C          -0.93767871       -0.00000000        0.00000000
C           0.93767870        0.00000000       -0.00000000
H          -1.55202250        0.87093538       -0.12475891
H          -1.55202249       -0.87093538        0.12475892
H           1.55202256        0.87093531        0.12475917
H           1.55202256       -0.87093530       -0.12475919
6
MD Time 1180.00
C          -0.93951515       -0.00000000        0.00000000
C           0.93951514        0.00000000       -0.00000000
H          -1.56163925        0.86307142       -0.11521882
H          -1.56163924       -0.86307142        0.11521883
H           1.56163931        0.86307135        0.11521909
H           1.56163931       -0.86307135       -0.11521910
6
MD Time 1190.00
C          -0.94102231       -0.00000000        0.00000000
C           0.94102230        0.00000000       -0.00000000
H          -1.57102727        0.85601517       -0.10565094
H          -1.57102727       -0.85601517        0.10565095
H           1.57102733        0.85601511        0.10565120
H           1.57102734       -0.85601510       -0.10565121
6
MD Time 1200.00
C          -0.94220007       -0.00000000        0.00000000
C           0.94220006        0.00000000       -0.00000000
H          -1.58018033        0.84984746       -0.09606688
H          -1.58018033       -0.84984746        0.09606689
H           1.58018039        0.84984740        0.09606713
H           1.58018039       -0.84984739       -0.09606715
6
MD Time 1210.00
C          -0.94304998       -0.00000000        0.00000000
C           0.94304997        0.00000000       -0.00000000
H          -1.58908258        0.84463032       -0.08647471
H          -1.58908258       -0.84463033        0.08647472
H           1.58908265        0.84463027        0.08647495
H           1.58908265       -0.84463026       -0.08647496
6
MD Time 1220.00
C          -0.94357536       -0.00000000        0.00000000
C           0.94357535        0.00000000       -0.00000000
H          -1.59770775        0.84040572       -0.07687934
H          -1.59770775       -0.84040573        0.07687935
H           1.59770782        0.84040567        0.07687958
H           1.59770782       -0.84040566       -0.07687959
6
MD Time 1230.00
C          -0.94378138       -0.00000000        0.00000000
C           0.94378137        0.00000000       -0.00000000
H          -1.60601883        0.83719502       -0.06728313
H          -1.60601883       -0.83719503        0.06728314
H           1.60601889        0.83719497        0.06728336
H           1.60601890       -0.83719497       -0.06728337
6
MD Time 1240.00
C          -0.94367497       -0.00000000        0.00000000
C           0.94367496        0.00000000       -0.00000000
H          -1.61396836        0.83499928       -0.05768648
H          -1.61396835       -0.83499929        0.05768649
H           1.61396841        0.83499923        0.05768671
H           1.61396842       -0.83499923       -0.05768672
6
MD Time 1250.00
C          -0.94326472       -0.00000000        0.00000000
C           0.94326471        0.00000000       -0.00000000
H          -1.62149928        0.83380027       -0.04808863
H          -1.62149927       -0.83380027        0.04808864
H           1.62149933        0.83380022        0.04808885
H           1.62149934       -0.83380022       -0.04808886
6
MD Time 1260.00
C          -0.94256064       -0.00000000        0.00000000
C           0.94256063        0.00000000       -0.00000000
H          -1.62854633        0.83356211       -0.03848831
H          -1.62854633       -0.83356212        0.03848832
H           1.62854638        0.83356207        0.03848853
H           1.62854639       -0.83356206       -0.03848854
6
MD Time 1270.00
C          -0.94157383       -0.00000000        0.00000000
C           0.94157382        0.00000000       -0.00000000
H          -1.63503777        0.83423340       -0.02888447
H          -1.63503777       -0.83423341        0.02888448
H           1.63503783        0.83423336        0.02888468
H           1.63503783       -0.83423336       -0.02888469
6
MD Time 1280.00
C          -0.94031619       -0.00000000        0.00000000
C           0.94031619        0.00000000       -0.00000000
H          -1.64089744        0.83574964       -0.01927683
H          -1.64089743       -0.83574965        0.01927684
H           1.64089749        0.83574961        0.01927704
H           1.64089749       -0.83574960       -0.01927705
6
MD Time 1290.00
C          -0.93880003       -0.00000000        0.00000000
C           0.93880002        0.00000000       -0.00000000
H          -1.64604683        0.83803580       -0.00966638
H          -1.64604683       -0.83803581        0.00966639
H           1.64604688        0.83803577        0.00966658
H           1.64604688       -0.83803576       -0.00966659
6
MD Time 1300.00
C          -0.93703771       -0.00000000        0.00000000
C           0.93703771        0.00000000       -0.00000000
H          -1.65040729        0.84100890       -0.00005573
H          -1.65040728       -0.84100890        0.00005574
H           1.65040733        0.84100887        0.00005592
H           1.65040733       -0.84100886       -0.00005593
6
MD Time 1310.00
C          -0.93504134       -0.00000000        0.00000000
C           0.93504133        0.00000000       -0.00000000
H          -1.65390195        0.84458047        0.00955069
H          -1.65390194       -0.84458047       -0.00955068
H           1.65390198        0.84458044       -0.00955051
H           1.65390199       -0.84458044        0.00955050
6
MD Time 1320.00
C          -0.93282245       -0.00000000        0.00000000
C           0.93282244        0.00000000       -0.00000000
H          -1.65645756        0.84865881        0.01914645
H          -1.65645756       -0.84865882       -0.01914644
H           1.65645759        0.84865879       -0.01914628
H           1.65645759       -0.84865878        0.01914627
6
MD Time 1330.00
C          -0.93039174       -0.00000000        0.00000000
C           0.93039173        0.00000000       -0.00000000
H          -1.65800601        0.85315102        0.02872318
H          -1.65800601       -0.85315102       -0.02872317
H           1.65800604        0.85315100       -0.02872301
H           1.65800604       -0.85315100        0.02872300
6
MD Time 1340.00
C          -0.92775890       -0.00000000        0.00000000
C           0.92775890        0.00000000       -0.00000000
H          -1.65848558        0.85796470        0.03827058
H          -1.65848558       -0.85796471       -0.03827057
H           1.65848561        0.85796469       -0.03827041
H           1.65848561       -0.85796468        0.03827040
6
MD Time 1350.00
C          -0.92493242       -0.00000000        0.00000000
C           0.92493242        0.00000000       -0.00000000
H          -1.65784195        0.86300946        0.04777658
H          -1.65784194       -0.86300947       -0.04777657
H           1.65784197        0.86300945       -0.04777642
H           1.65784197       -0.86300945        0.04777641
6
MD Time 1360.00
C          -0.92191950       -0.00000000        0.00000000
C           0.92191950        0.00000000       -0.00000000
H          -1.65602888        0.86819811        0.05722752
H          -1.65602887       -0.86819812       -0.05722751
H           1.65602889        0.86819811       -0.05722737
H           1.65602889       -0.86819810        0.05722736
6
MD Time 1370.00
C          -0.91872595       -0.00000000        0.00000000
C           0.91872595        0.00000000       -0.00000000
H          -1.65300876        0.87344767        0.06660834
H          -1.65300875       -0.87344768       -0.06660833
H           1.65300877        0.87344767       -0.06660820
H           1.65300877       -0.87344767        0.06660819
6
MD Time 1380.00
C          -0.91535615       -0.00000000        0.00000000
C           0.91535615        0.00000000       -0.00000000
H          -1.64875292        0.87868015        0.07590283
H          -1.64875292       -0.87868016       -0.07590282
H           1.64875292        0.87868016       -0.07590270
H           1.64875293       -0.87868015        0.07590269
6
MD Time 1390.00
C          -0.91181307       -0.00000000        0.00000000
C           0.91181307        0.00000000       -0.00000000
H          -1.64324180        0.88382323        0.08509385
H          -1.64324179       -0.88382324       -0.08509384
H           1.64324180        0.88382324       -0.08509373
H           1.64324180       -0.88382324        0.08509371
6
MD Time 1400.00
C          -0.90809821       -0.00000000        0.00000000
C           0.90809821        0.00000000       -0.00000000
H          -1.63646501        0.88881077        0.09416358
H          -1.63646500       -0.88881077       -0.09416357
H           1.63646500        0.88881078       -0.09416346
H           1.63646501       -0.88881078        0.09416345
6
MD Time 1410.00
C          -0.90421166       -0.00000000        0.00000000
C           0.90421166        0.00000000       -0.00000000
H          -1.62842134        0.89358325        0.10309377
H          -1.62842133       -0.89358325       -0.10309375
H           1.62842132        0.89358327       -0.10309366
H           1.62842133       -0.89358326        0.10309364
6
MD Time 1420.00
C          -0.90015213       -0.00000000        0.00000000
C           0.90015213        0.00000000       -0.00000000
H          -1.61911867        0.89808817        0.11186594
H          -1.61911866       -0.89808818       -0.11186593
H           1.61911865        0.89808820       -0.11186584
H           1.61911866       -0.89808819        0.11186583
6
MD Time 1430.00
C          -0.89591697       -0.00000000        0.00000000
C           0.89591697        0.00000000       -0.00000000
H          -1.60857391        0.90228040        0.12046169
H          -1.60857390       -0.90228040       -0.12046168
H           1.60857389        0.90228043       -0.12046160
H           1.60857389       -0.90228042        0.12046158
6
MD Time 1440.00
C          -0.89150220       -0.00000000        0.00000000
C           0.89150220        0.00000000       -0.00000000
H          -1.59681285        0.90612246        0.12886286
H          -1.59681284       -0.90612247       -0.12886284
H           1.59681282        0.90612249       -0.12886277
H           1.59681283       -0.90612249        0.12886276
6
MD Time 1450.00
C          -0.88690260       -0.00000000        0.00000000
C           0.88690260        0.00000000       -0.00000000
H          -1.58387006        0.90958489        0.13705179
H          -1.58387006       -0.90958490       -0.13705177
H           1.58387003        0.90958493       -0.13705171
H           1.58387004       -0.90958493        0.13705170
6
MD Time 1460.00
C          -0.88211172       -0.00000000        0.00000000
C           0.88211173        0.00000000       -0.00000000
H          -1.56978875        0.91264653        0.14501155
H          -1.56978875       -0.91264653       -0.14501154
H           1.56978872        0.91264657       -0.14501148
H           1.56978872       -0.91264656        0.14501147
6
MD Time 1470.00
C          -0.87712199       -0.00000000        0.00000000
C           0.87712199        0.00000000       -0.00000000
H          -1.55462062        0.91529478        0.15272616
H          -1.55462061       -0.91529479       -0.15272615
H           1.55462058        0.91529483       -0.15272610
H           1.55462058       -0.91529482        0.15272609
6
MD Time 1480.00
C          -0.87192473       -0.00000000        0.00000000
C           0.87192474        0.00000000       -0.00000000
H          -1.53842565        0.91752594        0.16018079
H          -1.53842564       -0.91752594       -0.16018078
H           1.53842561        0.91752599       -0.16018074
H           1.53842561       -0.91752598        0.16018073
6
MD Time 1490.00
C          -0.86651029       -0.00000000        0.00000000
C           0.86651030        0.00000000       -0.00000000
H          -1.52127192        0.91934540        0.16736198
H          -1.52127192       -0.91934541       -0.16736197
H           1.52127188        0.91934546       -0.16736194
H           1.52127188       -0.91934545        0.16736192
6
MD Time 1500.00
C          -0.86086814       -0.00000000        0.00000000
C           0.86086814        0.00000000       -0.00000000
H          -1.50323531        0.92076787        0.17425782
H          -1.50323530       -0.92076787       -0.17425780
H           1.50323526        0.92076792       -0.17425778
H           1.50323527       -0.92076792        0.17425777
6
MD Time 1510.00
C          -0.85498696       -0.00000000        0.00000000
C           0.85498696        0.00000000       -0.00000000
H          -1.48439912        0.92181740        0.18085810
H          -1.48439911       -0.92181741       -0.18085809
H           1.48439907        0.92181746       -0.18085808
H           1.48439907       -0.92181745        0.18085806
6
MD Time 1520.00
C          -0.84885483       -0.00000000        0.00000000
C           0.84885484        0.00000000       -0.00000000
H          -1.46485360        0.92252743        0.18715449
H          -1.46485360       -0.92252744       -0.18715448
H           1.46485355        0.92252749       -0.18715447
H           1.46485356       -0.92252749        0.18715446
6
MD Time 1530.00
C          -0.84245941       -0.00000000        0.00000000
C           0.84245942        0.00000000       -0.00000000
H          -1.44469538        0.92294052        0.19314057
H          -1.44469537       -0.92294053       -0.19314056
H           1.44469532        0.92294058       -0.19314056
H           1.44469533       -0.92294058        0.19314054
6
MD Time 1540.00
C          -0.83578813       -0.00000000        0.00000000
C           0.83578814        0.00000000       -0.00000000
H          -1.42402665        0.92310795        0.19881186
H          -1.42402665       -0.92310795       -0.19881185
H           1.42402660        0.92310801       -0.19881186
H           1.42402660       -0.92310801        0.19881184
6
MD Time 1550.00
C          -0.82882849       -0.00000000        0.00000000
C           0.82882850        0.00000000       -0.00000000
H          -1.40295434        0.92308900        0.20416580
H          -1.40295433       -0.92308900       -0.20416579
H           1.40295428        0.92308906       -0.20416581
H           1.40295428       -0.92308906        0.20416579
6
MD Time 1560.00
C          -0.82156832       -0.00000000        0.00000000
C           0.82156833        0.00000000       -0.00000000
H          -1.38158894        0.92294998        0.20920158
H          -1.38158893       -0.92294999       -0.20920157
H           1.38158888        0.92295004       -0.20920159
H           1.38158888       -0.92295004        0.20920158
6
MD Time 1570.00
C          -0.81399618       -0.00000000        0.00000000
C           0.81399619        0.00000000       -0.00000000
H          -1.36004332        0.92276286        0.21391990
H          -1.36004332       -0.92276287       -0.21391988
H           1.36004326        0.92276292       -0.21391991
H           1.36004326       -0.92276292        0.21391990
6
MD Time 1580.00
C          -0.80610172       -0.00000000        0.00000000
C           0.80610173        0.00000000       -0.00000000
H          -1.33843131        0.92260357        0.21832258
H          -1.33843131       -0.92260357       -0.21832257
H           1.33843125        0.92260363       -0.21832260
H           1.33843126       -0.92260362        0.21832259
6
MD Time 1590.00
C          -0.79787613       -0.00000000        0.00000000
C           0.79787614        0.00000000       -0.00000000
H          -1.31686620        0.92254993        0.22241215
H          -1.31686619       -0.92254994       -0.22241214
H           1.31686614        0.92254999       -0.22241218
H           1.31686614       -0.92254999        0.22241217
6
MD Time 1600.00
C          -0.78931263       -0.00000000        0.00000000
C           0.78931264        0.00000000       -0.00000000
H          -1.29545914        0.92267934        0.22619124
H          -1.29545914       -0.92267935       -0.22619123
H           1.29545908        0.92267940       -0.22619128
H           1.29545908       -0.92267940        0.22619126
6
MD Time 1610.00
C          -0.78040701       -0.00000000        0.00000000
C           0.78040702        0.00000000       -0.00000000
H          -1.27431761        0.92306612        0.22966192
H          -1.27431761       -0.92306613       -0.22966191
H           1.27431755        0.92306617       -0.22966196
H           1.27431755       -0.92306617        0.22966195
6
MD Time 1620.00
C          -0.77115811       -0.00000000        0.00000000
C           0.77115812        0.00000000       -0.00000000
H          -1.25354386        0.92377883        0.23282502
H          -1.25354386       -0.92377883       -0.23282500
H           1.25354380        0.92377888       -0.23282506
H           1.25354380       -0.92377888        0.23282505
6
MD Time 1630.00
C          -0.76156845       -0.00000000        0.00000000
C           0.76156846        0.00000000       -0.00000000
H          -1.23323358        0.92487755        0.23567939
H          -1.23323357       -0.92487756       -0.23567938
H           1.23323351        0.92487760       -0.23567944
H           1.23323352       -0.92487759        0.23567943
6
MD Time 1640.00
C          -0.75164479       -0.00000000        0.00000000
C           0.75164480        0.00000000       -0.00000000
H          -1.21347468        0.92641136        0.23822131
H          -1.21347467       -0.92641136       -0.23822130
H           1.21347461        0.92641140       -0.23822136
H           1.21347461       -0.92641140        0.23822135
6
MD Time 1650.00
C          -0.74139872       -0.00000000        0.00000000
C           0.74139873        0.00000000       -0.00000000
H          -1.19434644        0.92841611        0.24044384
H          -1.19434643       -0.92841612       -0.24044383
H           1.19434637        0.92841615       -0.24044390
H           1.19434638       -0.92841615        0.24044389
6
MD Time 1660.00
C          -0.73084728       -0.00000000        0.00000000
C           0.73084729        0.00000000       -0.00000000
H          -1.17591889        0.93091276        0.24233651
H          -1.17591888       -0.93091277       -0.24233650
H           1.17591882        0.93091280       -0.24233657
H           1.17591882       -0.93091279        0.24233656
6
MD Time 1670.00
C          -0.72001354       -0.00000000        0.00000000
C           0.72001355        0.00000000       -0.00000000
H          -1.15825252        0.93390622        0.24388509
H          -1.15825252       -0.93390622       -0.24388508
H           1.15825245        0.93390624       -0.24388515
H           1.15825246       -0.93390624        0.24388514
6
MD Time 1680.00
C          -0.70892727       -0.00000000        0.00000000
C           0.70892728        0.00000000       -0.00000000
H          -1.14139835        0.93738494        0.24507160
H          -1.14139835       -0.93738495       -0.24507159
H           1.14139829        0.93738497       -0.24507167
H           1.14139829       -0.93738496        0.24507166
6
MD Time 1690.00
C          -0.69762553       -0.00000000        0.00000000
C           0.69762554        0.00000000       -0.00000000
H          -1.12539824        0.94132126        0.24587463
H          -1.12539824       -0.94132126       -0.24587462
H           1.12539818        0.94132128       -0.24587470
H           1.12539818       -0.94132127        0.24587469
6
MD Time 1700.00
C          -0.68615332       -0.00000000        0.00000000
C           0.68615333        0.00000000       -0.00000000
H          -1.11028545        0.94567227        0.24626982
H          -1.11028544       -0.94567228       -0.24626980
H           1.11028538        0.94567229       -0.24626989
H           1.11028539       -0.94567228        0.24626988
6
MD Time 1710.00
C          -0.67456422       -0.00000000        0.00000000
C           0.67456423        0.00000000       -0.00000000
H          -1.09608542        0.95038146        0.24623053
H          -1.09608542       -0.95038147       -0.24623052
H           1.09608536        0.95038147       -0.24623061
H           1.09608536       -0.95038146        0.24623060
6
MD Time 1720.00
C          -0.66292097       -0.00000000        0.00000000
C           0.66292098        0.00000000       -0.00000000
H          -1.08281666        0.95538067        0.24572874
H          -1.08281665       -0.95538067       -0.24572873
H           1.08281660        0.95538067       -0.24572882
H           1.08281660       -0.95538066        0.24572881
6
MD Time 1730.00
C          -0.65129602       -0.00000000        0.00000000
C           0.65129603        0.00000000       -0.00000000
H          -1.07049169        0.96059246        0.24473594
H          -1.07049168       -0.96059246       -0.24473593
H           1.07049163        0.96059245       -0.24473603
H           1.07049163       -0.96059245        0.24473602
6
MD Time 1740.00
C          -0.63977194       -0.00000000        0.00000000
C           0.63977195        0.00000000       -0.00000000
H          -1.05911803        0.96593266        0.24322416
H          -1.05911802       -0.96593266       -0.24322415
H           1.05911797        0.96593265       -0.24322426
H           1.05911797       -0.96593265        0.24322425
6
MD Time 1750.00
C          -0.62844157       -0.00000000        0.00000000
C           0.62844158        0.00000000       -0.00000000
H          -1.04869916        0.97131289        0.24116689
H          -1.04869915       -0.97131290       -0.24116688
H           1.04869910        0.97131288       -0.24116699
H           1.04869910       -0.97131288        0.24116698
6
MD Time 1760.00
C          -0.61740794       -0.00000000        0.00000000
C           0.61740795        0.00000000       -0.00000000
H          -1.03923541        0.97664310        0.23853999
H          -1.03923540       -0.97664311       -0.23853998
H           1.03923536        0.97664309       -0.23854009
H           1.03923536       -0.97664309        0.23854008
6
MD Time 1770.00
C          -0.60678365       -0.00000000        0.00000000
C           0.60678365        0.00000000       -0.00000000
H          -1.03072479        0.98183383        0.23532250
H          -1.03072478       -0.98183384       -0.23532249
H           1.03072474        0.98183381       -0.23532260
H           1.03072474       -0.98183381        0.23532259
6
MD Time 1780.00
C          -0.59668972       -0.00000000        0.00000000
C           0.59668973        0.00000000       -0.00000000
H          -1.02316370        0.98679833        0.23149728
H          -1.02316370       -0.98679834       -0.23149727
H           1.02316366        0.98679831       -0.23149739
H           1.02316366       -0.98679830        0.23149738
6
MD Time 1790.00
C          -0.58725372       -0.00000000        0.00000000
C           0.58725373        0.00000000       -0.00000000
H          -1.01654758        0.99145437        0.22705155
H          -1.01654757       -0.99145437       -0.22705154
H           1.01654753        0.99145434       -0.22705166
H           1.01654754       -0.99145434        0.22705165
6
MD Time 1800.00
C          -0.57860700       -0.00000000        0.00000000
C           0.57860701        0.00000000       -0.00000000
H          -1.01087137        0.99572581        0.22197723
H          -1.01087136       -0.99572581       -0.22197721
H           1.01087133        0.99572578       -0.22197734
H           1.01087133       -0.99572578        0.22197733
6
MD Time 1810.00
C          -0.57088112       -0.00000000        0.00000000
C           0.57088113        0.00000000       -0.00000000
H          -1.00612997        0.99954389        0.21627116
H          -1.00612996       -0.99954390       -0.21627115
H           1.00612993        0.99954386       -0.21627128
H           1.00612993       -0.99954386        0.21627127
6
MD Time 1820.00
C          -0.56420337       -0.00000000        0.00000000
C           0.56420338        0.00000000       -0.00000000
H          -1.00231853        1.00284831        0.20993523
H          -1.00231852       -1.00284831       -0.20993521
H           1.00231850        1.00284828       -0.20993535
H           1.00231850       -1.00284827        0.20993534
6
MD Time 1830.00
C          -0.55869169       -0.00000000        0.00000000
C           0.55869169        0.00000000       -0.00000000
H          -0.99943266        1.00558808        0.20297629
H          -0.99943265       -1.00558809       -0.20297628
H           0.99943263        1.00558805       -0.20297642
H           0.99943263       -1.00558805        0.20297641
6
MD Time 1840.00
C          -0.55444920       -0.00000000        0.00000000
C           0.55444920        0.00000000       -0.00000000
H          -0.99746858        1.00772227        0.19540611
H          -0.99746858       -1.00772228       -0.19540609
H           0.99746856        1.00772224       -0.19540624
H           0.99746856       -1.00772224        0.19540623
6
MD Time 1850.00
C          -0.55155884       -0.00000000        0.00000000
C           0.55155885        0.00000000       -0.00000000
H          -0.99642322        1.00922057        0.18724109
H          -0.99642321       -1.00922057       -0.18724108
H           0.99642320        1.00922054       -0.18724123
H           0.99642320       -1.00922053        0.18724122
6
MD Time 1860.00
C          -0.55007870       -0.00000000        0.00000000
C           0.55007871        0.00000000       -0.00000000
H          -0.99629425        1.01006374        0.17850211
H          -0.99629425       -1.01006374       -0.17850209
H           0.99629423        1.01006371       -0.17850225
H           0.99629424       -1.01006371        0.17850224
6
MD Time 1870.00
C          -0.55003844       -0.00000000        0.00000000
C           0.55003844        0.00000000       -0.00000000
H          -0.99708016        1.01024405        0.16921416
H          -0.99708016       -1.01024406       -0.16921414
H           0.99708015        1.01024402       -0.16921431
H           0.99708016       -1.01024402        0.16921430
6
MD Time 1880.00
C          -0.55143741       -0.00000000        0.00000000
C           0.55143741        0.00000000       -0.00000000
H          -0.99878027        1.00976553        0.15940606
H          -0.99878027       -1.00976554       -0.15940605
H           0.99878026        1.00976551       -0.15940622
H           0.99878027       -1.00976550        0.15940620
6
MD Time 1890.00
C          -0.55424460       -0.00000000        0.00000000
C           0.55424460        0.00000000       -0.00000000
H          -1.00139475        1.00864419        0.14911009
H          -1.00139475       -1.00864419       -0.14911007
H           1.00139475        1.00864416       -0.14911024
H           1.00139475       -1.00864416        0.14911023
6
MD Time 1900.00
C          -0.55840051       -0.00000000        0.00000000
C           0.55840051        0.00000000       -0.00000000
H          -1.00492468        1.00690801        0.13836153
H          -1.00492468       -1.00690802       -0.13836151
H           1.00492468        1.00690799       -0.13836169
H           1.00492469       -1.00690799        0.13836168
6
MD Time 1910.00
C          -0.56382062       -0.00000000        0.00000000
C           0.56382062        0.00000000       -0.00000000
H          -1.00937201        1.00459688        0.12719824
H          -1.00937201       -1.00459689       -0.12719823
H           1.00937201        1.00459686       -0.12719841
H           1.00937202       -1.00459686        0.12719839
6
MD Time 1920.00
C          -0.57040009       -0.00000000        0.00000000
C           0.57040008        0.00000000       -0.00000000
H          -1.01473950        1.00176217        0.11566010
H          -1.01473950       -1.00176218       -0.11566009
H           1.01473951        1.00176216       -0.11566027
H           1.01473951       -1.00176215        0.11566026
6
MD Time 1930.00
C          -0.57801913       -0.00000000        0.00000000
C           0.57801913        0.00000000       -0.00000000
H          -1.02103059        0.99846611        0.10378840
H          -1.02103058       -0.99846612       -0.10378839
H           1.02103060        0.99846609       -0.10378858
H           1.02103060       -0.99846609        0.10378856
6
MD Time 1940.00
C          -0.58654852       -0.00000000        0.00000000
C           0.58654852        0.00000000       -0.00000000
H          -1.02824907        0.99478073        0.09162518
H          -1.02824907       -0.99478074       -0.09162516
H           1.02824909        0.99478072       -0.09162536
H           1.02824909       -0.99478072        0.09162534
6
MD Time 1950.00
C          -0.59585478       -0.00000000        0.00000000
C           0.59585478        0.00000000       -0.00000000
H          -1.03639871        0.99078648        0.07921250
H          -1.03639871       -0.99078648       -0.07921249
H           1.03639873        0.99078647       -0.07921269
H           1.03639873       -0.99078646        0.07921267
6
MD Time 1960.00
C          -0.60580474       -0.00000000        0.00000000
C           0.60580474        0.00000000       -0.00000000
H          -1.04548261        0.98657031        0.06659176
H          -1.04548261       -0.98657032       -0.06659175
H           1.04548263        0.98657031       -0.06659195
H           1.04548264       -0.98657030        0.06659193
6
MD Time 1970.00
C          -0.61626927       -0.00000000        0.00000000
C           0.61626927        0.00000000       -0.00000000
H          -1.05550248        0.98222345        0.05380298
H          -1.05550247       -0.98222345       -0.05380296
H           1.05550250        0.98222344       -0.05380317
H           1.05550250       -0.98222344        0.05380315
6
MD Time 1980.00
C          -0.62712614       -0.00000000        0.00000000
C           0.62712613        0.00000000       -0.00000000
H          -1.06645765        0.97783858        0.04088418
H          -1.06645765       -0.97783859       -0.04088416
H           1.06645768        0.97783858       -0.04088437
H           1.06645768       -0.97783857        0.04088436
6
MD Time 1990.00
C          -0.63826202       -0.00000000        0.00000000
C           0.63826201        0.00000000       -0.00000000
H          -1.07834408        0.97350688        0.02787091
H          -1.07834408       -0.97350689       -0.02787089
H           1.07834411        0.97350688       -0.02787111
H           1.07834411       -0.97350688        0.02787109
6
MD Time 2000.00
C          -0.64957380       -0.00000000        0.00000000
C           0.64957380        0.00000000       -0.00000000
H          -1.09115313        0.96931472        0.01479589
H          -1.09115312       -0.96931472       -0.01479587
H           1.09115315        0.96931472       -0.01479609
H           1.09115316       -0.96931471        0.01479607
6
MD Time 2010.00
C          -0.66096929       -0.00000000        0.00000000
C           0.66096928        0.00000000       -0.00000000
H          -1.10487038        0.96534030        0.00168888
H          -1.10487038       -0.96534031       -0.00168886
H           1.10487041        0.96534031       -0.00168909
H           1.10487041       -0.96534030        0.00168907
6
MD Time 2020.00
C          -0.67236734       -0.00000000        0.00000000
C           0.67236733        0.00000000       -0.00000000
H          -1.11947447        0.96165057       -0.01142324
H          -1.11947447       -0.96165058        0.01142326
H           1.11947450        0.96165057        0.01142303
H           1.11947451       -0.96165057       -0.01142305
6
MD Time 2030.00
C          -0.68369777       -0.00000000        0.00000000
C           0.68369777        0.00000000       -0.00000000
H          -1.13493602        0.95829833       -0.02451623
H          -1.13493601       -0.95829834        0.02451625
H           1.13493605        0.95829834        0.02451602
H           1.13493605       -0.95829833       -0.02451604
6
MD Time 2040.00
C          -0.69490096       -0.00000000        0.00000001
C           0.69490095        0.00000000       -0.00000000
H          -1.15121670        0.95532006       -0.03756803
H          -1.15121669       -0.95532007        0.03756805
H           1.15121673        0.95532007        0.03756782
H           1.15121673       -0.95532006       -0.03756784
6
MD Time 2050.00
C          -0.70592718       -0.00000000        0.00000001
C           0.70592718        0.00000000       -0.00000001
H          -1.16826865        0.95273439       -0.05055820
H          -1.16826865       -0.95273440        0.05055822
H           1.16826868        0.95273440        0.05055799
H           1.16826869       -0.95273439       -0.05055801
6
MD Time 2060.00
C          -0.71673600       -0.00000000        0.00000001
C           0.71673599        0.00000000       -0.00000001
H          -1.18603416        0.95054148       -0.06346727
H          -1.18603415       -0.95054149        0.06346729
H           1.18603419        0.95054149        0.06346705
H           1.18603419       -0.95054148       -0.06346707
6
MD Time 2070.00
C          -0.72729542       -0.00000000        0.00000001
C           0.72729541        0.00000000       -0.00000001
H          -1.20444567        0.94872333       -0.07627609
H          -1.20444567       -0.94872333        0.07627611
H           1.20444570        0.94872334        0.07627586
H           1.20444571       -0.94872333       -0.07627589
6
MD Time 2080.00
C          -0.73758108       -0.00000000        0.00000001
C           0.73758108        0.00000000       -0.00000001
H          -1.22342627        0.94724492       -0.08896527
H          -1.22342627       -0.94724492        0.08896530
H           1.22342630        0.94724493        0.08896505
H           1.22342631       -0.94724492       -0.08896508
6
MD Time 2090.00
C          -0.74757544       -0.00000000        0.00000001
C           0.74757544        0.00000000       -0.00000001
H          -1.24289042        0.94605616       -0.10151474
H          -1.24289042       -0.94605617        0.10151476
H           1.24289045        0.94605618        0.10151451
H           1.24289045       -0.94605617       -0.10151454
6
MD Time 2100.00
C          -0.75726691       -0.00000000        0.00000001
C           0.75726690        0.00000000       -0.00000001
H          -1.26274508        0.94509448       -0.11390335
H          -1.26274507       -0.94509448        0.11390337
H           1.26274510        0.94509449        0.11390312
H           1.26274511       -0.94509448       -0.11390315
6
MD Time 2110.00
C          -0.76664900       -0.00000000        0.00000001
C           0.76664900        0.00000000       -0.00000001
H          -1.28289106        0.94428768       -0.12610882
H          -1.28289106       -0.94428768        0.12610884
H           1.28289109        0.94428769        0.12610859
H           1.28289109       -0.94428768       -0.12610862
6
MD Time 2120.00
C          -0.77571960       -0.00000000        0.00000001
C           0.77571960        0.00000000       -0.00000001
H          -1.30322460        0.94355716       -0.13810771
H          -1.30322459       -0.94355716        0.13810773
H           1.30322462        0.94355717        0.13810748
H           1.30322463       -0.94355716       -0.13810751
6
MD Time 2130.00
C          -0.78448018       -0.00000000        0.00000001
C           0.78448018        0.00000000       -0.00000001
H          -1.32363892        0.94282098       -0.14987561
H          -1.32363891       -0.94282098        0.14987564
H           1.32363894        0.94282099        0.14987539
H           1.32363895       -0.94282098       -0.14987542
6
MD Time 2140.00
C          -0.79293510       -0.00000000        0.00000001
C           0.79293509        0.00000000       -0.00000001
H          -1.34402592        0.94199680       -0.16138745
H          -1.34402592       -0.94199681        0.16138748
H           1.34402595        0.94199682        0.16138723
H           1.34402595       -0.94199680       -0.16138725
6
MD Time 2150.00
C          -0.80109098       -0.00000000        0.00000001
C           0.80109097        0.00000000       -0.00000001
H          -1.36427773        0.94100452       -0.17261783
H          -1.36427773       -0.94100453        0.17261785
H           1.36427775        0.94100454        0.17261760
H           1.36427776       -0.94100453       -0.17261763
6
MD Time 2160.00
C          -0.80895616       -0.00000000        0.00000001
C           0.80895615        0.00000000       -0.00000001
H          -1.38428816        0.93976850       -0.18354146
H          -1.38428815       -0.93976851        0.18354149
H           1.38428818        0.93976852        0.18354124
H           1.38428818       -0.93976851       -0.18354127
6
MD Time 2170.00
C          -0.81654017       -0.00000000        0.00000001
C           0.81654017        0.00000000       -0.00000001
H          -1.40395398        0.93821938       -0.19413364
H          -1.40395397       -0.93821939        0.19413367
H           1.40395400        0.93821940        0.19413342
H           1.40395400       -0.93821939       -0.19413345
6
MD Time 2180.00
C          -0.82385334       -0.00000000        0.00000001
C           0.82385334        0.00000000       -0.00000001
H          -1.42317607        0.93629550       -0.20437063
H          -1.42317606       -0.93629550        0.20437065
H           1.42317609        0.93629552        0.20437041
H           1.42317609       -0.93629550       -0.20437044
6
MD Time 2190.00
C          -0.83090638       -0.00000000        0.00000001
C           0.83090638        0.00000000       -0.00000001
H          -1.44186033        0.93394388       -0.21423005
H          -1.44186032       -0.93394388        0.21423008
H           1.44186035        0.93394390        0.21422983
H           1.44186035       -0.93394389       -0.21422986
6
MD Time 2200.00
C          -0.83771013       -0.00000000        0.00000001
C           0.83771013        0.00000000       -0.00000001
H          -1.45991843        0.93112094       -0.22369129
H          -1.45991843       -0.93112094        0.22369132
H           1.45991845        0.93112096        0.22369108
H           1.45991845       -0.93112095       -0.22369111
6
MD Time 2210.00
C          -0.84427526       -0.00000000        0.00000001
C           0.84427525        0.00000000       -0.00000001
H          -1.47726842        0.92779287       -0.23273578
H          -1.47726841       -0.92779287        0.23273581
H           1.47726843        0.92779290        0.23273557
H           1.47726844       -0.92779288       -0.23273560
6
MD Time 2220.00
C          -0.85061206       -0.00000000        0.00000001
C           0.85061206        0.00000000       -0.00000001
H          -1.49383515        0.92393582       -0.24134727
H          -1.49383515       -0.92393583        0.24134729
H           1.49383517        0.92393585        0.24134706
H           1.49383517       -0.92393584       -0.24134709
6
MD Time 2230.00
C          -0.85673032       -0.00000000        0.00000001
C           0.85673032        0.00000000       -0.00000001
H          -1.50955068        0.91953593       -0.24951205
H          -1.50955068       -0.91953593        0.24951208
H           1.50955070        0.91953596        0.24951186
H           1.50955070       -0.91953594       -0.24951189
6
MD Time 2240.00
C          -0.86263910       -0.00000000        0.00000001
C           0.86263910        0.00000000       -0.00000001
H          -1.52435448        0.91458917       -0.25721919
H          -1.52435448       -0.91458918        0.25721922
H           1.52435449        0.91458921        0.25721900
H           1.52435450       -0.91458919       -0.25721904
6
MD Time 2250.00
C          -0.86834668       -0.00000000        0.00000001
C           0.86834667        0.00000000       -0.00000001
H          -1.53819366        0.90910127       -0.26446066
H          -1.53819365       -0.90910128        0.26446068
H           1.53819367        0.90910131        0.26446047
H           1.53819367       -0.90910129       -0.26446051
6
MD Time 2260.00
C          -0.87386041       -0.00000000        0.00000001
C           0.87386040        0.00000000       -0.00000001
H          -1.55102313        0.90308742       -0.27123148
H          -1.55102312       -0.90308743        0.27123150
H           1.55102314        0.90308746        0.27123130
H           1.55102314       -0.90308744       -0.27123133
6
MD Time 2270.00
C          -0.87918665       -0.00000000        0.00000001
C           0.87918664        0.00000000       -0.00000001
H          -1.56280576        0.89657211       -0.27752989
H          -1.56280575       -0.89657212        0.27752991
H           1.56280577        0.89657215        0.27752972
H           1.56280577       -0.89657214       -0.27752975
6
MD Time 2280.00
C          -0.88433067       -0.00000000        0.00000001
C           0.88433067        0.00000000       -0.00000001
H          -1.57351252        0.88958890       -0.28335745
H          -1.57351251       -0.88958890        0.28335747
H           1.57351253        0.88958894        0.28335729
H           1.57351253       -0.88958892       -0.28335732
6
MD Time 2290.00
C          -0.88929660       -0.00000000        0.00000001
C           0.88929660        0.00000000       -0.00000001
H          -1.58312263        0.88218019       -0.28871917
H          -1.58312263       -0.88218020        0.28871919
H           1.58312264        0.88218023        0.28871901
H           1.58312265       -0.88218022       -0.28871904
6
MD Time 2300.00
C          -0.89408733       -0.00000000        0.00000001
C           0.89408733        0.00000000       -0.00000001
H          -1.59162374        0.87439708       -0.29362361
H          -1.59162373       -0.87439708        0.29362363
H           1.59162374        0.87439712        0.29362346
H           1.59162375       -0.87439711       -0.29362349
6
MD Time 2310.00
C          -0.89870446       -0.00000000        0.00000001
C           0.89870446        0.00000000       -0.00000001
H          -1.59901206        0.86629913       -0.29808299
H          -1.59901205       -0.86629913        0.29808302
H           1.59901206        0.86629918        0.29808286
H           1.59901207       -0.86629916       -0.29808289
6
MD Time 2320.00
C          -0.90314825       -0.00000000        0.00000001
C           0.90314825        0.00000000       -0.00000001
H          -1.60529258        0.85795419       -0.30211331
H          -1.60529257       -0.85795420        0.30211333
H           1.60529258        0.85795424        0.30211318
H           1.60529259       -0.85795423       -0.30211321
6
MD Time 2330.00
C          -0.90741754       -0.00000000        0.00000001
C           0.90741754        0.00000000       -0.00000001
H          -1.61047918        0.84943817       -0.30573434
H          -1.61047917       -0.84943818        0.30573437
H           1.61047918        0.84943822        0.30573423
H           1.61047919       -0.84943821       -0.30573426
6
MD Time 2340.00
C          -0.91150974       -0.00000000        0.00000001
C           0.91150973        0.00000000       -0.00000001
H          -1.61459477        0.84083471       -0.30896976
H          -1.61459477       -0.84083472        0.30896979
H           1.61459477        0.84083477        0.30896966
H           1.61459478       -0.84083475       -0.30896969
6
MD Time 2350.00
C          -0.91542078       -0.00000000        0.00000001
C           0.91542077        0.00000000       -0.00000001
H          -1.61767131        0.83223483       -0.31184706
H          -1.61767131       -0.83223483        0.31184709
H           1.61767131        0.83223488        0.31184697
H           1.61767132       -0.83223487       -0.31184700
6
MD Time 2360.00
C          -0.91914511       -0.00000000        0.00000001
C           0.91914511        0.00000000       -0.00000001
H          -1.61974973        0.82373633       -0.31439748
H          -1.61974972       -0.82373634        0.31439751
H           1.61974973        0.82373639        0.31439740
H           1.61974973       -0.82373637       -0.31439743
6
MD Time 2370.00
C          -0.92267576       -0.00000000        0.00000001
C           0.92267576        0.00000000       -0.00000001
H          -1.62087968        0.81544315       -0.31665585
H          -1.62087968       -0.81544316        0.31665588
H           1.62087968        0.81544321        0.31665577
H           1.62087969       -0.81544320       -0.31665581
6
MD Time 2380.00
C          -0.92600432       -0.00000000        0.00000001
C           0.92600431        0.00000000       -0.00000001
H          -1.62111913        0.80746434       -0.31866025
H          -1.62111912       -0.80746435        0.31866028
H           1.62111912        0.80746440        0.31866019
H           1.62111913       -0.80746438       -0.31866022
6
MD Time 2390.00
C          -0.92912112       -0.00000000        0.00000001
C           0.92912112        0.00000000       -0.00000001
H          -1.62053359        0.79991282       -0.32045161
H          -1.62053359       -0.79991282        0.32045164
H           1.62053359        0.79991287        0.32045155
H           1.62053359       -0.79991286       -0.32045159
6
MD Time 2400.00
C          -0.93201539       -0.00000000        0.00000001
C           0.93201539        0.00000000       -0.00000001
H          -1.61919516        0.79290382       -0.32207305
H          -1.61919515       -0.79290383        0.32207308
H           1.61919515        0.79290387        0.32207301
H           1.61919516       -0.79290386       -0.32207304
6
MD Time 2410.00
C          -0.93467542       -0.00000000        0.00000001
C           0.93467542        0.00000000       -0.00000001
H          -1.61718110        0.78655293       -0.32356913
H          -1.61718110       -0.78655294        0.32356916
H           1.61718109        0.78655299        0.32356909
H           1.61718110       -0.78655297       -0.32356913
6
MD Time 2420.00
C          -0.93708890       -0.00000000        0.00000001
C           0.93708891        0.00000000       -0.00000001
H          -1.61457217        0.78097380       -0.32498477
H          -1.61457216       -0.78097381        0.32498480
H           1.61457216        0.78097385        0.32498475
H           1.61457216       -0.78097384       -0.32498478
6
MD Time 2430.00
C          -0.93924327       -0.00000000        0.00000001
C           0.93924327        0.00000000       -0.00000001
H          -1.61145050        0.77627545       -0.32636415
H          -1.61145050       -0.77627546        0.32636418
H           1.61145049        0.77627550        0.32636414
H           1.61145050       -0.77627549       -0.32636417
6
MD Time 2440.00
C          -0.94112604       -0.00000000        0.00000001
C           0.94112604        0.00000000       -0.00000001
H          -1.60789730        0.77255935       -0.32774924
H          -1.60789729       -0.77255936        0.32774927
H           1.60789728        0.77255940        0.32774924
H           1.60789729       -0.77255939       -0.32774927
6
MD Time 2450.00
C          -0.94272529       -0.00000000        0.00000001
C           0.94272529        0.00000000       -0.00000001
H          -1.60399023        0.76991628       -0.32917840
H          -1.60399022       -0.76991629        0.32917844
H           1.60399021        0.76991633        0.32917841
H           1.60399022       -0.76991631       -0.32917844
6
MD Time 2460.00
C          -0.94403009       -0.00000000        0.00000001
C           0.94403009        0.00000000       -0.00000001
H          -1.59980084        0.76842311       -0.33068479
H          -1.59980084       -0.76842312        0.33068482
H           1.59980082        0.76842316        0.33068481
H           1.59980083       -0.76842314       -0.33068484
6
MD Time 2470.00
C          -0.94503088       -0.00000000        0.00000001
C           0.94503088        0.00000000       -0.00000001
H          -1.59539204        0.76813980       -0.33229486
H          -1.59539203       -0.76813981        0.33229489
H           1.59539202        0.76813984        0.33229488
H           1.59539202       -0.76813983       -0.33229491
6
MD Time 2480.00
C          -0.94571990       -0.00000000        0.00000001
C           0.94571991        0.00000000       -0.00000001
H          -1.59081588        0.76910664       -0.33402702
H          -1.59081587       -0.76910665        0.33402706
H           1.59081585        0.76910668        0.33402706
H           1.59081585       -0.76910666       -0.33402709
6
MD Time 2490.00
C          -0.94609145       -0.00000000        0.00000001
C           0.94609145        0.00000000       -0.00000001
H          -1.58611180        0.77134213       -0.33589055
H          -1.58611180       -0.77134213        0.33589059
H           1.58611177        0.77134216        0.33589060
H           1.58611178       -0.77134214       -0.33589063
6
MD Time 2500.00
C          -0.94614206       -0.00000000        0.00000001
C           0.94614207        0.00000000       -0.00000001
H          -1.58130560        0.77484152       -0.33788481
H          -1.58130559       -0.77484153        0.33788484
H           1.58130556        0.77484154        0.33788486
H           1.58130557       -0.77484153       -0.33788490
6
MD Time 2510.00
C          -0.94587059       -0.00000000        0.00000001
C           0.94587059        0.00000000       -0.00000001
H          -1.57640896        0.77957632       -0.33999894
H          -1.57640895       -0.77957633        0.33999898
H           1.57640893        0.77957634        0.33999901
H           1.57640893       -0.77957632       -0.33999904
6
MD Time 2520.00
C          -0.94527812       -0.00000000        0.00000001
C           0.94527812        0.00000000       -0.00000001
H          -1.57141993        0.78549466       -0.34221204
H          -1.57141992       -0.78549467        0.34221208
H           1.57141989        0.78549468        0.34221211
H           1.57141990       -0.78549466       -0.34221215
6
MD Time 2530.00
C          -0.94436780       -0.00000000        0.00000001
C           0.94436780        0.00000000       -0.00000001
H          -1.56632398        0.79252266       -0.34449372
H          -1.56632397       -0.79252266        0.34449376
H           1.56632394        0.79252266        0.34449380
H           1.56632394       -0.79252265       -0.34449383
6
MD Time 2540.00
C          -0.94314453       -0.00000000        0.00000001
C           0.94314453        0.00000000       -0.00000001
H          -1.56109572        0.80056655       -0.34680516
H          -1.56109572       -0.80056656        0.34680520
H           1.56109568        0.80056655        0.34680525
H           1.56109569       -0.80056653       -0.34680528
6
MD Time 2550.00
C          -0.94161462       -0.00000000        0.00000001
C           0.94161462        0.00000000       -0.00000001
H          -1.55570108        0.80951560       -0.34910045
H          -1.55570107       -0.80951561        0.34910048
H           1.55570103        0.80951559        0.34910055
H           1.55570104       -0.80951558       -0.34910058
6
MD Time 2560.00
C          -0.93978536       -0.00000000        0.00000001
C           0.93978537        0.00000000       -0.00000001
H          -1.55009965        0.81924538       -0.35132816
H          -1.55009964       -0.81924539        0.35132819
H           1.55009960        0.81924537        0.35132826
H           1.55009961       -0.81924535       -0.35132830
6
MD Time 2570.00
C          -0.93766464       -0.00000000        0.00000001
C           0.93766465        0.00000000       -0.00000001
H          -1.54424720        0.82962137       -0.35343302
H          -1.54424720       -0.82962138        0.35343306
H           1.54424716        0.82962135        0.35343314
H           1.54424716       -0.82962133       -0.35343317
6
MD Time 2580.00
C          -0.93526050       -0.00000000        0.00000001
C           0.93526051        0.00000000       -0.00000001
H          -1.53809803        0.84050254       -0.35535762
H          -1.53809802       -0.84050254        0.35535766
H           1.53809798        0.84050251        0.35535774
H           1.53809799       -0.84050249       -0.35535778
6
MD Time 2590.00
C          -0.93258083       -0.00000000        0.00000001
C           0.93258083        0.00000000       -0.00000001
H          -1.53160706        0.85174480       -0.35704396
H          -1.53160705       -0.85174480        0.35704400
H           1.53160701        0.85174476        0.35704410
H           1.53160702       -0.85174475       -0.35704413
6
MD Time 2600.00
C          -0.92963300       -0.00000000        0.00000001
C           0.92963301        0.00000000       -0.00000001
H          -1.52473171        0.86320418       -0.35843493
H          -1.52473170       -0.86320419        0.35843497
H           1.52473167        0.86320414        0.35843507
H           1.52473167       -0.86320413       -0.35843510
6
MD Time 2610.00
C          -0.92642369       -0.00000000        0.00000001
C           0.92642369        0.00000000       -0.00000001
H          -1.51743333        0.87473958       -0.35947546
H          -1.51743332       -0.87473958        0.35947550
H           1.51743328        0.87473953        0.35947561
H           1.51743329       -0.87473951       -0.35947564
6
MD Time 2620.00
C          -0.92295863       -0.00000000        0.00000001
C           0.92295864        0.00000000       -0.00000001
H          -1.50967831        0.88621504       -0.36011357
H          -1.50967830       -0.88621504        0.36011361
H           1.50967827        0.88621498        0.36011373
H           1.50967827       -0.88621497       -0.36011376
6
MD Time 2630.00
C          -0.91924256       -0.00000000        0.00000001
C           0.91924256        0.00000000       -0.00000001
H          -1.50143889        0.89750171       -0.36030110
H          -1.50143888       -0.89750171        0.36030114
H           1.50143885        0.89750165        0.36030128
H           1.50143885       -0.89750163       -0.36030131
6
MD Time 2640.00
C          -0.91527907       -0.00000000        0.00000001
C           0.91527908        0.00000000       -0.00000001
H          -1.49269361        0.90847924       -0.35999431
H          -1.49269360       -0.90847924        0.35999435
H           1.49269356        0.90847917        0.35999449
H           1.49269357       -0.90847916       -0.35999452
6
MD Time 2650.00
C          -0.91107065       -0.00000000        0.00000001
C           0.91107066        0.00000000       -0.00000001
H          -1.48342758        0.91903688       -0.35915417
H          -1.48342757       -0.91903689        0.35915421
H           1.48342754        0.91903681        0.35915436
H           1.48342754       -0.91903680       -0.35915440
6
MD Time 2660.00
C          -0.90661864       -0.00000000        0.00000001
C           0.90661865        0.00000000       -0.00000001
H          -1.47363254        0.92907428       -0.35774667
H          -1.47363253       -0.92907429        0.35774671
H           1.47363251        0.92907420        0.35774687
H           1.47363251       -0.92907419       -0.35774691
6
MD Time 2670.00
C          -0.90192330       -0.00000000        0.00000001
C           0.90192330        0.00000000       -0.00000001
H          -1.46330681        0.93850195       -0.35574284
H          -1.46330680       -0.93850196        0.35574288
H           1.46330678        0.93850187        0.35574305
H           1.46330678       -0.93850186       -0.35574309
6
MD Time 2680.00
C          -0.89698381       -0.00000000        0.00000001
C           0.89698381        0.00000000       -0.00000001
H          -1.45245509        0.94724164       -0.35311880
H          -1.45245508       -0.94724164        0.35311884
H           1.45245506        0.94724155        0.35311901
H           1.45245506       -0.94724154       -0.35311905
6
MD Time 2690.00
C          -0.89179839       -0.00000000        0.00000001
C           0.89179840        0.00000000       -0.00000001
H          -1.44108828        0.95522647       -0.34985563
H          -1.44108827       -0.95522647        0.34985568
H           1.44108825        0.95522638        0.34985586
H           1.44108826       -0.95522637       -0.34985590
6
MD Time 2700.00
C          -0.88636435       -0.00000000        0.00000001
C           0.88636435        0.00000000       -0.00000001
H          -1.42922324        0.96240110       -0.34593936
H          -1.42922323       -0.96240111        0.34593940
H           1.42922321        0.96240101        0.34593959
H           1.42922322       -0.96240100       -0.34593963
6
MD Time 2710.00
C          -0.88067814       -0.00000000        0.00000001
C           0.88067814        0.00000000       -0.00000001
H          -1.41688255        0.96872175       -0.34136070
H          -1.41688254       -0.96872176        0.34136075
H           1.41688253        0.96872166        0.34136095
H           1.41688253       -0.96872164       -0.34136098
6
MD Time 2720.00
C          -0.87473546       -0.00000000        0.00000001
C           0.87473546        0.00000000       -0.00000001
H          -1.40409430        0.97415624       -0.33611502
H          -1.40409429       -0.97415625        0.33611506
H           1.40409429        0.97415614        0.33611527
H           1.40409429       -0.97415613       -0.33611530
6
MD Time 2730.00
C          -0.86853134       -0.00000000        0.00000001
C           0.86853134        0.00000000       -0.00000001
H          -1.39089190        0.97868406       -0.33020207
H          -1.39089189       -0.97868407        0.33020211
H           1.39089189        0.97868396        0.33020233
H           1.39089190       -0.97868395       -0.33020237
6
MD Time 2740.00
C          -0.86206023       -0.00000000        0.00000001
C           0.86206023        0.00000000       -0.00000001
H          -1.37731389        0.98229646       -0.32362591
H          -1.37731388       -0.98229646        0.32362595
H           1.37731389        0.98229635        0.32362618
H           1.37731389       -0.98229634       -0.32362622
6
MD Time 2750.00
C          -0.85531608       -0.00000000        0.00000001
C           0.85531608        0.00000000       -0.00000001
H          -1.36340381        0.98499649       -0.31639470
H          -1.36340380       -0.98499650        0.31639474
H           1.36340381        0.98499639        0.31639497
H           1.36340382       -0.98499638       -0.31639501
6
MD Time 2760.00
C          -0.84829244       -0.00000000        0.00000001
C           0.84829244        0.00000000       -0.00000001
H          -1.34921008        0.98679920       -0.30852052
H          -1.34921007       -0.98679921        0.30852056
H           1.34921008        0.98679910        0.30852080
H           1.34921009       -0.98679908       -0.30852084
6
MD Time 2770.00
C          -0.84098259       -0.00000000        0.00000001
C           0.84098259        0.00000000       -0.00000001
H          -1.33478585        0.98773168       -0.30001922
H          -1.33478584       -0.98773168        0.30001926
H           1.33478586        0.98773157        0.30001951
H           1.33478586       -0.98773156       -0.30001954
6
MD Time 2780.00
C          -0.83337966       -0.00000000        0.00000001
C           0.83337966        0.00000000       -0.00000001
H          -1.32018893        0.98783315       -0.29091018
H          -1.32018891       -0.98783316        0.29091022
H           1.32018894        0.98783304        0.29091048
H           1.32018894       -0.98783303       -0.29091052
6
MD Time 2790.00
C          -0.82547679       -0.00000000        0.00000001
C           0.82547679        0.00000000       -0.00000001
H          -1.30548157        0.98715500       -0.28121611
H          -1.30548156       -0.98715501        0.28121614
H           1.30548159        0.98715490        0.28121641
H           1.30548160       -0.98715489       -0.28121645
6
MD Time 2800.00
C          -0.81726730       -0.00000000        0.00000001
C           0.81726729        0.00000000       -0.00000001
H          -1.29073034        0.98576064       -0.27096269
H          -1.29073033       -0.98576065        0.27096273
H           1.29073037        0.98576053        0.27096300
H           1.29073037       -0.98576052       -0.27096304
6
MD Time 2810.00
C          -0.80874491       -0.00000000        0.00000001
C           0.80874490        0.00000000       -0.00000001
H          -1.27600581        0.98372518       -0.26017830
H          -1.27600580       -0.98372518        0.26017834
H           1.27600584        0.98372507        0.26017862
H           1.27600584       -0.98372507       -0.26017865
6
MD Time 2820.00
C          -0.79990403       -0.00000000        0.00000001
C           0.79990402        0.00000000       -0.00000001
H          -1.26138216        0.98113487       -0.24889356
H          -1.26138215       -0.98113488        0.24889360
H           1.26138220        0.98113477        0.24889389
H           1.26138220       -0.98113476       -0.24889392
6
MD Time 2830.00
C          -0.79074005       -0.00000000        0.00000001
C           0.79074004        0.00000000       -0.00000001
H          -1.24693674        0.97808618       -0.23714084
H          -1.24693673       -0.97808618        0.23714087
H           1.24693678        0.97808607        0.23714117
H           1.24693678       -0.97808606       -0.23714120
6
MD Time 2840.00
C          -0.78124978       -0.00000000        0.00000001
C           0.78124977        0.00000000       -0.00000001
H          -1.23274935        0.97468442       -0.22495367
H          -1.23274934       -0.97468442        0.22495371
H           1.23274939        0.97468432        0.22495401
H           1.23274940       -0.97468431       -0.22495404
6
MD Time 2850.00
C          -0.77143187       -0.00000000        0.00000001
C           0.77143186        0.00000000       -0.00000001
H          -1.21890138        0.97104193       -0.21236616
H          -1.21890137       -0.97104194        0.21236619
H           1.21890143        0.97104184        0.21236650
H           1.21890143       -0.97104183       -0.21236653
6
MD Time 2860.00
C          -0.76128743       -0.00000000        0.00000001
C           0.76128742        0.00000000       -0.00000001
H          -1.20547476        0.96727570       -0.19941222
H          -1.20547475       -0.96727571        0.19941225
H           1.20547482        0.96727561        0.19941257
H           1.20547482       -0.96727560       -0.19941260
6
MD Time 2870.00
C          -0.75082066       -0.00000000        0.00000001
C           0.75082065        0.00000000       -0.00000001
H          -1.19255064        0.96350439       -0.18612495
H          -1.19255063       -0.96350440        0.18612498
H           1.19255069        0.96350430        0.18612530
H           1.19255070       -0.96350429       -0.18612533
6
MD Time 2880.00
C          -0.74003965       -0.00000000        0.00000001
C           0.74003963        0.00000000       -0.00000001
H          -1.18020784        0.95984490       -0.17253593
H          -1.18020783       -0.95984491        0.17253596
H           1.18020790        0.95984481        0.17253629
H           1.18020791       -0.95984480       -0.17253632
6
MD Time 2890.00
C          -0.72895723       -0.00000000        0.00000001
C           0.72895721        0.00000000       -0.00000001
H          -1.16852121        0.95640848       -0.15867468
H          -1.16852120       -0.95640849        0.15867471
H           1.16852128        0.95640839        0.15867505
H           1.16852128       -0.95640838       -0.15867507
6
MD Time 2900.00
C          -0.71759201       -0.00000000        0.00000001
C           0.71759199        0.00000000       -0.00000001
H          -1.15755972        0.95329664       -0.14456825
H          -1.15755971       -0.95329665        0.14456828
H           1.15755978        0.95329656        0.14456862
H           1.15755978       -0.95329655       -0.14456865
6
MD Time 2910.00
C          -0.70596944       -0.00000000        0.00000001
C           0.70596942        0.00000000       -0.00000001
H          -1.14738455        0.95059703       -0.13024107
H          -1.14738454       -0.95059704        0.13024111
H           1.14738462        0.95059696        0.13024145
H           1.14738462       -0.95059695       -0.13024148
6
MD Time 2920.00
C          -0.69412297       -0.00000000        0.00000001
C           0.69412295        0.00000000       -0.00000001
H          -1.13804732        0.94837964       -0.11571507
H          -1.13804731       -0.94837965        0.11571510
H           1.13804739        0.94837956        0.11571545
H           1.13804739       -0.94837955       -0.11571548
6
MD Time 2930.00
C          -0.68209526       -0.00000000        0.00000001
C           0.68209525        0.00000000       -0.00000001
H          -1.12958833        0.94669356       -0.10101007
H          -1.12958832       -0.94669357        0.10101010
H           1.12958840        0.94669349        0.10101046
H           1.12958840       -0.94669348       -0.10101048
6
MD Time 2940.00
C          -0.66993938       -0.00000000        0.00000001
C           0.66993936        0.00000000       -0.00000001
H          -1.12203530        0.94556478       -0.08614450
H          -1.12203529       -0.94556479        0.08614453
H           1.12203538        0.94556471        0.08614490
H           1.12203538       -0.94556470       -0.08614492
6
MD Time 2950.00
C          -0.65771990       -0.00000000        0.00000001
C           0.65771989        0.00000000       -0.00000001
H          -1.11540243        0.94499503       -0.07113636
H          -1.11540242       -0.94499504        0.07113639
H           1.11540251        0.94499496        0.07113676
H           1.11540251       -0.94499496       -0.07113678
6
MD Time 2960.00
C          -0.64551394       -0.00000000        0.00000001
C           0.64551393        0.00000000       -0.00000001
H          -1.10969005        0.94496199       -0.05600428
H          -1.10969004       -0.94496200        0.05600431
H           1.10969013        0.94496193        0.05600468
H           1.10969013       -0.94496192       -0.05600471
6
MD Time 2970.00
C          -0.63341182       -0.00000000        0.00000001
C           0.63341181        0.00000000       -0.00000001
H          -1.10488491        0.94542081       -0.04076868
H          -1.10488490       -0.94542082        0.04076871
H           1.10488499        0.94542075        0.04076909
H           1.10488499       -0.94542074       -0.04076911
6
MD Time 2980.00
C          -0.62151749       -0.00000000        0.00000001
C           0.62151747        0.00000000       -0.00000001
H          -1.10096104        0.94630679       -0.02545282
H          -1.10096103       -0.94630680        0.02545284
H           1.10096111        0.94630674        0.02545323
H           1.10096111       -0.94630673       -0.02545325
6
MD Time 2990.00
C          -0.60994834       -0.00000000        0.00000001
C           0.60994833        0.00000000       -0.00000001
H          -1.09788119        0.94753910       -0.01008361
H          -1.09788118       -0.94753911        0.01008364
H           1.09788126        0.94753905        0.01008403
H           1.09788126       -0.94753905       -0.01008405
