6
MD Time 0.00
C          -1.00424993        0.00000000        0.00000000
C           1.00424993        0.00000000        0.00000000
H          -1.57974221        0.85087473        0.35244385
H          -1.57974221       -0.85087473       -0.35244385
H           1.57974221        0.85087473       -0.35244385
H           1.57974221       -0.85087473        0.35244385
6
MD Time 10.00
C          -1.00412685       -0.00000000        0.00000000
C           1.00412685       -0.00000000       -0.00000000
H          -1.57960789        0.85105100        0.35239645
H          -1.57960789       -0.85105100       -0.35239645
H           1.57960789        0.85105100       -0.35239645
H           1.57960789       -0.85105100        0.35239645
6
MD Time 20.00
C          -1.00375770       -0.00000000        0.00000000
C           1.00375770       -0.00000000       -0.00000000
H          -1.57920406        0.85157740        0.35225322
H          -1.57920406       -0.85157740       -0.35225322
H           1.57920406        0.85157740       -0.35225322
H           1.57920406       -0.85157740        0.35225322
6
MD Time 30.00
C          -1.00314275       -0.00000000        0.00000000
C           1.00314275       -0.00000000       -0.00000000
H          -1.57852807        0.85244672        0.35201118
H          -1.57852807       -0.85244672       -0.35201118
H           1.57852807        0.85244672       -0.35201118
H           1.57852807       -0.85244672        0.35201118
6
MD Time 40.00
C          -1.00228246       -0.00000000        0.00000000
C           1.00228246       -0.00000000       -0.00000000
H          -1.57757563        0.85364711        0.35166539
H          -1.57757563       -0.85364711       -0.35166539
H           1.57757563        0.85364711       -0.35166539
H           1.57757563       -0.85364711        0.35166539
6
MD Time 50.00
C          -1.00117739       -0.00000000        0.00000000
C           1.00117739       -0.00000000       -0.00000000
H          -1.57634094        0.85516239        0.35120915
H          -1.57634094       -0.85516239       -0.35120915
H           1.57634094        0.85516239       -0.35120915
H           1.57634094       -0.85516239        0.35120915
6
MD Time 60.00
C          -0.99982824       -0.00000000        0.00000000
C           0.99982824       -0.00000000       -0.00000000
H          -1.57481692        0.85697238        0.35063410
H          -1.57481692       -0.85697238       -0.35063410
H           1.57481693        0.85697238       -0.35063410
H           1.57481693       -0.85697238        0.35063410
6
MD Time 70.00
C          -0.99823574       -0.00000000        0.00000000
C           0.99823574       -0.00000000       -0.00000000
H          -1.57299547        0.85905335        0.34993050
H          -1.57299547       -0.85905335       -0.34993050
H           1.57299548        0.85905335       -0.34993050
H           1.57299548       -0.85905335        0.34993050
6
MD Time 80.00
C          -0.99640065       -0.00000000        0.00000000
C           0.99640065       -0.00000000       -0.00000000
H          -1.57086773        0.86137855        0.34908739
H          -1.57086773       -0.86137855       -0.34908739
H           1.57086773        0.86137855       -0.34908739
H           1.57086773       -0.86137855        0.34908739
6
MD Time 90.00
C          -0.99432368       -0.00000000        0.00000000
C           0.99432368       -0.00000000       -0.00000000
H          -1.56842440        0.86391875        0.34809287
H          -1.56842440       -0.86391875       -0.34809287
H           1.56842441        0.86391875       -0.34809287
H           1.56842441       -0.86391875        0.34809287
6
MD Time 100.00
C          -0.99200543       -0.00000000        0.00000000
C           0.99200543       -0.00000000       -0.00000000
H          -1.56565610        0.86664286        0.34693437
H          -1.56565610       -0.86664286       -0.34693437
H           1.56565611        0.86664286       -0.34693437
H           1.56565611       -0.86664286        0.34693437
6
MD Time 110.00
C          -0.98944637       -0.00000000        0.00000000
C           0.98944637       -0.00000000       -0.00000000
H          -1.56255365        0.86951850        0.34559891
H          -1.56255365       -0.86951850       -0.34559891
H           1.56255366        0.86951850       -0.34559890
H           1.56255366       -0.86951850        0.34559890
6
MD Time 120.00
C          -0.98664675       -0.00000000        0.00000000
C           0.98664674       -0.00000000       -0.00000000
H          -1.55910842        0.87251264        0.34407332
H          -1.55910842       -0.87251264       -0.34407332
H           1.55910843        0.87251263       -0.34407332
H           1.55910843       -0.87251263        0.34407332
6
MD Time 130.00
C          -0.98360653       -0.00000000        0.00000000
C           0.98360653       -0.00000000       -0.00000000
H          -1.55531262        0.87559219        0.34234457
H          -1.55531262       -0.87559219       -0.34234457
H           1.55531263        0.87559218       -0.34234457
H           1.55531263       -0.87559218        0.34234457
6
MD Time 140.00
C          -0.98032541       -0.00000000        0.00000000
C           0.98032540       -0.00000000       -0.00000000
H          -1.55115958        0.87872457        0.34039992
H          -1.55115958       -0.87872457       -0.34039992
H           1.55115960        0.87872456       -0.34039991
H           1.55115960       -0.87872456        0.34039991
6
MD Time 150.00
C          -0.97680270       -0.00000000        0.00000000
C           0.97680269       -0.00000000       -0.00000000
H          -1.54664403        0.88187825        0.33822715
H          -1.54664403       -0.88187825       -0.33822715
H           1.54664405        0.88187825       -0.33822715
H           1.54664405       -0.88187825        0.33822715
6
MD Time 160.00
C          -0.97303733       -0.00000000        0.00000000
C           0.97303733       -0.00000000       -0.00000000
H          -1.54176228        0.88502325        0.33581479
H          -1.54176228       -0.88502325       -0.33581479
H           1.54176230        0.88502324       -0.33581478
H           1.54176230       -0.88502324        0.33581478
6
MD Time 170.00
C          -0.96902782       -0.00000000        0.00000000
C           0.96902781       -0.00000000       -0.00000000
H          -1.53651245        0.88813156        0.33315219
H          -1.53651245       -0.88813156       -0.33315219
H           1.53651247        0.88813155       -0.33315218
H           1.53651247       -0.88813155        0.33315218
6
MD Time 180.00
C          -0.96477223       -0.00000000        0.00000000
C           0.96477222       -0.00000000       -0.00000000
H          -1.53089459        0.89117756        0.33022971
H          -1.53089459       -0.89117756       -0.33022971
H           1.53089461        0.89117755       -0.33022970
H           1.53089461       -0.89117755        0.33022970
6
MD Time 190.00
C          -0.96026816       -0.00000000        0.00000000
C           0.96026815       -0.00000000       -0.00000000
H          -1.52491080        0.89413834        0.32703879
H          -1.52491080       -0.89413834       -0.32703879
H           1.52491082        0.89413834       -0.32703878
H           1.52491082       -0.89413834        0.32703878
6
MD Time 200.00
C          -0.95551275       -0.00000000        0.00000000
C           0.95551274       -0.00000000       -0.00000000
H          -1.51856533        0.89699399        0.32357202
H          -1.51856534       -0.89699399       -0.32357202
H           1.51856536        0.89699399       -0.32357201
H           1.51856536       -0.89699399        0.32357201
6
MD Time 210.00
C          -0.95050264       -0.00000000        0.00000000
C           0.95050264       -0.00000000       -0.00000000
H          -1.51186461        0.89972780        0.31982317
H          -1.51186461       -0.89972780       -0.31982317
H           1.51186463        0.89972780       -0.31982316
H           1.51186463       -0.89972780        0.31982317
6
MD Time 220.00
C          -0.94523403       -0.00000000        0.00000000
C           0.94523403       -0.00000000       -0.00000000
H          -1.50481722        0.90232644        0.31578721
H          -1.50481722       -0.90232644       -0.31578721
H           1.50481724        0.90232643       -0.31578720
H           1.50481724       -0.90232643        0.31578720
6
MD Time 230.00
C          -0.93970265       -0.00000000        0.00000000
C           0.93970265       -0.00000000       -0.00000000
H          -1.49743393        0.90478001        0.31146025
H          -1.49743393       -0.90478001       -0.31146025
H           1.49743395        0.90478000       -0.31146024
H           1.49743395       -0.90478000        0.31146024
6
MD Time 240.00
C          -0.93390379       -0.00000000        0.00000000
C           0.93390379       -0.00000000       -0.00000000
H          -1.48972758        0.90708215        0.30683956
H          -1.48972758       -0.90708215       -0.30683956
H           1.48972761        0.90708214       -0.30683955
H           1.48972761       -0.90708214        0.30683955
6
MD Time 250.00
C          -0.92783235       -0.00000000        0.00000000
C           0.92783235       -0.00000000       -0.00000000
H          -1.48171302        0.90922993        0.30192343
H          -1.48171302       -0.90922993       -0.30192343
H           1.48171305        0.90922992       -0.30192342
H           1.48171305       -0.90922992        0.30192342
6
MD Time 260.00
C          -0.92148286       -0.00000000        0.00000000
C           0.92148285       -0.00000000       -0.00000000
H          -1.47340696        0.91122382        0.29671113
H          -1.47340696       -0.91122382       -0.29671113
H           1.47340699        0.91122381       -0.29671112
H           1.47340699       -0.91122381        0.29671112
6
MD Time 270.00
C          -0.91484953       -0.00000000        0.00000000
C           0.91484953       -0.00000000       -0.00000000
H          -1.46482782        0.91306749        0.29120278
H          -1.46482782       -0.91306749       -0.29120278
H           1.46482785        0.91306748       -0.29120277
H           1.46482785       -0.91306748        0.29120277
6
MD Time 280.00
C          -0.90792635       -0.00000000        0.00000000
C           0.90792635       -0.00000000       -0.00000000
H          -1.45599554        0.91476761        0.28539920
H          -1.45599554       -0.91476761       -0.28539920
H           1.45599557        0.91476760       -0.28539919
H           1.45599557       -0.91476760        0.28539919
6
MD Time 290.00
C          -0.90070712       -0.00000000        0.00000000
C           0.90070712       -0.00000000       -0.00000000
H          -1.44693135        0.91633354        0.27930183
H          -1.44693135       -0.91633354       -0.27930183
H           1.44693138        0.91633353       -0.27930182
H           1.44693138       -0.91633353        0.27930182
6
MD Time 300.00
C          -0.89318557       -0.00000000        0.00000000
C           0.89318556       -0.00000000       -0.00000000
H          -1.43765755        0.91777700        0.27291252
H          -1.43765755       -0.91777700       -0.27291252
H           1.43765757        0.91777699       -0.27291250
H           1.43765757       -0.91777699        0.27291250
6
MD Time 310.00
C          -0.88535543       -0.00000000        0.00000000
C           0.88535543       -0.00000000       -0.00000000
H          -1.42819717        0.91911165        0.26623341
H          -1.42819717       -0.91911165       -0.26623341
H           1.42819720        0.91911164       -0.26623340
H           1.42819720       -0.91911164        0.26623340
6
MD Time 320.00
C          -0.87721062       -0.00000000        0.00000000
C           0.87721062       -0.00000000       -0.00000000
H          -1.41857376        0.92035261        0.25926680
H          -1.41857376       -0.92035261       -0.25926680
H           1.41857379        0.92035259       -0.25926679
H           1.41857379       -0.92035259        0.25926679
6
MD Time 330.00
C          -0.86874533       -0.00000000        0.00000000
C           0.86874533       -0.00000000       -0.00000000
H          -1.40881101        0.92151592        0.25201497
H          -1.40881101       -0.92151592       -0.25201497
H           1.40881103        0.92151591       -0.25201496
H           1.40881103       -0.92151591        0.25201496
6
MD Time 340.00
C          -0.85995421       -0.00000000        0.00000000
C           0.85995421       -0.00000000       -0.00000000
H          -1.39893241        0.92261803        0.24448008
H          -1.39893241       -0.92261803       -0.24448008
H           1.39893244        0.92261802       -0.24448007
H           1.39893244       -0.92261802        0.24448007
6
MD Time 350.00
C          -0.85083258       -0.00000000        0.00000000
C           0.85083258       -0.00000000       -0.00000000
H          -1.38896097        0.92367512        0.23666407
H          -1.38896097       -0.92367512       -0.23666407
H           1.38896099        0.92367510       -0.23666406
H           1.38896099       -0.92367510        0.23666406
6
MD Time 360.00
C          -0.84137662       -0.00000000        0.00000000
C           0.84137662       -0.00000000       -0.00000000
H          -1.37891880        0.92470254        0.22856859
H          -1.37891880       -0.92470254       -0.22856859
H           1.37891882        0.92470252       -0.22856857
H           1.37891882       -0.92470252        0.22856857
6
MD Time 370.00
C          -0.83158364       -0.00000000        0.00000000
C           0.83158364       -0.00000000       -0.00000000
H          -1.36882683        0.92571417        0.22019495
H          -1.36882683       -0.92571417       -0.22019495
H           1.36882685        0.92571416       -0.22019494
H           1.36882685       -0.92571416        0.22019494
6
MD Time 380.00
C          -0.82145237       -0.00000000        0.00000000
C           0.82145237       -0.00000000       -0.00000000
H          -1.35870446        0.92672183        0.21154418
H          -1.35870446       -0.92672183       -0.21154418
H           1.35870448        0.92672181       -0.21154416
H           1.35870448       -0.92672181        0.21154416
6
MD Time 390.00
C          -0.81098327       -0.00000000        0.00000000
C           0.81098327       -0.00000000       -0.00000000
H          -1.34856928        0.92773469        0.20261702
H          -1.34856928       -0.92773469       -0.20261702
H           1.34856930        0.92773467       -0.20261701
H           1.34856930       -0.92773467        0.20261701
6
MD Time 400.00
C          -0.80017892       -0.00000000        0.00000000
C           0.80017892       -0.00000000       -0.00000000
H          -1.33843679        0.92875879        0.19341412
H          -1.33843679       -0.92875879       -0.19341412
H           1.33843681        0.92875878       -0.19341411
H           1.33843681       -0.92875878        0.19341411
6
MD Time 410.00
C          -0.78904445       -0.00000000        0.00000000
C           0.78904445       -0.00000000       -0.00000000
H          -1.32832023        0.92979663        0.18393615
H          -1.32832023       -0.92979663       -0.18393615
H           1.32832024        0.92979662       -0.18393614
H           1.32832025       -0.92979662        0.18393614
6
MD Time 420.00
C          -0.77758800       -0.00000000        0.00000000
C           0.77758800       -0.00000000       -0.00000000
H          -1.31823036        0.93084680        0.17418406
H          -1.31823037       -0.93084680       -0.17418406
H           1.31823038        0.93084679       -0.17418404
H           1.31823038       -0.93084679        0.17418404
6
MD Time 430.00
C          -0.76582127       -0.00000000        0.00000000
C           0.76582127       -0.00000000       -0.00000000
H          -1.30817546        0.93190383        0.16415933
H          -1.30817546       -0.93190383       -0.16415933
H           1.30817548        0.93190382       -0.16415931
H           1.30817548       -0.93190382        0.16415932
6
MD Time 440.00
C          -0.75376015       -0.00000000        0.00000000
C           0.75376015       -0.00000000       -0.00000000
H          -1.29816125        0.93295810        0.15386432
H          -1.29816125       -0.93295810       -0.15386432
H           1.29816126        0.93295809       -0.15386430
H           1.29816126       -0.93295809        0.15386430
6
MD Time 450.00
C          -0.74142539       -0.00000000        0.00000000
C           0.74142539       -0.00000000       -0.00000000
H          -1.28819099        0.93399593        0.14330259
H          -1.28819099       -0.93399593       -0.14330259
H           1.28819100        0.93399592       -0.14330257
H           1.28819100       -0.93399592        0.14330257
6
MD Time 460.00
C          -0.72884335       -0.00000000        0.00000000
C           0.72884335       -0.00000000       -0.00000000
H          -1.27826566        0.93499978        0.13247930
H          -1.27826566       -0.93499978       -0.13247930
H           1.27826567        0.93499977       -0.13247929
H           1.27826567       -0.93499977        0.13247929
6
MD Time 470.00
C          -0.71604688       -0.00000000        0.00000000
C           0.71604687       -0.00000000       -0.00000000
H          -1.26838419        0.93594866        0.12140157
H          -1.26838419       -0.93594866       -0.12140157
H           1.26838420        0.93594866       -0.12140155
H           1.26838420       -0.93594866        0.12140156
6
MD Time 480.00
C          -0.70307619       -0.00000000        0.00000000
C           0.70307619       -0.00000000       -0.00000000
H          -1.25854385        0.93681864        0.11007884
H          -1.25854385       -0.93681864       -0.11007884
H           1.25854386        0.93681864       -0.11007882
H           1.25854386       -0.93681864        0.11007882
6
MD Time 490.00
C          -0.68997986       -0.00000000        0.00000000
C           0.68997985       -0.00000000       -0.00000000
H          -1.24874069        0.93758350        0.09852321
H          -1.24874069       -0.93758350       -0.09852321
H           1.24874069        0.93758350       -0.09852319
H           1.24874069       -0.93758350        0.09852319
6
MD Time 500.00
C          -0.67681579       -0.00000000        0.00000000
C           0.67681579       -0.00000000       -0.00000000
H          -1.23897007        0.93821550        0.08674973
H          -1.23897007       -0.93821550       -0.08674973
H           1.23897007        0.93821550       -0.08674971
H           1.23897007       -0.93821550        0.08674971
6
MD Time 510.00
C          -0.66365225       -0.00000000        0.00000000
C           0.66365225       -0.00000000       -0.00000000
H          -1.22922735        0.93868628        0.07477663
H          -1.22922735       -0.93868628       -0.07477663
H           1.22922735        0.93868629       -0.07477661
H           1.22922735       -0.93868628        0.07477661
6
MD Time 520.00
C          -0.65056875       -0.00000000        0.00000000
C           0.65056875       -0.00000000       -0.00000000
H          -1.21950859        0.93896784        0.06262545
H          -1.21950859       -0.93896784       -0.06262545
H           1.21950859        0.93896784       -0.06262544
H           1.21950860       -0.93896784        0.06262544
6
MD Time 530.00
C          -0.63765678       -0.00000000        0.00000000
C           0.63765678       -0.00000000       -0.00000000
H          -1.20981140        0.93903352        0.05032112
H          -1.20981140       -0.93903352       -0.05032112
H           1.20981140        0.93903353       -0.05032110
H           1.20981140       -0.93903353        0.05032110
6
MD Time 540.00
C          -0.62502032       -0.00000000        0.00000000
C           0.62502032       -0.00000000       -0.00000000
H          -1.20013579        0.93885916        0.03789189
H          -1.20013580       -0.93885916       -0.03789189
H           1.20013579        0.93885916       -0.03789187
H           1.20013579       -0.93885916        0.03789187
6
MD Time 550.00
C          -0.61277578       -0.00000000        0.00000000
C           0.61277579       -0.00000000       -0.00000000
H          -1.19048513        0.93842412        0.02536920
H          -1.19048513       -0.93842412       -0.02536920
H           1.19048513        0.93842413       -0.02536918
H           1.19048513       -0.93842413        0.02536918
6
MD Time 560.00
C          -0.60105142       -0.00000000        0.00000000
C           0.60105142       -0.00000000       -0.00000000
H          -1.18086710        0.93771252        0.01278742
H          -1.18086710       -0.93771252       -0.01278742
H           1.18086710        0.93771253       -0.01278740
H           1.18086710       -0.93771253        0.01278740
6
MD Time 570.00
C          -0.58998583       -0.00000000        0.00000000
C           0.58998583       -0.00000000       -0.00000000
H          -1.17129469        0.93671427        0.00018350
H          -1.17129469       -0.93671427       -0.00018350
H           1.17129469        0.93671428       -0.00018348
H           1.17129469       -0.93671428        0.00018348
6
MD Time 580.00
C          -0.57972548       -0.00000000        0.00000000
C           0.57972549       -0.00000000       -0.00000000
H          -1.16178714        0.93542625       -0.01240353
H          -1.16178714       -0.93542625        0.01240353
H           1.16178713        0.93542626        0.01240355
H           1.16178713       -0.93542626       -0.01240355
6
MD Time 590.00
C          -0.57042103       -0.00000000        0.00000000
C           0.57042103       -0.00000000       -0.00000000
H          -1.15237080        0.93385338       -0.02493308
H          -1.15237080       -0.93385338        0.02493308
H           1.15237078        0.93385339        0.02493311
H           1.15237079       -0.93385339       -0.02493310
6
MD Time 600.00
C          -0.56222236       -0.00000000        0.00000000
C           0.56222237        0.00000000       -0.00000000
H          -1.14307995        0.93200967       -0.03736367
H          -1.14307995       -0.93200967        0.03736367
H           1.14307993        0.93200968        0.03736370
H           1.14307994       -0.93200968       -0.03736369
6
MD Time 610.00
C          -0.55527256       -0.00000000        0.00000000
C           0.55527257        0.00000000       -0.00000000
H          -1.13395742        0.92991920       -0.04965363
H          -1.13395742       -0.92991920        0.04965363
H           1.13395741        0.92991921        0.04965366
H           1.13395741       -0.92991921       -0.04965365
6
MD Time 620.00
C          -0.54970103       -0.00000000        0.00000000
C           0.54970103        0.00000000       -0.00000000
H          -1.12505503        0.92761696       -0.06176187
H          -1.12505503       -0.92761696        0.06176187
H           1.12505501        0.92761698        0.06176190
H           1.12505502       -0.92761698       -0.06176190
6
MD Time 630.00
C          -0.54561627       -0.00000000        0.00000000
C           0.54561627        0.00000000       -0.00000000
H          -1.11643377        0.92514961       -0.07364870
H          -1.11643377       -0.92514961        0.07364870
H           1.11643375        0.92514962        0.07364873
H           1.11643375       -0.92514962       -0.07364872
6
MD Time 640.00
C          -0.54309916       -0.00000000        0.00000000
C           0.54309916        0.00000000       -0.00000000
H          -1.10816369        0.92257582       -0.08527665
H          -1.10816370       -0.92257582        0.08527665
H           1.10816368        0.92257583        0.08527668
H           1.10816368       -0.92257583       -0.08527667
6
MD Time 650.00
C          -0.54219736       -0.00000000        0.00000000
C           0.54219736        0.00000000       -0.00000000
H          -1.10032345        0.91996643       -0.09661131
H          -1.10032345       -0.91996643        0.09661131
H           1.10032343        0.91996644        0.09661133
H           1.10032343       -0.91996644       -0.09661133
6
MD Time 660.00
C          -0.54292174       -0.00000000        0.00000000
C           0.54292174        0.00000000       -0.00000000
H          -1.09299936        0.91740400       -0.10762211
H          -1.09299936       -0.91740400        0.10762211
H           1.09299934        0.91740401        0.10762214
H           1.09299934       -0.91740401       -0.10762214
6
MD Time 670.00
C          -0.54524530       -0.00000000        0.00000000
C           0.54524531        0.00000000       -0.00000000
H          -1.08628408        0.91498177       -0.11828307
H          -1.08628408       -0.91498177        0.11828307
H           1.08628406        0.91498178        0.11828310
H           1.08628406       -0.91498178       -0.11828310
6
MD Time 680.00
C          -0.54910482       -0.00000000        0.00000000
C           0.54910482        0.00000000       -0.00000000
H          -1.08027470        0.91280182       -0.12857332
H          -1.08027470       -0.91280182        0.12857332
H           1.08027467        0.91280184        0.12857334
H           1.08027467       -0.91280184       -0.12857334
6
MD Time 690.00
C          -0.55440485       -0.00000000        0.00000000
C           0.55440485        0.00000000       -0.00000000
H          -1.07507033        0.91097244       -0.13847748
H          -1.07507033       -0.91097244        0.13847748
H           1.07507030        0.91097245        0.13847751
H           1.07507030       -0.91097245       -0.13847751
6
MD Time 700.00
C          -0.56102381       -0.00000000        0.00000000
C           0.56102382        0.00000000       -0.00000000
H          -1.07076924        0.90960447       -0.14798577
H          -1.07076925       -0.90960447        0.14798577
H           1.07076922        0.90960449        0.14798581
H           1.07076922       -0.90960449       -0.14798580
6
MD Time 710.00
C          -0.56882109       -0.00000000        0.00000000
C           0.56882110        0.00000000       -0.00000000
H          -1.06746563        0.90880692       -0.15709371
H          -1.06746563       -0.90880692        0.15709371
H           1.06746561        0.90880693        0.15709374
H           1.06746561       -0.90880693       -0.15709374
6
MD Time 720.00
C          -0.57764455       -0.00000000        0.00000000
C           0.57764456        0.00000000       -0.00000000
H          -1.06524615        0.90868179       -0.16580146
H          -1.06524615       -0.90868179        0.16580146
H           1.06524612        0.90868180        0.16580149
H           1.06524612       -0.90868180       -0.16580149
6
MD Time 730.00
C          -0.58733765       -0.00000000        0.00000000
C           0.58733766        0.00000000       -0.00000000
H          -1.06418650        0.90931858       -0.17411286
H          -1.06418650       -0.90931858        0.17411286
H           1.06418647        0.90931860        0.17411289
H           1.06418647       -0.90931860       -0.17411289
6
MD Time 740.00
C          -0.59774561       -0.00000000        0.00000000
C           0.59774562        0.00000000       -0.00000000
H          -1.06434839        0.91078886       -0.18203408
H          -1.06434839       -0.91078886        0.18203408
H           1.06434836        0.91078887        0.18203411
H           1.06434836       -0.91078887       -0.18203411
6
MD Time 750.00
C          -0.60872039       -0.00000000        0.00000000
C           0.60872039        0.00000000       -0.00000000
H          -1.06577698        0.91314122       -0.18957211
H          -1.06577698       -0.91314122        0.18957211
H           1.06577695        0.91314123        0.18957214
H           1.06577695       -0.91314123       -0.18957214
6
MD Time 760.00
C          -0.62012427       -0.00000000        0.00000000
C           0.62012427        0.00000000       -0.00000000
H          -1.06849915        0.91639735       -0.19673324
H          -1.06849915       -0.91639735        0.19673324
H           1.06849912        0.91639736        0.19673327
H           1.06849913       -0.91639736       -0.19673327
6
MD Time 770.00
C          -0.63183221       -0.00000000        0.00000000
C           0.63183222        0.00000000       -0.00000000
H          -1.07252272        0.92054942       -0.20352163
H          -1.07252272       -0.92054942        0.20352163
H           1.07252269        0.92054943        0.20352167
H           1.07252269       -0.92054943       -0.20352167
6
MD Time 780.00
C          -0.64373302       -0.00000000        0.00000000
C           0.64373303        0.00000000       -0.00000000
H          -1.07783653        0.92555921       -0.20993819
H          -1.07783653       -0.92555921        0.20993819
H           1.07783651        0.92555922        0.20993823
H           1.07783651       -0.92555922       -0.20993823
6
MD Time 790.00
C          -0.65572964       -0.00000000        0.00000000
C           0.65572964        0.00000000       -0.00000000
H          -1.08441154        0.93135889       -0.21597983
H          -1.08441154       -0.93135889        0.21597983
H           1.08441151        0.93135889        0.21597987
H           1.08441151       -0.93135889       -0.21597987
6
MD Time 800.00
C          -0.66773871       -0.00000000        0.00000000
C           0.66773871        0.00000000       -0.00000000
H          -1.09220246        0.93785350       -0.22163916
H          -1.09220246       -0.93785350        0.22163916
H           1.09220243        0.93785350        0.22163921
H           1.09220243       -0.93785350       -0.22163921
6
MD Time 810.00
C          -0.67968972       -0.00000000        0.00000000
C           0.67968972        0.00000000       -0.00000000
H          -1.10115007        0.94492478       -0.22690467
H          -1.10115007       -0.94492479        0.22690467
H           1.10115005        0.94492479        0.22690471
H           1.10115005       -0.94492479       -0.22690471
6
MD Time 820.00
C          -0.69152381       -0.00000000        0.00000000
C           0.69152381        0.00000000       -0.00000000
H          -1.11118373        0.95243594       -0.23176118
H          -1.11118373       -0.95243594        0.23176118
H           1.11118370        0.95243594        0.23176122
H           1.11118370       -0.95243594       -0.23176122
6
MD Time 830.00
C          -0.70319249       -0.00000000        0.00000000
C           0.70319250        0.00000000       -0.00000000
H          -1.12222391        0.96023688       -0.23619071
H          -1.12222391       -0.96023688        0.23619071
H           1.12222389        0.96023688        0.23619075
H           1.12222389       -0.96023688       -0.23619075
6
MD Time 840.00
C          -0.71465633       -0.00000000        0.00000000
C           0.71465633        0.00000000       -0.00000000
H          -1.13418477        0.96816958       -0.24017338
H          -1.13418477       -0.96816958        0.24017338
H           1.13418475        0.96816959        0.24017343
H           1.13418475       -0.96816959       -0.24017343
6
MD Time 850.00
C          -0.72588364       -0.00000000        0.00000000
C           0.72588364        0.00000000       -0.00000000
H          -1.14697635        0.97607319       -0.24368846
H          -1.14697635       -0.97607319        0.24368846
H           1.14697633        0.97607319        0.24368851
H           1.14697633       -0.97607319       -0.24368851
6
MD Time 860.00
C          -0.73684935       -0.00000000        0.00000000
C           0.73684936        0.00000000       -0.00000000
H          -1.16050658        0.98378852       -0.24671531
H          -1.16050658       -0.98378852        0.24671531
H           1.16050656        0.98378852        0.24671536
H           1.16050656       -0.98378852       -0.24671536
6
MD Time 870.00
C          -0.74753394       -0.00000000        0.00000000
C           0.74753394        0.00000000       -0.00000000
H          -1.17468291        0.99116196       -0.24923431
H          -1.17468291       -0.99116196        0.24923432
H           1.17468289        0.99116196        0.24923437
H           1.17468289       -0.99116196       -0.24923437
6
MD Time 880.00
C          -0.75792250       -0.00000000        0.00000000
C           0.75792250        0.00000000       -0.00000000
H          -1.18941362        0.99804859       -0.25122757
H          -1.18941362       -0.99804859        0.25122757
H           1.18941360        0.99804859        0.25122762
H           1.18941360       -0.99804858       -0.25122762
6
MD Time 890.00
C          -0.76800396       -0.00000000        0.00000000
C           0.76800397        0.00000000       -0.00000000
H          -1.20460886        1.00431455       -0.25267950
H          -1.20460886       -1.00431455        0.25267950
H           1.20460884        1.00431454        0.25267955
H           1.20460884       -1.00431454       -0.25267955
6
MD Time 900.00
C          -0.77777041       -0.00000000        0.00000000
C           0.77777041        0.00000000       -0.00000000
H          -1.22018140        1.00983879       -0.25357729
H          -1.22018140       -1.00983879        0.25357729
H           1.22018139        1.00983878        0.25357735
H           1.22018139       -1.00983878       -0.25357735
6
MD Time 910.00
C          -0.78721649       -0.00000000        0.00000000
C           0.78721649        0.00000000       -0.00000000
H          -1.23604723        1.01451427       -0.25391120
H          -1.23604723       -1.01451427        0.25391121
H           1.23604722        1.01451426        0.25391126
H           1.23604722       -1.01451426       -0.25391126
6
MD Time 920.00
C          -0.79633892       -0.00000000        0.00000000
C           0.79633892        0.00000000       -0.00000000
H          -1.25212589        1.01824864       -0.25367474
H          -1.25212589       -1.01824864        0.25367474
H           1.25212588        1.01824863        0.25367480
H           1.25212588       -1.01824863       -0.25367480
6
MD Time 930.00
C          -0.80513608       -0.00000000        0.00000000
C           0.80513608        0.00000000       -0.00000000
H          -1.26834080        1.02096464       -0.25286474
H          -1.26834080       -1.02096464        0.25286475
H           1.26834079        1.02096463        0.25286480
H           1.26834079       -1.02096462       -0.25286481
6
MD Time 940.00
C          -0.81360766       -0.00000000        0.00000000
C           0.81360766        0.00000000       -0.00000000
H          -1.28461941        1.02260024       -0.25148145
H          -1.28461941       -1.02260024        0.25148145
H           1.28461940        1.02260023        0.25148151
H           1.28461940       -1.02260023       -0.25148151
6
MD Time 950.00
C          -0.82175432       -0.00000000        0.00000000
C           0.82175432        0.00000000       -0.00000000
H          -1.30089335        1.02310863       -0.24952842
H          -1.30089335       -1.02310863        0.24952843
H           1.30089335        1.02310861        0.24952848
H           1.30089335       -1.02310861       -0.24952848
6
MD Time 960.00
C          -0.82957748       -0.00000000        0.00000000
C           0.82957748        0.00000000       -0.00000000
H          -1.31709855        1.02245809       -0.24701252
H          -1.31709855       -1.02245809        0.24701253
H           1.31709855        1.02245808        0.24701258
H           1.31709855       -1.02245808       -0.24701259
6
MD Time 970.00
C          -0.83707902       -0.00000000        0.00000000
C           0.83707902        0.00000000       -0.00000000
H          -1.33317533        1.02063189       -0.24394383
H          -1.33317533       -1.02063189        0.24394384
H           1.33317533        1.02063188        0.24394389
H           1.33317533       -1.02063188       -0.24394390
6
MD Time 980.00
C          -0.84426115       -0.00000000        0.00000000
C           0.84426115        0.00000000       -0.00000000
H          -1.34906851        1.01762813       -0.24033555
H          -1.34906851       -1.01762814        0.24033555
H           1.34906851        1.01762812        0.24033561
H           1.34906851       -1.01762812       -0.24033561
6
MD Time 990.00
C          -0.85112614       -0.00000000        0.00000000
C           0.85112614        0.00000000       -0.00000000
H          -1.36472759        1.01345965       -0.23620388
H          -1.36472759       -1.01345965        0.23620389
H           1.36472759        1.01345963        0.23620394
H           1.36472759       -1.01345963       -0.23620395
6
MD Time 1000.00
C          -0.85767621       -0.00000000        0.00000000
C           0.85767621        0.00000000       -0.00000000
H          -1.38010687        1.00815393       -0.23156796
H          -1.38010686       -1.00815393        0.23156797
H           1.38010687        1.00815391        0.23156802
H           1.38010687       -1.00815391       -0.23156803
6
MD Time 1010.00
C          -0.86391337       -0.00000000        0.00000000
C           0.86391337        0.00000000       -0.00000000
H          -1.39516569        1.00175308       -0.22644969
H          -1.39516569       -1.00175308        0.22644970
H           1.39516570        1.00175306        0.22644976
H           1.39516570       -1.00175306       -0.22644976
6
MD Time 1020.00
C          -0.86983925       -0.00000000        0.00000000
C           0.86983925        0.00000000       -0.00000000
H          -1.40986869        0.99431376       -0.22087363
H          -1.40986868       -0.99431376        0.22087364
H           1.40986869        0.99431374        0.22087369
H           1.40986869       -0.99431374       -0.22087370
6
MD Time 1030.00
C          -0.87545496       -0.00000000        0.00000000
C           0.87545496        0.00000000       -0.00000000
H          -1.42418598        0.98590716       -0.21486680
H          -1.42418598       -0.98590716        0.21486681
H           1.42418599        0.98590714        0.21486686
H           1.42418599       -0.98590714       -0.21486686
6
MD Time 1040.00
C          -0.88076103       -0.00000000        0.00000000
C           0.88076103        0.00000000       -0.00000000
H          -1.43809351        0.97661882       -0.20845847
H          -1.43809351       -0.97661883        0.20845848
H           1.43809352        0.97661880        0.20845853
H           1.43809352       -0.97661880       -0.20845854
6
MD Time 1050.00
C          -0.88575723       -0.00000000        0.00000000
C           0.88575723        0.00000000       -0.00000000
H          -1.45157319        0.96654841       -0.20167995
H          -1.45157319       -0.96654841        0.20167996
H           1.45157320        0.96654838        0.20168001
H           1.45157321       -0.96654838       -0.20168002
6
MD Time 1060.00
C          -0.89044254       -0.00000000        0.00000000
C           0.89044254        0.00000000       -0.00000000
H          -1.46461316        0.95580924       -0.19456422
H          -1.46461316       -0.95580924        0.19456423
H           1.46461318        0.95580921        0.19456428
H           1.46461318       -0.95580921       -0.19456429
6
MD Time 1070.00
C          -0.89481508       -0.00000000        0.00000000
C           0.89481508        0.00000000       -0.00000000
H          -1.47720782        0.94452761       -0.18714556
H          -1.47720782       -0.94452761        0.18714558
H           1.47720784        0.94452759        0.18714562
H           1.47720784       -0.94452759       -0.18714563
6
MD Time 1080.00
C          -0.89887209       -0.00000000        0.00000000
C           0.89887209        0.00000000       -0.00000000
H          -1.48935776        0.93284175       -0.17945912
H          -1.48935776       -0.93284175        0.17945913
H           1.48935778        0.93284173        0.17945918
H           1.48935778       -0.93284173       -0.17945919
6
MD Time 1090.00
C          -0.90260993       -0.00000000        0.00000000
C           0.90260993        0.00000000       -0.00000000
H          -1.50106949        0.92090036       -0.17154030
H          -1.50106949       -0.92090036        0.17154031
H           1.50106952        0.92090033        0.17154036
H           1.50106952       -0.92090033       -0.17154037
6
MD Time 1100.00
C          -0.90602419       -0.00000000        0.00000000
C           0.90602419        0.00000000       -0.00000000
H          -1.51235494        0.90886069       -0.16342419
H          -1.51235493       -0.90886069        0.16342420
H           1.51235496        0.90886067        0.16342425
H           1.51235496       -0.90886066       -0.16342426
6
MD Time 1110.00
C          -0.90910978       -0.00000000        0.00000000
C           0.90910978        0.00000000       -0.00000000
H          -1.52323052        0.89688614       -0.15514485
H          -1.52323052       -0.89688614        0.15514486
H           1.52323054        0.89688612        0.15514491
H           1.52323055       -0.89688612       -0.15514492
6
MD Time 1120.00
C          -0.91186117       -0.00000000        0.00000000
C           0.91186116        0.00000000       -0.00000000
H          -1.53371603        0.88514329       -0.14673458
H          -1.53371602       -0.88514329        0.14673459
H           1.53371605        0.88514327        0.14673464
H           1.53371605       -0.88514327       -0.14673465
6
MD Time 1130.00
C          -0.91427260       -0.00000000        0.00000000
C           0.91427260        0.00000000       -0.00000000
H          -1.54383301        0.87379849       -0.13822318
H          -1.54383300       -0.87379849        0.13822320
H           1.54383303        0.87379847        0.13822324
H           1.54383303       -0.87379846       -0.13822325
6
MD Time 1140.00
C          -0.91633846       -0.00000000        0.00000000
C           0.91633846        0.00000000       -0.00000000
H          -1.55360290        0.86301403       -0.12963726
H          -1.55360290       -0.86301403        0.12963727
H           1.55360293        0.86301401        0.12963731
H           1.55360293       -0.86301400       -0.12963732
6
MD Time 1150.00
C          -0.91805362       -0.00000000        0.00000000
C           0.91805362        0.00000000       -0.00000000
H          -1.56304486        0.85294409       -0.12099958
H          -1.56304486       -0.85294409        0.12099959
H           1.56304489        0.85294407        0.12099963
H           1.56304489       -0.85294407       -0.12099964
6
MD Time 1160.00
C          -0.91941386       -0.00000000        0.00000000
C           0.91941386        0.00000000       -0.00000000
H          -1.57217344        0.84373063       -0.11232863
H          -1.57217344       -0.84373063        0.11232865
H           1.57217347        0.84373060        0.11232868
H           1.57217347       -0.84373060       -0.11232870
6
MD Time 1170.00
C          -0.92041624       -0.00000000        0.00000000
C           0.92041624        0.00000000       -0.00000000
H          -1.58099623        0.83549941       -0.10363833
H          -1.58099623       -0.83549941        0.10363834
H           1.58099626        0.83549939        0.10363838
H           1.58099626       -0.83549938       -0.10363839
6
MD Time 1180.00
C          -0.92105952       -0.00000000        0.00000000
C           0.92105951        0.00000000       -0.00000000
H          -1.58951174        0.82835654       -0.09493796
H          -1.58951174       -0.82835654        0.09493798
H           1.58951177        0.82835652        0.09493801
H           1.58951177       -0.82835651       -0.09493803
6
MD Time 1190.00
C          -0.92134441       -0.00000000        0.00000000
C           0.92134441        0.00000000       -0.00000000
H          -1.59770760        0.82238559       -0.08623239
H          -1.59770760       -0.82238559        0.08623241
H           1.59770763        0.82238557        0.08623244
H           1.59770763       -0.82238556       -0.08623246
6
MD Time 1200.00
C          -0.92127387       -0.00000000        0.00000000
C           0.92127386        0.00000000       -0.00000000
H          -1.60555934        0.81764560       -0.07752249
H          -1.60555934       -0.81764560        0.07752251
H           1.60555937        0.81764558        0.07752254
H           1.60555938       -0.81764558       -0.07752256
6
MD Time 1210.00
C          -0.92085311       -0.00000000        0.00000000
C           0.92085311        0.00000000       -0.00000000
H          -1.61302984        0.81417008       -0.06880581
H          -1.61302984       -0.81417008        0.06880583
H           1.61302987        0.81417005        0.06880586
H           1.61302987       -0.81417005       -0.06880588
6
MD Time 1220.00
C          -0.92008966       -0.00000000        0.00000000
C           0.92008965        0.00000000       -0.00000000
H          -1.62006950        0.81196696       -0.06007737
H          -1.62006950       -0.81196696        0.06007739
H           1.62006954        0.81196693        0.06007742
H           1.62006954       -0.81196693       -0.06007744
6
MD Time 1230.00
C          -0.91899313       -0.00000000        0.00000000
C           0.91899312        0.00000000       -0.00000000
H          -1.62661724        0.81101960       -0.05133060
H          -1.62661724       -0.81101960        0.05133062
H           1.62661727        0.81101958        0.05133064
H           1.62661728       -0.81101957       -0.05133066
6
MD Time 1240.00
C          -0.91757498       -0.00000000        0.00000000
C           0.91757498        0.00000000       -0.00000000
H          -1.63260206        0.81128856       -0.04255827
H          -1.63260206       -0.81128856        0.04255829
H           1.63260209        0.81128854        0.04255831
H           1.63260209       -0.81128854       -0.04255833
6
MD Time 1250.00
C          -0.91584818       -0.00000000        0.00000000
C           0.91584818        0.00000000       -0.00000000
H          -1.63794515        0.81271407       -0.03375340
H          -1.63794516       -0.81271407        0.03375342
H           1.63794518        0.81271405        0.03375344
H           1.63794518       -0.81271405       -0.03375346
6
MD Time 1260.00
C          -0.91382673       -0.00000000        0.00000000
C           0.91382673        0.00000000       -0.00000000
H          -1.64256244        0.81521893       -0.02491007
H          -1.64256244       -0.81521893        0.02491009
H           1.64256247        0.81521891        0.02491011
H           1.64256247       -0.81521891       -0.02491013
6
MD Time 1270.00
C          -0.91152527       -0.00000000        0.00000000
C           0.91152526        0.00000000       -0.00000000
H          -1.64636712        0.81871166       -0.01602408
H          -1.64636712       -0.81871166        0.01602410
H           1.64636714        0.81871164        0.01602412
H           1.64636715       -0.81871164       -0.01602414
6
MD Time 1280.00
C          -0.90895858       -0.00000000        0.00000000
C           0.90895857        0.00000000       -0.00000000
H          -1.64927231        0.82308972       -0.00709348
H          -1.64927231       -0.82308972        0.00709350
H           1.64927233        0.82308970        0.00709352
H           1.64927234       -0.82308970       -0.00709354
6
MD Time 1290.00
C          -0.90614122       -0.00000000        0.00000000
C           0.90614122        0.00000000       -0.00000000
H          -1.65119347        0.82824257        0.00188109
H          -1.65119348       -0.82824257       -0.00188107
H           1.65119350        0.82824255       -0.00188106
H           1.65119350       -0.82824255        0.00188103
6
MD Time 1300.00
C          -0.90308713       -0.00000000        0.00000000
C           0.90308712        0.00000000       -0.00000000
H          -1.65205058        0.83405457        0.01089621
H          -1.65205058       -0.83405457       -0.01089618
H           1.65205060        0.83405456       -0.01089617
H           1.65205060       -0.83405455        0.01089615
6
MD Time 1310.00
C          -0.89980930       -0.00000000        0.00000000
C           0.89980930        0.00000000       -0.00000000
H          -1.65176993        0.84040756        0.01994557
H          -1.65176993       -0.84040756       -0.01994555
H           1.65176995        0.84040754       -0.01994554
H           1.65176995       -0.84040754        0.01994551
6
MD Time 1320.00
C          -0.89631957       -0.00000000        0.00000000
C           0.89631957        0.00000000       -0.00000000
H          -1.65028563        0.84718309        0.02902011
H          -1.65028564       -0.84718309       -0.02902009
H           1.65028565        0.84718307       -0.02902008
H           1.65028565       -0.84718307        0.02902006
6
MD Time 1330.00
C          -0.89262840       -0.00000000        0.00000000
C           0.89262840        0.00000000       -0.00000000
H          -1.64754074        0.85426437        0.03810811
H          -1.64754074       -0.85426437       -0.03810808
H           1.64754075        0.85426436       -0.03810807
H           1.64754076       -0.85426436        0.03810805
6
MD Time 1340.00
C          -0.88874473       -0.00000000        0.00000000
C           0.88874473        0.00000000       -0.00000000
H          -1.64348802        0.86153789        0.04719538
H          -1.64348803       -0.86153789       -0.04719535
H           1.64348804        0.86153788       -0.04719535
H           1.64348804       -0.86153788        0.04719532
6
MD Time 1350.00
C          -0.88467595       -0.00000000        0.00000000
C           0.88467595        0.00000000       -0.00000000
H          -1.63809055        0.86889474        0.05626559
H          -1.63809055       -0.86889474       -0.05626557
H           1.63809056        0.86889473       -0.05626556
H           1.63809056       -0.86889473        0.05626554
6
MD Time 1360.00
C          -0.88042781       -0.00000000        0.00000000
C           0.88042781        0.00000000       -0.00000000
H          -1.63132195        0.87623170        0.06530050
H          -1.63132196       -0.87623171       -0.06530048
H           1.63132196        0.87623170       -0.06530047
H           1.63132197       -0.87623170        0.06530045
6
MD Time 1370.00
C          -0.87600443       -0.00000000        0.00000000
C           0.87600443        0.00000000       -0.00000000
H          -1.62316662        0.88345220        0.07428030
H          -1.62316663       -0.88345220       -0.07428027
H           1.62316663        0.88345219       -0.07428027
H           1.62316663       -0.88345219        0.07428025
6
MD Time 1380.00
C          -0.87140832       -0.00000000        0.00000000
C           0.87140832        0.00000000       -0.00000000
H          -1.61361970        0.89046697        0.08318387
H          -1.61361970       -0.89046697       -0.08318385
H           1.61361970        0.89046697       -0.08318384
H           1.61361970       -0.89046696        0.08318382
6
MD Time 1390.00
C          -0.86664040       -0.00000000        0.00000000
C           0.86664040        0.00000000       -0.00000000
H          -1.60268701        0.89719477        0.09198916
H          -1.60268702       -0.89719477       -0.09198913
H           1.60268702        0.89719477       -0.09198913
H           1.60268702       -0.89719476        0.09198911
6
MD Time 1400.00
C          -0.86170009       -0.00000000        0.00000000
C           0.86170009        0.00000000       -0.00000000
H          -1.59038501        0.90356288        0.10067343
H          -1.59038502       -0.90356289       -0.10067340
H           1.59038501        0.90356289       -0.10067340
H           1.59038502       -0.90356288        0.10067338
6
MD Time 1410.00
C          -0.85658534       -0.00000000        0.00000000
C           0.85658534        0.00000000       -0.00000000
H          -1.57674059        0.90950766        0.10921360
H          -1.57674059       -0.90950766       -0.10921358
H           1.57674058        0.90950767       -0.10921358
H           1.57674059       -0.90950767        0.10921356
6
MD Time 1420.00
C          -0.85129269       -0.00000000        0.00000000
C           0.85129269        0.00000000       -0.00000000
H          -1.56179096        0.91497497        0.11758654
H          -1.56179096       -0.91497497       -0.11758651
H           1.56179095        0.91497498       -0.11758652
H           1.56179096       -0.91497498        0.11758650
6
MD Time 1430.00
C          -0.84581740       -0.00000000        0.00000000
C           0.84581740        0.00000000       -0.00000000
H          -1.54558352        0.91992066        0.12576933
H          -1.54558352       -0.91992067       -0.12576931
H           1.54558351        0.91992067       -0.12576932
H           1.54558352       -0.91992067        0.12576930
6
MD Time 1440.00
C          -0.84015350       -0.00000000        0.00000000
C           0.84015350        0.00000000       -0.00000000
H          -1.52817570        0.92431105        0.13373962
H          -1.52817570       -0.92431105       -0.13373960
H           1.52817569        0.92431106       -0.13373960
H           1.52817569       -0.92431106        0.13373958
6
MD Time 1450.00
C          -0.83429391       -0.00000000        0.00000000
C           0.83429391        0.00000000       -0.00000000
H          -1.50963480        0.92812334        0.14147583
H          -1.50963480       -0.92812334       -0.14147581
H           1.50963478        0.92812335       -0.14147582
H           1.50963479       -0.92812335        0.14147580
6
MD Time 1460.00
C          -0.82823053       -0.00000000        0.00000000
C           0.82823053        0.00000000       -0.00000000
H          -1.49003781        0.93134608        0.14895752
H          -1.49003781       -0.93134609       -0.14895750
H           1.49003779        0.93134610       -0.14895751
H           1.49003780       -0.93134610        0.14895749
6
MD Time 1470.00
C          -0.82195443       -0.00000000        0.00000000
C           0.82195444        0.00000000       -0.00000000
H          -1.46947119        0.93397959        0.15616560
H          -1.46947119       -0.93397959       -0.15616558
H           1.46947117        0.93397961       -0.15616559
H           1.46947118       -0.93397960        0.15616557
6
MD Time 1480.00
C          -0.81545597       -0.00000000        0.00000000
C           0.81545597        0.00000000       -0.00000000
H          -1.44803058        0.93603625        0.16308264
H          -1.44803058       -0.93603625       -0.16308262
H           1.44803056        0.93603627       -0.16308263
H           1.44803057       -0.93603627        0.16308261
6
MD Time 1490.00
C          -0.80872500       -0.00000000        0.00000000
C           0.80872500        0.00000000       -0.00000000
H          -1.42582038        0.93754081        0.16969309
H          -1.42582039       -0.93754081       -0.16969307
H           1.42582036        0.93754083       -0.16969308
H           1.42582037       -0.93754083        0.16969306
6
MD Time 1500.00
C          -0.80175109       -0.00000000        0.00000000
C           0.80175109        0.00000000       -0.00000000
H          -1.40295328        0.93853044        0.17598347
H          -1.40295328       -0.93853044       -0.17598345
H           1.40295326        0.93853046       -0.17598346
H           1.40295326       -0.93853046        0.17598344
6
MD Time 1510.00
C          -0.79452384       -0.00000000        0.00000000
C           0.79452385        0.00000000       -0.00000000
H          -1.37954951        0.93905461        0.18194258
H          -1.37954951       -0.93905461       -0.18194256
H           1.37954948        0.93905463       -0.18194258
H           1.37954949       -0.93905463        0.18194256
6
MD Time 1520.00
C          -0.78703319       -0.00000000        0.00000000
C           0.78703319        0.00000000       -0.00000001
H          -1.35573604        0.93917470        0.18756157
H          -1.35573605       -0.93917470       -0.18756155
H           1.35573602        0.93917473       -0.18756157
H           1.35573603       -0.93917473        0.18756155
6
MD Time 1530.00
C          -0.77926979       -0.00000000        0.00000001
C           0.77926979        0.00000000       -0.00000001
H          -1.33164551        0.93896324        0.19283394
H          -1.33164551       -0.93896324       -0.19283393
H           1.33164548        0.93896327       -0.19283394
H           1.33164549       -0.93896327        0.19283393
6
MD Time 1540.00
C          -0.77122550       -0.00000000        0.00000001
C           0.77122550        0.00000000       -0.00000001
H          -1.30741489        0.93850273        0.19775549
H          -1.30741489       -0.93850273       -0.19775547
H           1.30741486        0.93850276       -0.19775549
H           1.30741486       -0.93850276        0.19775547
6
MD Time 1550.00
C          -0.76289388       -0.00000000        0.00000001
C           0.76289388        0.00000000       -0.00000001
H          -1.28318404        0.93788400        0.20232404
H          -1.28318405       -0.93788400       -0.20232402
H           1.28318401        0.93788403       -0.20232404
H           1.28318402       -0.93788403        0.20232403
6
MD Time 1560.00
C          -0.75427081       -0.00000000        0.00000001
C           0.75427081        0.00000000       -0.00000001
H          -1.25909403        0.93720408        0.20653915
H          -1.25909403       -0.93720408       -0.20653914
H           1.25909400        0.93720411       -0.20653915
H           1.25909400       -0.93720410        0.20653914
6
MD Time 1570.00
C          -0.74535511       -0.00000000        0.00000001
C           0.74535512        0.00000000       -0.00000001
H          -1.23528525        0.93656351        0.21040160
H          -1.23528525       -0.93656351       -0.21040158
H           1.23528522        0.93656354       -0.21040160
H           1.23528522       -0.93656353        0.21040158
6
MD Time 1580.00
C          -0.73614931       -0.00000000        0.00000001
C           0.73614931        0.00000000       -0.00000001
H          -1.21189554        0.93606329        0.21391275
H          -1.21189554       -0.93606329       -0.21391273
H           1.21189550        0.93606332       -0.21391275
H           1.21189551       -0.93606331        0.21391274
6
MD Time 1590.00
C          -0.72666036       -0.00000000        0.00000001
C           0.72666037        0.00000000       -0.00000001
H          -1.18905820        0.93580137        0.21707386
H          -1.18905820       -0.93580137       -0.21707385
H           1.18905816        0.93580140       -0.21707387
H           1.18905817       -0.93580140        0.21707385
6
MD Time 1600.00
C          -0.71690049       -0.00000000        0.00000001
C           0.71690050        0.00000000       -0.00000001
H          -1.16690013        0.93586902        0.21988527
H          -1.16690013       -0.93586902       -0.21988526
H           1.16690010        0.93586905       -0.21988528
H           1.16690010       -0.93586905        0.21988527
6
MD Time 1610.00
C          -0.70688801       -0.00000000        0.00000001
C           0.70688802        0.00000000       -0.00000001
H          -1.14554011        0.93634708        0.22234562
H          -1.14554011       -0.93634708       -0.22234561
H           1.14554007        0.93634711       -0.22234563
H           1.14554008       -0.93634710        0.22234562
6
MD Time 1620.00
C          -0.69664817       -0.00000000        0.00000001
C           0.69664817        0.00000000       -0.00000001
H          -1.12508726        0.93730253        0.22445108
H          -1.12508726       -0.93730253       -0.22445107
H           1.12508723        0.93730255       -0.22445109
H           1.12508723       -0.93730255        0.22445108
6
MD Time 1630.00
C          -0.68621395       -0.00000000        0.00000001
C           0.68621396        0.00000000       -0.00000001
H          -1.10563993        0.93878543        0.22619476
H          -1.10563993       -0.93878543       -0.22619475
H           1.10563989        0.93878546       -0.22619477
H           1.10563990       -0.93878545        0.22619476
6
MD Time 1640.00
C          -0.67562691       -0.00000000        0.00000001
C           0.67562692        0.00000000       -0.00000001
H          -1.08728479        0.94082660        0.22756629
H          -1.08728480       -0.94082660       -0.22756628
H           1.08728476        0.94082662       -0.22756630
H           1.08728476       -0.94082662        0.22756629
6
MD Time 1650.00
C          -0.66493787       -0.00000000        0.00000001
C           0.66493788        0.00000000       -0.00000001
H          -1.07009641        0.94343607        0.22855167
H          -1.07009641       -0.94343607       -0.22855166
H           1.07009637        0.94343610       -0.22855168
H           1.07009638       -0.94343609        0.22855167
6
MD Time 1660.00
C          -0.65420752       -0.00000000        0.00000001
C           0.65420752        0.00000000       -0.00000001
H          -1.05413712        0.94660259        0.22913335
H          -1.05413712       -0.94660259       -0.22913334
H           1.05413708        0.94660261       -0.22913336
H           1.05413708       -0.94660261        0.22913335
6
MD Time 1670.00
C          -0.64350692       -0.00000000        0.00000001
C           0.64350693        0.00000000       -0.00000001
H          -1.03945722        0.95029405        0.22929071
H          -1.03945722       -0.95029405       -0.22929070
H           1.03945718        0.95029407       -0.22929072
H           1.03945718       -0.95029406        0.22929071
6
MD Time 1680.00
C          -0.63291775       -0.00000000        0.00000001
C           0.63291775        0.00000000       -0.00000001
H          -1.02609551        0.95445886        0.22900067
H          -1.02609551       -0.95445886       -0.22900066
H           1.02609547        0.95445888       -0.22900068
H           1.02609547       -0.95445887        0.22900067
6
MD Time 1690.00
C          -0.62253220       -0.00000000        0.00000001
C           0.62253221        0.00000000       -0.00000001
H          -1.01407995        0.95902821        0.22823858
H          -1.01407995       -0.95902821       -0.22823857
H           1.01407991        0.95902823       -0.22823859
H           1.01407991       -0.95902822        0.22823858
6
MD Time 1700.00
C          -0.61245261       -0.00000000        0.00000001
C           0.61245262        0.00000000       -0.00000001
H          -1.00342856        0.96391886        0.22697929
H          -1.00342856       -0.96391886       -0.22697928
H           1.00342852        0.96391887       -0.22697930
H           1.00342852       -0.96391887        0.22697929
6
MD Time 1710.00
C          -0.60279042       -0.00000000        0.00000001
C           0.60279043        0.00000000       -0.00000001
H          -0.99415033        0.96903640        0.22519820
H          -0.99415033       -0.96903640       -0.22519819
H           0.99415030        0.96903641       -0.22519821
H           0.99415030       -0.96903641        0.22519820
6
MD Time 1720.00
C          -0.59366464       -0.00000000        0.00000001
C           0.59366464        0.00000000       -0.00000001
H          -0.98624628        0.97427875        0.22287233
H          -0.98624628       -0.97427875       -0.22287232
H           0.98624624        0.97427876       -0.22287234
H           0.98624625       -0.97427876        0.22287234
6
MD Time 1730.00
C          -0.58519949       -0.00000000        0.00000001
C           0.58519950        0.00000000       -0.00000001
H          -0.97971040        0.97953959        0.21998136
H          -0.97971040       -0.97953960       -0.21998135
H           0.97971036        0.97953960       -0.21998137
H           0.97971036       -0.97953960        0.21998136
6
MD Time 1740.00
C          -0.57752136       -0.00000000        0.00000001
C           0.57752137        0.00000000       -0.00000001
H          -0.97453063        0.98471175        0.21650842
H          -0.97453063       -0.98471175       -0.21650841
H           0.97453060        0.98471176       -0.21650843
H           0.97453060       -0.98471175        0.21650843
6
MD Time 1750.00
C          -0.57075490       -0.00000000        0.00000001
C           0.57075490        0.00000000       -0.00000001
H          -0.97068981        0.98969018        0.21244084
H          -0.97068981       -0.98969018       -0.21244083
H           0.97068978        0.98969019       -0.21244085
H           0.97068978       -0.98969019        0.21244084
6
MD Time 1760.00
C          -0.56501850       -0.00000000        0.00000001
C           0.56501850        0.00000000       -0.00000001
H          -0.96816648        0.99437474        0.20777058
H          -0.96816648       -0.99437474       -0.20777057
H           0.96816645        0.99437475       -0.20777059
H           0.96816645       -0.99437474        0.20777058
6
MD Time 1770.00
C          -0.56041935       -0.00000000        0.00000001
C           0.56041936        0.00000000       -0.00000001
H          -0.96693564        0.99867244        0.20249458
H          -0.96693564       -0.99867244       -0.20249458
H           0.96693561        0.99867245       -0.20249460
H           0.96693561       -0.99867244        0.20249459
6
MD Time 1780.00
C          -0.55704840       -0.00000000        0.00000001
C           0.55704841        0.00000000       -0.00000001
H          -0.96696946        1.00249937        0.19661488
H          -0.96696946       -1.00249937       -0.19661488
H           0.96696943        1.00249937       -0.19661490
H           0.96696944       -1.00249937        0.19661489
6
MD Time 1790.00
C          -0.55497567       -0.00000000        0.00000001
C           0.55497567        0.00000000       -0.00000001
H          -0.96823789        1.00578219        0.19013861
H          -0.96823788       -1.00578219       -0.19013860
H           0.96823786        1.00578219       -0.19013862
H           0.96823786       -1.00578219        0.19013861
6
MD Time 1800.00
C          -0.55424636       -0.00000000        0.00000001
C           0.55424636        0.00000000       -0.00000001
H          -0.97070919        1.00845931        0.18307783
H          -0.97070919       -1.00845931       -0.18307782
H           0.97070917        1.00845932       -0.18307785
H           0.97070917       -1.00845931        0.18307784
6
MD Time 1810.00
C          -0.55487833       -0.00000000        0.00000001
C           0.55487834        0.00000000       -0.00000001
H          -0.97435048        1.01048169        0.17544937
H          -0.97435048       -1.01048169       -0.17544937
H           0.97435046        1.01048169       -0.17544939
H           0.97435046       -1.01048169        0.17544938
6
MD Time 1820.00
C          -0.55686106       -0.00000000        0.00000001
C           0.55686107        0.00000000       -0.00000001
H          -0.97912818        1.01181336        0.16727451
H          -0.97912818       -1.01181336       -0.16727450
H           0.97912817        1.01181336       -0.16727452
H           0.97912817       -1.01181336        0.16727451
6
MD Time 1830.00
C          -0.56015637       -0.00000000        0.00000001
C           0.56015637        0.00000000       -0.00000001
H          -0.98500846        1.01243175        0.15857863
H          -0.98500845       -1.01243175       -0.15857862
H           0.98500844        1.01243175       -0.15857864
H           0.98500844       -1.01243175        0.15857863
6
MD Time 1840.00
C          -0.56470071       -0.00000000        0.00000001
C           0.56470071        0.00000000       -0.00000001
H          -0.99195760        1.01232771        0.14939086
H          -0.99195760       -1.01232771       -0.14939086
H           0.99195759        1.01232772       -0.14939088
H           0.99195759       -1.01232771        0.14939087
6
MD Time 1850.00
C          -0.57040883       -0.00000000        0.00000001
C           0.57040884        0.00000000       -0.00000001
H          -0.99994240        1.01150540        0.13974368
H          -0.99994240       -1.01150540       -0.13974367
H           0.99994239        1.01150540       -0.13974369
H           0.99994240       -1.01150540        0.13974368
6
MD Time 1860.00
C          -0.57717835       -0.00000000        0.00000001
C           0.57717835        0.00000000       -0.00000001
H          -1.00893041        1.00998189        0.12967238
H          -1.00893041       -1.00998190       -0.12967238
H           1.00893041        1.00998190       -0.12967240
H           1.00893041       -1.00998189        0.12967239
6
MD Time 1870.00
C          -0.58489462       -0.00000000        0.00000001
C           0.58489462        0.00000000       -0.00000001
H          -1.01889017        1.00778667        0.11921464
H          -1.01889016       -1.00778668       -0.11921463
H           1.01889016        1.00778668       -0.11921466
H           1.01889017       -1.00778667        0.11921465
6
MD Time 1880.00
C          -0.59343576       -0.00000000        0.00000001
C           0.59343576        0.00000000       -0.00000001
H          -1.02979126        1.00496082        0.10840990
H          -1.02979126       -1.00496083       -0.10840989
H           1.02979127        1.00496083       -0.10840992
H           1.02979127       -1.00496083        0.10840991
6
MD Time 1890.00
C          -0.60267713       -0.00000000        0.00000001
C           0.60267713        0.00000000       -0.00000001
H          -1.04160437        1.00155605        0.09729880
H          -1.04160437       -1.00155605       -0.09729879
H           1.04160438        1.00155605       -0.09729882
H           1.04160438       -1.00155605        0.09729880
6
MD Time 1900.00
C          -0.61249525       -0.00000000        0.00000001
C           0.61249525        0.00000000       -0.00000001
H          -1.05430107        0.99763339        0.08592253
H          -1.05430106       -0.99763339       -0.08592252
H           1.05430107        0.99763339       -0.08592254
H           1.05430107       -0.99763339        0.08592253
6
MD Time 1910.00
C          -0.62277093       -0.00000000        0.00000001
C           0.62277093        0.00000000       -0.00000001
H          -1.06785354        0.99326174        0.07432218
H          -1.06785354       -0.99326174       -0.07432217
H           1.06785355        0.99326174       -0.07432219
H           1.06785356       -0.99326174        0.07432218
6
MD Time 1920.00
C          -0.63339163       -0.00000000        0.00000001
C           0.63339162        0.00000000       -0.00000001
H          -1.08223419        0.98851604        0.06253812
H          -1.08223419       -0.98851604       -0.06253811
H           1.08223420        0.98851604       -0.06253813
H           1.08223421       -0.98851604        0.06253812
6
MD Time 1930.00
C          -0.64425307       -0.00000000        0.00000001
C           0.64425306        0.00000000       -0.00000001
H          -1.09741499        0.98347527        0.05060937
H          -1.09741498       -0.98347527       -0.05060936
H           1.09741500        0.98347527       -0.05060938
H           1.09741501       -0.98347527        0.05060937
6
MD Time 1940.00
C          -0.65526025       -0.00000000        0.00000001
C           0.65526025        0.00000000       -0.00000001
H          -1.11336680        0.97822017        0.03857308
H          -1.11336679       -0.97822018       -0.03857307
H           1.11336682        0.97822017       -0.03857309
H           1.11336682       -0.97822017        0.03857308
6
MD Time 1950.00
C          -0.66632795       -0.00000000        0.00000001
C           0.66632795        0.00000000       -0.00000001
H          -1.13005852        0.97283087        0.02646408
H          -1.13005852       -0.97283088       -0.02646406
H           1.13005854        0.97283088       -0.02646408
H           1.13005854       -0.97283087        0.02646407
6
MD Time 1960.00
C          -0.67738079       -0.00000000        0.00000001
C           0.67738079        0.00000000       -0.00000001
H          -1.14745618        0.96738439        0.01431452
H          -1.14745617       -0.96738440       -0.01431451
H           1.14745620        0.96738440       -0.01431453
H           1.14745620       -0.96738439        0.01431452
6
MD Time 1970.00
C          -0.68835309       -0.00000000        0.00000001
C           0.68835309        0.00000000       -0.00000001
H          -1.16552191        0.96195220        0.00215375
H          -1.16552190       -0.96195221       -0.00215374
H           1.16552193        0.96195220       -0.00215376
H           1.16552193       -0.96195220        0.00215374
6
MD Time 1980.00
C          -0.69918848       -0.00000000        0.00000001
C           0.69918848        0.00000000       -0.00000001
H          -1.18421302        0.95659792       -0.00999179
H          -1.18421301       -0.95659792        0.00999181
H           1.18421304        0.95659792        0.00999179
H           1.18421305       -0.95659792       -0.00999181
6
MD Time 1990.00
C          -0.70983943       -0.00000000        0.00000001
C           0.70983943        0.00000000       -0.00000001
H          -1.20348106        0.95137535       -0.02209846
H          -1.20348105       -0.95137535        0.02209847
H           1.20348108        0.95137534        0.02209845
H           1.20348108       -0.95137534       -0.02209847
6
MD Time 2000.00
C          -0.72026667       -0.00000000        0.00000001
C           0.72026666        0.00000000       -0.00000001
H          -1.22327101        0.94632686       -0.03414512
H          -1.22327101       -0.94632687        0.03414514
H           1.22327104        0.94632686        0.03414511
H           1.22327104       -0.94632685       -0.03414513
6
MD Time 2010.00
C          -0.73043856       -0.00000000        0.00000001
C           0.73043855        0.00000000       -0.00000001
H          -1.24352075        0.94148236       -0.04611286
H          -1.24352075       -0.94148237        0.04611288
H           1.24352078        0.94148236        0.04611286
H           1.24352078       -0.94148235       -0.04611288
6
MD Time 2020.00
C          -0.74033050       -0.00000000        0.00000001
C           0.74033050        0.00000000       -0.00000001
H          -1.26416065        0.93685880       -0.05798458
H          -1.26416065       -0.93685881        0.05798460
H           1.26416068        0.93685879        0.05798458
H           1.26416068       -0.93685879       -0.05798460
6
MD Time 2030.00
C          -0.74992426       -0.00000000        0.00000001
C           0.74992425        0.00000000       -0.00000001
H          -1.28511359        0.93246032       -0.06974449
H          -1.28511358       -0.93246033        0.06974452
H           1.28511362        0.93246032        0.06974449
H           1.28511362       -0.93246031       -0.06974451
6
MD Time 2040.00
C          -0.75920732       -0.00000000        0.00000001
C           0.75920731        0.00000000       -0.00000001
H          -1.30629520        0.92827901       -0.08137775
H          -1.30629519       -0.92827902        0.08137777
H           1.30629523        0.92827900        0.08137775
H           1.30629523       -0.92827900       -0.08137777
6
MD Time 2050.00
C          -0.76817223       -0.00000000        0.00000001
C           0.76817222        0.00000000       -0.00000001
H          -1.32761448        0.92429613       -0.09287002
H          -1.32761447       -0.92429614        0.09287005
H           1.32761451        0.92429612        0.09287002
H           1.32761451       -0.92429612       -0.09287005
6
MD Time 2060.00
C          -0.77681596       -0.00000000        0.00000001
C           0.77681596        0.00000000       -0.00000001
H          -1.34897473        0.92048383       -0.10420721
H          -1.34897472       -0.92048384        0.10420724
H           1.34897476        0.92048382        0.10420721
H           1.34897476       -0.92048382       -0.10420724
6
MD Time 2070.00
C          -0.78513927       -0.00000000        0.00000001
C           0.78513927        0.00000000       -0.00000001
H          -1.37027465        0.91680712       -0.11537523
H          -1.37027464       -0.91680712        0.11537526
H           1.37027468        0.91680710        0.11537523
H           1.37027468       -0.91680710       -0.11537526
6
MD Time 2080.00
C          -0.79314607       -0.00000000        0.00000001
C           0.79314607        0.00000000       -0.00000001
H          -1.39140974        0.91322594       -0.12635988
H          -1.39140973       -0.91322595        0.12635991
H           1.39140977        0.91322593        0.12635989
H           1.39140977       -0.91322592       -0.12635992
6
MD Time 2090.00
C          -0.80084285       -0.00000000        0.00000001
C           0.80084284        0.00000000       -0.00000001
H          -1.41227372        0.90969739       -0.13714686
H          -1.41227371       -0.90969740        0.13714689
H           1.41227375        0.90969737        0.13714686
H           1.41227375       -0.90969737       -0.13714689
6
MD Time 2100.00
C          -0.80823808       -0.00000000        0.00000001
C           0.80823808        0.00000000       -0.00000001
H          -1.43276005        0.90617767       -0.14772181
H          -1.43276005       -0.90617768        0.14772184
H           1.43276008        0.90617766        0.14772182
H           1.43276008       -0.90617765       -0.14772185
6
MD Time 2110.00
C          -0.81534176       -0.00000000        0.00000001
C           0.81534176        0.00000000       -0.00000001
H          -1.45276342        0.90262403       -0.15807048
H          -1.45276341       -0.90262404        0.15807052
H           1.45276344        0.90262401        0.15807049
H           1.45276344       -0.90262400       -0.15807052
6
MD Time 2120.00
C          -0.82216490       -0.00000000        0.00000001
C           0.82216489        0.00000000       -0.00000001
H          -1.47218110        0.89899630       -0.16817893
H          -1.47218110       -0.89899630        0.16817897
H           1.47218113        0.89899627        0.16817894
H           1.47218113       -0.89899627       -0.16817897
6
MD Time 2130.00
C          -0.82871908       -0.00000000        0.00000001
C           0.82871908        0.00000000       -0.00000001
H          -1.49091430        0.89525827       -0.17803372
H          -1.49091429       -0.89525827        0.17803376
H           1.49091432        0.89525825        0.17803374
H           1.49091432       -0.89525824       -0.17803377
6
MD Time 2140.00
C          -0.83501616       -0.00000000        0.00000001
C           0.83501615        0.00000000       -0.00000001
H          -1.50886919        0.89137873       -0.18762220
H          -1.50886918       -0.89137874        0.18762223
H           1.50886921        0.89137871        0.18762221
H           1.50886921       -0.89137870       -0.18762225
6
MD Time 2150.00
C          -0.84106787       -0.00000000        0.00000001
C           0.84106787        0.00000000       -0.00000001
H          -1.52595793        0.88733225       -0.19693269
H          -1.52595792       -0.88733226        0.19693273
H           1.52595795        0.88733223        0.19693270
H           1.52595795       -0.88733222       -0.19693274
6
MD Time 2160.00
C          -0.84688563       -0.00000000        0.00000001
C           0.84688563        0.00000000       -0.00000001
H          -1.54209944        0.88309971       -0.20595476
H          -1.54209943       -0.88309972        0.20595481
H           1.54209945        0.88309969        0.20595478
H           1.54209945       -0.88309968       -0.20595482
6
MD Time 2170.00
C          -0.85248025       -0.00000000        0.00000001
C           0.85248024        0.00000000       -0.00000001
H          -1.55722001        0.87866862       -0.21467945
H          -1.55722000       -0.87866863        0.21467950
H           1.55722002        0.87866860        0.21467947
H           1.55722002       -0.87866859       -0.21467951
6
MD Time 2180.00
C          -0.85786177       -0.00000000        0.00000001
C           0.85786177        0.00000000       -0.00000001
H          -1.57125385        0.87403330       -0.22309942
H          -1.57125385       -0.87403331        0.22309946
H           1.57125387        0.87403328        0.22309944
H           1.57125387       -0.87403327       -0.22309948
6
MD Time 2190.00
C          -0.86303934       -0.00000000        0.00000001
C           0.86303934        0.00000000       -0.00000001
H          -1.58414346        0.86919490       -0.23120914
H          -1.58414345       -0.86919490        0.23120919
H           1.58414347        0.86919487        0.23120916
H           1.58414347       -0.86919487       -0.23120921
6
MD Time 2200.00
C          -0.86802105       -0.00000000        0.00000001
C           0.86802104        0.00000000       -0.00000001
H          -1.59583988        0.86416131       -0.23900508
H          -1.59583987       -0.86416132        0.23900513
H           1.59583989        0.86416129        0.23900510
H           1.59583989       -0.86416128       -0.23900515
6
MD Time 2210.00
C          -0.87281383       -0.00000000        0.00000001
C           0.87281383        0.00000000       -0.00000001
H          -1.60630297        0.85894706       -0.24648579
H          -1.60630296       -0.85894707        0.24648584
H           1.60630298        0.85894704        0.24648582
H           1.60630298       -0.85894703       -0.24648586
6
MD Time 2220.00
C          -0.87742340       -0.00000000        0.00000001
C           0.87742340        0.00000000       -0.00000001
H          -1.61550154        0.85357311       -0.25365207
H          -1.61550154       -0.85357312        0.25365212
H           1.61550155        0.85357309        0.25365209
H           1.61550155       -0.85357308       -0.25365214
6
MD Time 2230.00
C          -0.88185418       -0.00000000        0.00000001
C           0.88185418        0.00000000       -0.00000001
H          -1.62341349        0.84806664       -0.26050702
H          -1.62341348       -0.84806665        0.26050708
H           1.62341350        0.84806662        0.26050705
H           1.62341350       -0.84806661       -0.26050710
6
MD Time 2240.00
C          -0.88610922       -0.00000000        0.00000001
C           0.88610922        0.00000000       -0.00000001
H          -1.63002589        0.84246083       -0.26705620
H          -1.63002588       -0.84246084        0.26705626
H           1.63002589        0.84246082        0.26705623
H           1.63002589       -0.84246081       -0.26705628
6
MD Time 2250.00
C          -0.89019019       -0.00000000        0.00000001
C           0.89019018        0.00000000       -0.00000001
H          -1.63533507        0.83679465       -0.27330765
H          -1.63533506       -0.83679465        0.27330770
H           1.63533508        0.83679463        0.27330768
H           1.63533507       -0.83679462       -0.27330773
6
MD Time 2260.00
C          -0.89409729       -0.00000000        0.00000001
C           0.89409729        0.00000000       -0.00000001
H          -1.63934669        0.83111255       -0.27927196
H          -1.63934668       -0.83111256        0.27927201
H           1.63934669        0.83111253        0.27927199
H           1.63934669       -0.83111253       -0.27927204
6
MD Time 2270.00
C          -0.89782928       -0.00000000        0.00000001
C           0.89782928        0.00000000       -0.00000001
H          -1.64207571        0.82546425       -0.28496234
H          -1.64207570       -0.82546425        0.28496240
H           1.64207571        0.82546423        0.28496237
H           1.64207571       -0.82546422       -0.28496242
6
MD Time 2280.00
C          -0.90138344       -0.00000000        0.00000001
C           0.90138344        0.00000000       -0.00000001
H          -1.64354641        0.81990439       -0.29039461
H          -1.64354640       -0.81990439        0.29039466
H           1.64354641        0.81990438        0.29039464
H           1.64354641       -0.81990437       -0.29039469
6
MD Time 2290.00
C          -0.90475556       -0.00000000        0.00000001
C           0.90475556        0.00000000       -0.00000001
H          -1.64379226        0.81449220       -0.29558717
H          -1.64379225       -0.81449221        0.29558723
H           1.64379226        0.81449219        0.29558721
H           1.64379226       -0.81449219       -0.29558726
6
MD Time 2300.00
C          -0.90793996       -0.00000000        0.00000001
C           0.90793996        0.00000000       -0.00000001
H          -1.64285576        0.80929107       -0.30056098
H          -1.64285575       -0.80929108        0.30056103
H           1.64285575        0.80929107        0.30056101
H           1.64285575       -0.80929106       -0.30056107
6
MD Time 2310.00
C          -0.91092957       -0.00000000        0.00000001
C           0.91092957        0.00000000       -0.00000001
H          -1.64078811        0.80436799       -0.30533935
H          -1.64078810       -0.80436799        0.30533941
H           1.64078810        0.80436798        0.30533938
H           1.64078810       -0.80436797       -0.30533944
6
MD Time 2320.00
C          -0.91371596       -0.00000000        0.00000001
C           0.91371596        0.00000000       -0.00000001
H          -1.63764875        0.79979288       -0.30994781
H          -1.63764874       -0.79979289        0.30994787
H           1.63764875        0.79979288        0.30994784
H           1.63764874       -0.79979287       -0.30994790
6
MD Time 2330.00
C          -0.91628944       -0.00000000        0.00000001
C           0.91628944        0.00000000       -0.00000001
H          -1.63350474        0.79563779       -0.31441376
H          -1.63350472       -0.79563779        0.31441382
H           1.63350473        0.79563778        0.31441380
H           1.63350472       -0.79563777       -0.31441386
6
MD Time 2340.00
C          -0.91863927       -0.00000000        0.00000001
C           0.91863927        0.00000000       -0.00000001
H          -1.62842980        0.79197581       -0.31876609
H          -1.62842979       -0.79197582        0.31876615
H           1.62842979        0.79197581        0.31876613
H           1.62842979       -0.79197580       -0.31876619
6
MD Time 2350.00
C          -0.92075376       -0.00000000        0.00000001
C           0.92075377        0.00000000       -0.00000001
H          -1.62250328        0.78887990       -0.32303460
H          -1.62250327       -0.78887990        0.32303466
H           1.62250327        0.78887990        0.32303464
H           1.62250327       -0.78887989       -0.32303470
6
MD Time 2360.00
C          -0.92262058       -0.00000000        0.00000001
C           0.92262058        0.00000000       -0.00000001
H          -1.61580874        0.78642130       -0.32724934
H          -1.61580872       -0.78642131        0.32724941
H           1.61580872        0.78642131        0.32724939
H           1.61580872       -0.78642130       -0.32724944
6
MD Time 2370.00
C          -0.92422695       -0.00000000        0.00000001
C           0.92422695        0.00000000       -0.00000001
H          -1.60843233        0.78466792       -0.33143980
H          -1.60843232       -0.78466792        0.33143986
H           1.60843232        0.78466793        0.33143984
H           1.60843231       -0.78466792       -0.33143990
6
MD Time 2380.00
C          -0.92556004       -0.00000000        0.00000001
C           0.92556004        0.00000000       -0.00000001
H          -1.60046101        0.78368235       -0.33563392
H          -1.60046100       -0.78368235        0.33563398
H           1.60046100        0.78368236        0.33563396
H           1.60046100       -0.78368235       -0.33563402
6
MD Time 2390.00
C          -0.92660722       -0.00000000        0.00000001
C           0.92660723        0.00000000       -0.00000001
H          -1.59198057        0.78351980       -0.33985704
H          -1.59198055       -0.78351980        0.33985711
H           1.59198055        0.78351981        0.33985709
H           1.59198055       -0.78351980       -0.33985714
6
MD Time 2400.00
C          -0.92735646       -0.00000000        0.00000001
C           0.92735646        0.00000000       -0.00000001
H          -1.58307356        0.78422598       -0.34413078
H          -1.58307355       -0.78422598        0.34413084
H           1.58307354        0.78422599        0.34413082
H           1.58307354       -0.78422597       -0.34413088
6
MD Time 2410.00
C          -0.92779662       -0.00000000        0.00000001
C           0.92779662        0.00000000       -0.00000001
H          -1.57381740        0.78583492       -0.34847184
H          -1.57381738       -0.78583492        0.34847190
H           1.57381738        0.78583493        0.34847188
H           1.57381737       -0.78583491       -0.34847194
6
MD Time 2420.00
C          -0.92791777       -0.00000000        0.00000001
C           0.92791777        0.00000000       -0.00000001
H          -1.56428250        0.78836706       -0.35289093
H          -1.56428249       -0.78836706        0.35289099
H           1.56428248        0.78836708        0.35289097
H           1.56428248       -0.78836706       -0.35289102
6
MD Time 2430.00
C          -0.92771146       -0.00000000        0.00000001
C           0.92771146        0.00000000       -0.00000001
H          -1.55453084        0.79182759       -0.35739176
H          -1.55453082       -0.79182759        0.35739182
H           1.55453082        0.79182761        0.35739180
H           1.55453081       -0.79182759       -0.35739185
6
MD Time 2440.00
C          -0.92717086       -0.00000000        0.00000001
C           0.92717086        0.00000000       -0.00000001
H          -1.54461476        0.79620519       -0.36197030
H          -1.54461475       -0.79620519        0.36197036
H           1.54461474        0.79620520        0.36197033
H           1.54461474       -0.79620519       -0.36197039
6
MD Time 2450.00
C          -0.92629090       -0.00000000        0.00000001
C           0.92629091        0.00000000       -0.00000001
H          -1.53457647        0.80147138       -0.36661425
H          -1.53457645       -0.80147138        0.36661431
H           1.53457644        0.80147140        0.36661429
H           1.53457644       -0.80147138       -0.36661435
6
MD Time 2460.00
C          -0.92506827       -0.00000000        0.00000001
C           0.92506827        0.00000000       -0.00000001
H          -1.52444783        0.80758052       -0.37130291
H          -1.52444781       -0.80758052        0.37130297
H           1.52444780        0.80758053        0.37130295
H           1.52444780       -0.80758052       -0.37130300
6
MD Time 2470.00
C          -0.92350131       -0.00000000        0.00000001
C           0.92350131        0.00000000       -0.00000001
H          -1.51425084        0.81447038       -0.37600731
H          -1.51425083       -0.81447038        0.37600737
H           1.51425082        0.81447039        0.37600734
H           1.51425081       -0.81447038       -0.37600740
6
MD Time 2480.00
C          -0.92158992       -0.00000000        0.00000001
C           0.92158992        0.00000000       -0.00000001
H          -1.50399849        0.82206350       -0.38069078
H          -1.50399847       -0.82206350        0.38069084
H           1.50399846        0.82206351        0.38069081
H           1.50399846       -0.82206350       -0.38069087
6
MD Time 2490.00
C          -0.91933531       -0.00000000        0.00000001
C           0.91933531        0.00000000       -0.00000001
H          -1.49369595        0.83026897       -0.38530978
H          -1.49369593       -0.83026897        0.38530984
H           1.49369592        0.83026898        0.38530981
H           1.49369592       -0.83026897       -0.38530986
6
MD Time 2500.00
C          -0.91673973       -0.00000000        0.00000001
C           0.91673973        0.00000000       -0.00000001
H          -1.48334209        0.83898479       -0.38981501
H          -1.48334208       -0.83898479        0.38981507
H           1.48334206        0.83898480        0.38981503
H           1.48334206       -0.83898479       -0.38981509
6
MD Time 2510.00
C          -0.91380625       -0.00000000        0.00000001
C           0.91380625        0.00000000       -0.00000001
H          -1.47293107        0.84810044       -0.39415268
H          -1.47293106       -0.84810044        0.39415274
H           1.47293105        0.84810045        0.39415270
H           1.47293104       -0.84810044       -0.39415276
6
MD Time 2520.00
C          -0.91053842       -0.00000000        0.00000001
C           0.91053843        0.00000000       -0.00000001
H          -1.46245395        0.85749968       -0.39826590
H          -1.46245394       -0.85749968        0.39826596
H           1.46245393        0.85749969        0.39826593
H           1.46245393       -0.85749967       -0.39826598
6
MD Time 2530.00
C          -0.90694009       -0.00000000        0.00000001
C           0.90694009        0.00000000       -0.00000001
H          -1.45190021        0.86706328       -0.40209609
H          -1.45190020       -0.86706328        0.40209615
H           1.45190019        0.86706329        0.40209611
H           1.45190018       -0.86706328       -0.40209616
6
MD Time 2540.00
C          -0.90301509       -0.00000000        0.00000001
C           0.90301510        0.00000000       -0.00000001
H          -1.44125911        0.87667172       -0.40558427
H          -1.44125910       -0.87667172        0.40558433
H           1.44125909        0.87667172        0.40558429
H           1.44125909       -0.87667171       -0.40558434
6
MD Time 2550.00
C          -0.89876715       -0.00000000        0.00000001
C           0.89876715        0.00000000       -0.00000001
H          -1.43052089        0.88620755       -0.40867235
H          -1.43052087       -0.88620755        0.40867241
H           1.43052086        0.88620755        0.40867237
H           1.43052086       -0.88620754       -0.40867242
6
MD Time 2560.00
C          -0.89419966       -0.00000000        0.00000001
C           0.89419966        0.00000000       -0.00000001
H          -1.41967763        0.89555758       -0.41130419
H          -1.41967762       -0.89555758        0.41130425
H           1.41967761        0.89555758        0.41130421
H           1.41967761       -0.89555757       -0.41130426
6
MD Time 2570.00
C          -0.88931562       -0.00000000        0.00000001
C           0.88931562        0.00000000       -0.00000001
H          -1.40872407        0.90461467       -0.41342650
H          -1.40872405       -0.90461467        0.41342656
H           1.40872405        0.90461468        0.41342651
H           1.40872404       -0.90461466       -0.41342657
6
MD Time 2580.00
C          -0.88411757       -0.00000000        0.00000001
C           0.88411757        0.00000000       -0.00000001
H          -1.39765801        0.91327924       -0.41498960
H          -1.39765800       -0.91327924        0.41498966
H           1.39765799        0.91327925        0.41498961
H           1.39765799       -0.91327923       -0.41498966
6
MD Time 2590.00
C          -0.87860755       -0.00000000        0.00000001
C           0.87860755        0.00000000       -0.00000001
H          -1.38648073        0.92146043       -0.41594796
H          -1.38648072       -0.92146043        0.41594801
H           1.38648072        0.92146044        0.41594796
H           1.38648071       -0.92146042       -0.41594801
6
MD Time 2600.00
C          -0.87278712       -0.00000000        0.00000001
C           0.87278712        0.00000000       -0.00000001
H          -1.37519713        0.92907702       -0.41626063
H          -1.37519711       -0.92907702        0.41626069
H           1.37519712        0.92907702        0.41626063
H           1.37519711       -0.92907701       -0.41626068
6
MD Time 2610.00
C          -0.86665738       -0.00000000        0.00000001
C           0.86665738        0.00000000       -0.00000001
H          -1.36381581        0.93605808       -0.41589154
H          -1.36381580       -0.93605808        0.41589159
H           1.36381580        0.93605808        0.41589154
H           1.36381580       -0.93605807       -0.41589159
6
MD Time 2620.00
C          -0.86021905       -0.00000000        0.00000001
C           0.86021905        0.00000000       -0.00000001
H          -1.35234910        0.94234346       -0.41480960
H          -1.35234909       -0.94234346        0.41480966
H           1.35234909        0.94234346        0.41480960
H           1.35234909       -0.94234345       -0.41480965
6
MD Time 2630.00
C          -0.85347251       -0.00000000        0.00000001
C           0.85347251        0.00000000       -0.00000001
H          -1.34081294        0.94788410       -0.41298886
H          -1.34081293       -0.94788410        0.41298891
H           1.34081294        0.94788410        0.41298885
H           1.34081293       -0.94788409       -0.41298890
6
MD Time 2640.00
C          -0.84641790       -0.00000000        0.00000001
C           0.84641790        0.00000000       -0.00000001
H          -1.32922684        0.95264224       -0.41040842
H          -1.32922683       -0.95264224        0.41040847
H           1.32922684        0.95264224        0.41040841
H           1.32922683       -0.95264223       -0.41040846
6
MD Time 2650.00
C          -0.83905527       -0.00000000        0.00000001
C           0.83905527        0.00000000       -0.00000001
H          -1.31761373        0.95659152       -0.40705245
H          -1.31761372       -0.95659152        0.40705250
H           1.31761373        0.95659152        0.40705244
H           1.31761373       -0.95659151       -0.40705248
6
MD Time 2660.00
C          -0.83138465       -0.00000000        0.00000001
C           0.83138465        0.00000000       -0.00000001
H          -1.30599986        0.95971708       -0.40291004
H          -1.30599985       -0.95971708        0.40291010
H           1.30599986        0.95971708        0.40291003
H           1.30599986       -0.95971707       -0.40291008
6
MD Time 2670.00
C          -0.82340621       -0.00000000        0.00000001
C           0.82340621        0.00000000       -0.00000001
H          -1.29441467        0.96201555       -0.39797513
H          -1.29441466       -0.96201555        0.39797518
H           1.29441467        0.96201555        0.39797511
H           1.29441467       -0.96201554       -0.39797516
6
MD Time 2680.00
C          -0.81512045       -0.00000000        0.00000001
C           0.81512045        0.00000000       -0.00000001
H          -1.28289067        0.96349504       -0.39224627
H          -1.28289065       -0.96349504        0.39224632
H           1.28289067        0.96349504        0.39224625
H           1.28289067       -0.96349503       -0.39224630
6
MD Time 2690.00
C          -0.80652836       -0.00000000        0.00000001
C           0.80652835        0.00000000       -0.00000001
H          -1.27146332        0.96417508       -0.38572651
H          -1.27146331       -0.96417508        0.38572656
H           1.27146333        0.96417508        0.38572649
H           1.27146333       -0.96417507       -0.38572654
6
MD Time 2700.00
C          -0.79763162       -0.00000000        0.00000001
C           0.79763162        0.00000000       -0.00000001
H          -1.26017090        0.96408649       -0.37842313
H          -1.26017089       -0.96408649        0.37842318
H           1.26017091        0.96408649        0.37842311
H           1.26017091       -0.96408648       -0.37842315
6
MD Time 2710.00
C          -0.78843291       -0.00000000        0.00000001
C           0.78843290        0.00000000       -0.00000001
H          -1.24905434        0.96327118       -0.37034741
H          -1.24905434       -0.96327118        0.37034745
H           1.24905436        0.96327118        0.37034738
H           1.24905436       -0.96327117       -0.37034742
6
MD Time 2720.00
C          -0.77893614       -0.00000000        0.00000001
C           0.77893614        0.00000000       -0.00000001
H          -1.23815708        0.96178182       -0.36151430
H          -1.23815707       -0.96178183        0.36151435
H           1.23815710        0.96178182        0.36151427
H           1.23815710       -0.96178181       -0.36151432
6
MD Time 2730.00
C          -0.76914685       -0.00000000        0.00000001
C           0.76914685        0.00000000       -0.00000001
H          -1.22752474        0.95968137       -0.35194212
H          -1.22752473       -0.95968137        0.35194217
H           1.22752476        0.95968137        0.35194209
H           1.22752476       -0.95968136       -0.35194214
6
MD Time 2740.00
C          -0.75907257       -0.00000000        0.00000001
C           0.75907257        0.00000000       -0.00000001
H          -1.21720488        0.95704236       -0.34165212
H          -1.21720487       -0.95704236        0.34165217
H           1.21720491        0.95704235        0.34165209
H           1.21720491       -0.95704235       -0.34165213
6
MD Time 2750.00
C          -0.74872333       -0.00000000        0.00000001
C           0.74872333        0.00000000       -0.00000001
H          -1.20724656        0.95394595       -0.33066800
H          -1.20724656       -0.95394596        0.33066804
H           1.20724659        0.95394595        0.33066796
H           1.20724659       -0.95394595       -0.33066800
6
MD Time 2760.00
C          -0.73811221       -0.00000000        0.00000001
C           0.73811220        0.00000000       -0.00000001
H          -1.19769979        0.95048071       -0.31901539
H          -1.19769978       -0.95048071        0.31901544
H           1.19769982        0.95048071        0.31901536
H           1.19769982       -0.95048070       -0.31901540
6
MD Time 2770.00
C          -0.72725597       -0.00000000        0.00000001
C           0.72725596        0.00000000       -0.00000001
H          -1.18861483        0.94674094       -0.30672131
H          -1.18861482       -0.94674094        0.30672135
H           1.18861486        0.94674094        0.30672127
H           1.18861486       -0.94674093       -0.30672131
6
MD Time 2780.00
C          -0.71617583       -0.00000000        0.00000001
C           0.71617582        0.00000000       -0.00000001
H          -1.18004138        0.94282475       -0.29381348
H          -1.18004137       -0.94282476        0.29381352
H           1.18004141        0.94282475        0.29381344
H           1.18004141       -0.94282475       -0.29381347
6
MD Time 2790.00
C          -0.70489828       -0.00000000        0.00000001
C           0.70489828        0.00000000       -0.00000001
H          -1.17202751        0.93883169       -0.28031975
H          -1.17202750       -0.93883170        0.28031979
H           1.17202754        0.93883170        0.28031971
H           1.17202755       -0.93883169       -0.28031974
6
MD Time 2800.00
C          -0.69345607       -0.00000000        0.00000001
C           0.69345606        0.00000000       -0.00000001
H          -1.16461851        0.93486010       -0.26626753
H          -1.16461850       -0.93486010        0.26626757
H           1.16461854        0.93486010        0.26626748
H           1.16461855       -0.93486009       -0.26626752
6
MD Time 2810.00
C          -0.68188916       -0.00000000        0.00000001
C           0.68188915        0.00000000       -0.00000001
H          -1.15785551        0.93100414       -0.25168327
H          -1.15785551       -0.93100414        0.25168331
H           1.15785555        0.93100414        0.25168323
H           1.15785555       -0.93100413       -0.25168326
6
MD Time 2820.00
C          -0.67024587       -0.00000000        0.00000001
C           0.67024586        0.00000000       -0.00000001
H          -1.15177411        0.92735082       -0.23659217
H          -1.15177411       -0.92735082        0.23659221
H           1.15177415        0.92735082        0.23659212
H           1.15177415       -0.92735081       -0.23659216
6
MD Time 2830.00
C          -0.65858388       -0.00000000        0.00000001
C           0.65858387        0.00000000       -0.00000001
H          -1.14640286        0.92397697       -0.22101798
H          -1.14640286       -0.92397698        0.22101802
H           1.14640290        0.92397698        0.22101793
H           1.14640290       -0.92397697       -0.22101797
6
MD Time 2840.00
C          -0.64697128       -0.00000000        0.00000001
C           0.64697127        0.00000000       -0.00000001
H          -1.14176192        0.92094657       -0.20498319
H          -1.14176192       -0.92094657        0.20498322
H           1.14176196        0.92094657        0.20498314
H           1.14176197       -0.92094656       -0.20498317
6
MD Time 2850.00
C          -0.63548738       -0.00000000        0.00000001
C           0.63548738        0.00000000       -0.00000001
H          -1.13786188        0.91830842       -0.18850932
H          -1.13786188       -0.91830843        0.18850936
H           1.13786192        0.91830842        0.18850927
H           1.13786193       -0.91830842       -0.18850931
6
MD Time 2860.00
C          -0.62422329       -0.00000000        0.00000001
C           0.62422328        0.00000000       -0.00000001
H          -1.13470286        0.91609466       -0.17161766
H          -1.13470285       -0.91609466        0.17161770
H           1.13470289        0.91609466        0.17161761
H           1.13470290       -0.91609466       -0.17161764
6
MD Time 2870.00
C          -0.61328196       -0.00000000        0.00000001
C           0.61328195        0.00000000       -0.00000001
H          -1.13227405        0.91431997       -0.15433004
H          -1.13227405       -0.91431997        0.15433008
H           1.13227409        0.91431997        0.15432999
H           1.13227409       -0.91431996       -0.15433002
6
MD Time 2880.00
C          -0.60277776       -0.00000000        0.00000001
C           0.60277776        0.00000000       -0.00000001
H          -1.13055384        0.91298178       -0.13666987
H          -1.13055384       -0.91298178        0.13666990
H           1.13055388        0.91298178        0.13666981
H           1.13055388       -0.91298177       -0.13666985
6
MD Time 2890.00
C          -0.59283519       -0.00000000        0.00000001
C           0.59283518        0.00000000       -0.00000001
H          -1.12951038        0.91206139       -0.11866318
H          -1.12951038       -0.91206140        0.11866321
H           1.12951041        0.91206140        0.11866312
H           1.12951042       -0.91206139       -0.11866315
6
MD Time 2900.00
C          -0.58358666       -0.00000000        0.00000001
C           0.58358666        0.00000000       -0.00000001
H          -1.12910277        0.91152595       -0.10033959
H          -1.12910277       -0.91152595        0.10033962
H           1.12910281        0.91152595        0.10033953
H           1.12910281       -0.91152594       -0.10033956
6
MD Time 2910.00
C          -0.57516937       -0.00000000        0.00000001
C           0.57516936        0.00000000       -0.00000001
H          -1.12928275        0.91133104       -0.08173307
H          -1.12928275       -0.91133105        0.08173311
H           1.12928278        0.91133104        0.08173301
H           1.12928279       -0.91133103       -0.08173304
6
MD Time 2920.00
C          -0.56772095       -0.00000000        0.00000001
C           0.56772094        0.00000000       -0.00000001
H          -1.12999671        0.91142384       -0.06288252
H          -1.12999670       -0.91142384        0.06288255
H           1.12999673        0.91142383        0.06288245
H           1.12999674       -0.91142383       -0.06288249
6
MD Time 2930.00
C          -0.56137438       -0.00000000        0.00000001
C           0.56137437        0.00000000       -0.00000001
H          -1.13118793        0.91174635       -0.04383189
H          -1.13118793       -0.91174635        0.04383192
H           1.13118795        0.91174635        0.04383182
H           1.13118796       -0.91174634       -0.04383185
6
MD Time 2940.00
C          -0.55625206       -0.00000000        0.00000001
C           0.55625206        0.00000000       -0.00000001
H          -1.13279895        0.91223871       -0.02463011
H          -1.13279895       -0.91223871        0.02463014
H           1.13279897        0.91223870        0.02463004
H           1.13279898       -0.91223869       -0.02463007
6
MD Time 2950.00
C          -0.55245972       -0.00000000        0.00000001
C           0.55245972        0.00000000       -0.00000001
H          -1.13477373        0.91284213       -0.00533060
H          -1.13477373       -0.91284214        0.00533064
H           1.13477375        0.91284213        0.00533054
H           1.13477375       -0.91284212       -0.00533057
6
MD Time 2960.00
C          -0.55008057       -0.00000000        0.00000001
C           0.55008056        0.00000000       -0.00000001
H          -1.13705968        0.91350154        0.01400940
H          -1.13705967       -0.91350155       -0.01400937
H           1.13705969        0.91350153       -0.01400947
H           1.13705970       -0.91350153        0.01400944
6
MD Time 2970.00
C          -0.54917040       -0.00000000        0.00000001
C           0.54917039        0.00000000       -0.00000001
H          -1.13960927        0.91416758        0.03332983
H          -1.13960927       -0.91416759       -0.03332980
H           1.13960928        0.91416758       -0.03332989
H           1.13960929       -0.91416757        0.03332986
6
MD Time 2980.00
C          -0.54975415       -0.00000000        0.00000001
C           0.54975415        0.00000000       -0.00000001
H          -1.14238137        0.91479816        0.05256875
H          -1.14238137       -0.91479816       -0.05256872
H           1.14238138        0.91479815       -0.05256882
H           1.14238138       -0.91479814        0.05256879
6
MD Time 2990.00
C          -0.55182446       -0.00000000        0.00000001
C           0.55182445        0.00000000       -0.00000001
H          -1.14534206        0.91535931        0.07166352
H          -1.14534206       -0.91535932       -0.07166348
H           1.14534206        0.91535930       -0.07166358
H           1.14534207       -0.91535929        0.07166355
