6
MD Time 0.00
C          -1.00424993        0.00000000        0.00000000
C           1.00424993        0.00000000        0.00000000
H          -1.57974221        0.85087473        0.35244385
H          -1.57974221       -0.85087473       -0.35244385
H           1.57974221        0.85087473       -0.35244385
H           1.57974221       -0.85087473        0.35244385
6
MD Time 10.00
C          -1.00412975       -0.00000000        0.00000000
C           1.00412975       -0.00000000       -0.00000000
H          -1.57961284        0.85103238        0.35240262
H          -1.57961284       -0.85103238       -0.35240262
H           1.57961284        0.85103238       -0.35240262
H           1.57961284       -0.85103238        0.35240262
6
MD Time 20.00
C          -1.00376927       -0.00000000        0.00000000
C           1.00376927       -0.00000000       -0.00000000
H          -1.57922391        0.85150329        0.35227797
H          -1.57922391       -0.85150329       -0.35227797
H           1.57922391        0.85150329       -0.35227797
H           1.57922391       -0.85150329        0.35227797
6
MD Time 30.00
C          -1.00316868       -0.00000000        0.00000000
C           1.00316868       -0.00000000       -0.00000000
H          -1.57857294        0.85228135        0.35206702
H          -1.57857294       -0.85228135       -0.35206702
H           1.57857295        0.85228135       -0.35206702
H           1.57857295       -0.85228135        0.35206702
6
MD Time 40.00
C          -1.00232825       -0.00000000        0.00000000
C           1.00232825       -0.00000000       -0.00000000
H          -1.57765595        0.85335651        0.35176506
H          -1.57765595       -0.85335651       -0.35176506
H           1.57765595        0.85335651       -0.35176506
H           1.57765595       -0.85335651        0.35176506
6
MD Time 50.00
C          -1.00124838       -0.00000000        0.00000000
C           1.00124838       -0.00000000       -0.00000000
H          -1.57646750        0.85471504        0.35136564
H          -1.57646750       -0.85471504       -0.35136564
H           1.57646750        0.85471504       -0.35136564
H           1.57646750       -0.85471504        0.35136564
6
MD Time 60.00
C          -0.99992947       -0.00000000        0.00000000
C           0.99992947       -0.00000000       -0.00000000
H          -1.57500094        0.85633982        0.35086073
H          -1.57500094       -0.85633982       -0.35086073
H           1.57500095        0.85633982       -0.35086073
H           1.57500095       -0.85633982        0.35086073
6
MD Time 70.00
C          -0.99837197       -0.00000000        0.00000000
C           0.99837197       -0.00000000       -0.00000000
H          -1.57324864        0.85821073        0.35024089
H          -1.57324864       -0.85821073       -0.35024089
H           1.57324865        0.85821073       -0.35024089
H           1.57324865       -0.85821073        0.35024089
6
MD Time 80.00
C          -0.99657630       -0.00000000        0.00000000
C           0.99657630       -0.00000000       -0.00000000
H          -1.57120218        0.86030505        0.34949549
H          -1.57120218       -0.86030505       -0.34949549
H           1.57120219        0.86030505       -0.34949549
H           1.57120219       -0.86030505        0.34949549
6
MD Time 90.00
C          -0.99454279       -0.00000000        0.00000000
C           0.99454279       -0.00000000       -0.00000000
H          -1.56885271        0.86259797        0.34861289
H          -1.56885271       -0.86259797       -0.34861289
H           1.56885272        0.86259797       -0.34861289
H           1.56885272       -0.86259797        0.34861289
6
MD Time 100.00
C          -0.99227168       -0.00000000        0.00000000
C           0.99227168       -0.00000000       -0.00000000
H          -1.56619117        0.86506309        0.34758074
H          -1.56619117       -0.86506309       -0.34758074
H           1.56619118        0.86506308       -0.34758073
H           1.56619118       -0.86506308        0.34758073
6
MD Time 110.00
C          -0.98976303       -0.00000000        0.00000000
C           0.98976303       -0.00000000       -0.00000000
H          -1.56320860        0.86767290        0.34638615
H          -1.56320860       -0.86767290       -0.34638615
H           1.56320862        0.86767290       -0.34638615
H           1.56320862       -0.86767289        0.34638615
6
MD Time 120.00
C          -0.98701668       -0.00000000        0.00000000
C           0.98701667       -0.00000000       -0.00000000
H          -1.55989648        0.87039936        0.34501599
H          -1.55989648       -0.87039936       -0.34501599
H           1.55989650        0.87039936       -0.34501598
H           1.55989650       -0.87039936        0.34501598
6
MD Time 130.00
C          -0.98403221       -0.00000000        0.00000000
C           0.98403221       -0.00000000       -0.00000000
H          -1.55624691        0.87321438        0.34345705
H          -1.55624691       -0.87321438       -0.34345705
H           1.55624693        0.87321437       -0.34345705
H           1.55624693       -0.87321437        0.34345705
6
MD Time 140.00
C          -0.98080893       -0.00000000        0.00000000
C           0.98080892       -0.00000000       -0.00000000
H          -1.55225297        0.87609028        0.34169631
H          -1.55225297       -0.87609028       -0.34169631
H           1.55225299        0.87609027       -0.34169631
H           1.55225299       -0.87609027        0.34169631
6
MD Time 150.00
C          -0.97734578       -0.00000000        0.00000000
C           0.97734577       -0.00000000       -0.00000000
H          -1.54790886        0.87900033        0.33972111
H          -1.54790886       -0.87900033       -0.33972111
H           1.54790889        0.87900032       -0.33972110
H           1.54790889       -0.87900032        0.33972110
6
MD Time 160.00
C          -0.97364135       -0.00000000        0.00000000
C           0.97364134       -0.00000000       -0.00000000
H          -1.54321019        0.88191908        0.33751931
H          -1.54321019       -0.88191908       -0.33751931
H           1.54321022        0.88191907       -0.33751930
H           1.54321022       -0.88191907        0.33751930
6
MD Time 170.00
C          -0.96969384       -0.00000000        0.00000000
C           0.96969384       -0.00000000       -0.00000000
H          -1.53815410        0.88482283        0.33507945
H          -1.53815410       -0.88482283       -0.33507945
H           1.53815413        0.88482282       -0.33507944
H           1.53815413       -0.88482282        0.33507944
6
MD Time 180.00
C          -0.96550105       -0.00000000        0.00000000
C           0.96550104       -0.00000000       -0.00000000
H          -1.53273941        0.88768988        0.33239091
H          -1.53273941       -0.88768988       -0.33239092
H           1.53273944        0.88768987       -0.33239090
H           1.53273944       -0.88768987        0.33239090
6
MD Time 190.00
C          -0.96106032       -0.00000000        0.00000000
C           0.96106032       -0.00000000       -0.00000000
H          -1.52696675        0.89050089        0.32944396
H          -1.52696675       -0.89050089       -0.32944396
H           1.52696678        0.89050088       -0.32944394
H           1.52696679       -0.89050088        0.32944394
6
MD Time 200.00
C          -0.95636860       -0.00000000        0.00000000
C           0.95636860       -0.00000000       -0.00000000
H          -1.52083865        0.89323907        0.32622982
H          -1.52083865       -0.89323907       -0.32622982
H           1.52083868        0.89323906       -0.32622981
H           1.52083868       -0.89323906        0.32622981
6
MD Time 210.00
C          -0.95142239       -0.00000000        0.00000000
C           0.95142238       -0.00000000       -0.00000000
H          -1.51435954        0.89589035        0.32274078
H          -1.51435954       -0.89589035       -0.32274078
H           1.51435957        0.89589034       -0.32274077
H           1.51435957       -0.89589034        0.32274077
6
MD Time 220.00
C          -0.94621777       -0.00000000        0.00000000
C           0.94621776       -0.00000000       -0.00000000
H          -1.50753580        0.89844354        0.31897016
H          -1.50753580       -0.89844354       -0.31897016
H           1.50753583        0.89844353       -0.31897014
H           1.50753584       -0.89844353        0.31897014
6
MD Time 230.00
C          -0.94075042       -0.00000000        0.00000000
C           0.94075042       -0.00000000       -0.00000000
H          -1.50037573        0.90089038        0.31491230
H          -1.50037573       -0.90089038       -0.31491230
H           1.50037577        0.90089037       -0.31491228
H           1.50037577       -0.90089036        0.31491229
6
MD Time 240.00
C          -0.93501566       -0.00000000        0.00000000
C           0.93501566       -0.00000000       -0.00000000
H          -1.49288951        0.90322553        0.31056259
H          -1.49288951       -0.90322553       -0.31056259
H           1.49288954        0.90322551       -0.31056258
H           1.49288954       -0.90322551        0.31056258
6
MD Time 250.00
C          -0.92900845       -0.00000000        0.00000000
C           0.92900844       -0.00000000       -0.00000000
H          -1.48508909        0.90544656        0.30591738
H          -1.48508909       -0.90544656       -0.30591738
H           1.48508913        0.90544654       -0.30591736
H           1.48508913       -0.90544654        0.30591736
6
MD Time 260.00
C          -0.92272344       -0.00000000        0.00000000
C           0.92272343       -0.00000000       -0.00000000
H          -1.47698814        0.90755382        0.30097392
H          -1.47698814       -0.90755382       -0.30097392
H           1.47698818        0.90755380       -0.30097390
H           1.47698818       -0.90755380        0.30097390
6
MD Time 270.00
C          -0.91615505       -0.00000000        0.00000000
C           0.91615505       -0.00000000       -0.00000000
H          -1.46860186        0.90955029        0.29573028
H          -1.46860186       -0.90955029       -0.29573028
H           1.46860189        0.90955027       -0.29573026
H           1.46860189       -0.90955027        0.29573026
6
MD Time 280.00
C          -0.90929752       -0.00000000        0.00000000
C           0.90929752       -0.00000000       -0.00000000
H          -1.45994684        0.91144138        0.29018528
H          -1.45994684       -0.91144138       -0.29018528
H           1.45994687        0.91144136       -0.29018526
H           1.45994687       -0.91144136        0.29018526
6
MD Time 290.00
C          -0.90214497       -0.00000000        0.00000000
C           0.90214497       -0.00000000       -0.00000000
H          -1.45104089        0.91323461        0.28433835
H          -1.45104089       -0.91323461       -0.28433835
H           1.45104092        0.91323459       -0.28433833
H           1.45104092       -0.91323459        0.28433833
6
MD Time 300.00
C          -0.89469151       -0.00000000        0.00000000
C           0.89469150       -0.00000000       -0.00000000
H          -1.44190281        0.91493932        0.27818944
H          -1.44190281       -0.91493932       -0.27818944
H           1.44190284        0.91493930       -0.27818942
H           1.44190284       -0.91493930        0.27818942
6
MD Time 310.00
C          -0.88693133       -0.00000000        0.00000000
C           0.88693132       -0.00000000       -0.00000000
H          -1.43255217        0.91656629        0.27173891
H          -1.43255217       -0.91656629       -0.27173891
H           1.43255220        0.91656627       -0.27173889
H           1.43255220       -0.91656627        0.27173889
6
MD Time 320.00
C          -0.87885883       -0.00000000        0.00000000
C           0.87885882       -0.00000000       -0.00000000
H          -1.42300908        0.91812729        0.26498739
H          -1.42300908       -0.91812729       -0.26498739
H           1.42300911        0.91812728       -0.26498737
H           1.42300911       -0.91812727        0.26498737
6
MD Time 330.00
C          -0.87046876       -0.00000000        0.00000000
C           0.87046875       -0.00000000       -0.00000000
H          -1.41329391        0.91963463        0.25793573
H          -1.41329391       -0.91963463       -0.25793573
H           1.41329393        0.91963462       -0.25793571
H           1.41329393       -0.91963462        0.25793571
6
MD Time 340.00
C          -0.86175636       -0.00000000        0.00000000
C           0.86175636       -0.00000000       -0.00000000
H          -1.40342702        0.92110067        0.25058484
H          -1.40342702       -0.92110067       -0.25058484
H           1.40342705        0.92110065       -0.25058482
H           1.40342705       -0.92110065        0.25058482
6
MD Time 350.00
C          -0.85271756       -0.00000000        0.00000000
C           0.85271756       -0.00000000       -0.00000000
H          -1.39342853        0.92253726        0.24293570
H          -1.39342854       -0.92253726       -0.24293570
H           1.39342856        0.92253725       -0.24293568
H           1.39342856       -0.92253725        0.24293568
6
MD Time 360.00
C          -0.84334917       -0.00000000        0.00000000
C           0.84334916       -0.00000000       -0.00000000
H          -1.38331802        0.92395528        0.23498924
H          -1.38331802       -0.92395528       -0.23498925
H           1.38331804        0.92395526       -0.23498922
H           1.38331804       -0.92395526        0.23498922
6
MD Time 370.00
C          -0.83364910       -0.00000000        0.00000000
C           0.83364910       -0.00000000       -0.00000000
H          -1.37311426        0.92536404        0.22674638
H          -1.37311426       -0.92536404       -0.22674638
H           1.37311428        0.92536402       -0.22674636
H           1.37311428       -0.92536402        0.22674636
6
MD Time 380.00
C          -0.82361665       -0.00000000        0.00000000
C           0.82361665       -0.00000000       -0.00000000
H          -1.36283501        0.92677083        0.21820800
H          -1.36283501       -0.92677083       -0.21820800
H           1.36283503        0.92677082       -0.21820798
H           1.36283503       -0.92677082        0.21820798
6
MD Time 390.00
C          -0.81325279       -0.00000000        0.00000000
C           0.81325278       -0.00000000       -0.00000000
H          -1.35249677        0.92818045        0.20937505
H          -1.35249677       -0.92818045       -0.20937505
H           1.35249679        0.92818044       -0.20937503
H           1.35249679       -0.92818044        0.20937503
6
MD Time 400.00
C          -0.80256047       -0.00000000        0.00000000
C           0.80256047       -0.00000000       -0.00000000
H          -1.34211461        0.92959478        0.20024858
H          -1.34211461       -0.92959478       -0.20024858
H           1.34211462        0.92959477       -0.20024855
H           1.34211462       -0.92959477        0.20024855
6
MD Time 410.00
C          -0.79154507       -0.00000000        0.00000000
C           0.79154506       -0.00000000       -0.00000000
H          -1.33170201        0.93101245        0.19082994
H          -1.33170202       -0.93101245       -0.19082993
H           1.33170203        0.93101244       -0.19082991
H           1.33170203       -0.93101244        0.19082991
6
MD Time 420.00
C          -0.78021472       -0.00000000        0.00000000
C           0.78021472       -0.00000000       -0.00000000
H          -1.32127081        0.93242861        0.18112092
H          -1.32127081       -0.93242861       -0.18112092
H           1.32127082        0.93242861       -0.18112090
H           1.32127083       -0.93242861        0.18112090
6
MD Time 430.00
C          -0.76858090       -0.00000000        0.00000000
C           0.76858089       -0.00000000       -0.00000000
H          -1.31083110        0.93383480        0.17112400
H          -1.31083110       -0.93383480       -0.17112400
H           1.31083111        0.93383480       -0.17112397
H           1.31083111       -0.93383480        0.17112397
6
MD Time 440.00
C          -0.75665888       -0.00000000        0.00000000
C           0.75665888       -0.00000000       -0.00000000
H          -1.30039128        0.93521887        0.16084254
H          -1.30039128       -0.93521887       -0.16084254
H           1.30039129        0.93521886       -0.16084252
H           1.30039129       -0.93521886        0.16084252
6
MD Time 450.00
C          -0.74446843       -0.00000000        0.00000000
C           0.74446843       -0.00000000       -0.00000000
H          -1.28995814        0.93656511        0.15028111
H          -1.28995814       -0.93656511       -0.15028111
H           1.28995815        0.93656511       -0.15028109
H           1.28995815       -0.93656511        0.15028109
6
MD Time 460.00
C          -0.73203440       -0.00000000        0.00000000
C           0.73203440       -0.00000000       -0.00000000
H          -1.27953699        0.93785448        0.13944577
H          -1.27953699       -0.93785448       -0.13944577
H           1.27953700        0.93785449       -0.13944575
H           1.27953700       -0.93785449        0.13944575
6
MD Time 470.00
C          -0.71938758       -0.00000000        0.00000000
C           0.71938758       -0.00000000       -0.00000000
H          -1.26913191        0.93906496        0.12834432
H          -1.26913191       -0.93906495       -0.12834432
H           1.26913191        0.93906496       -0.12834430
H           1.26913191       -0.93906496        0.12834430
6
MD Time 480.00
C          -0.70656545       -0.00000000        0.00000000
C           0.70656545        0.00000000       -0.00000000
H          -1.25874602        0.94017196        0.11698664
H          -1.25874602       -0.94017196       -0.11698664
H           1.25874602        0.94017196       -0.11698662
H           1.25874602       -0.94017196        0.11698662
6
MD Time 490.00
C          -0.69361310       -0.00000000        0.00000000
C           0.69361310        0.00000000       -0.00000000
H          -1.24838188        0.94114900        0.10538497
H          -1.24838188       -0.94114900       -0.10538497
H           1.24838187        0.94114901       -0.10538495
H           1.24838187       -0.94114901        0.10538495
6
MD Time 500.00
C          -0.68058418       -0.00000000        0.00000000
C           0.68058418        0.00000000       -0.00000000
H          -1.23804190        0.94196835        0.09355408
H          -1.23804190       -0.94196835       -0.09355408
H           1.23804190        0.94196836       -0.09355406
H           1.23804190       -0.94196836        0.09355406
6
MD Time 510.00
C          -0.66754180       -0.00000000        0.00000000
C           0.66754181        0.00000000       -0.00000000
H          -1.22772892        0.94260183        0.08151158
H          -1.22772892       -0.94260183       -0.08151158
H           1.22772891        0.94260185       -0.08151156
H           1.22772891       -0.94260185        0.08151156
6
MD Time 520.00
C          -0.65455947       -0.00000000        0.00000000
C           0.65455948        0.00000000       -0.00000000
H          -1.21744672        0.94302170        0.06927796
H          -1.21744672       -0.94302170       -0.06927796
H           1.21744670        0.94302172       -0.06927794
H           1.21744670       -0.94302172        0.06927794
6
MD Time 530.00
C          -0.64172185       -0.00000000        0.00000000
C           0.64172185        0.00000000       -0.00000000
H          -1.20720074        0.94320158        0.05687676
H          -1.20720074       -0.94320158       -0.05687676
H           1.20720072        0.94320159       -0.05687674
H           1.20720072       -0.94320159        0.05687674
6
MD Time 540.00
C          -0.62912528       -0.00000000        0.00000000
C           0.62912528        0.00000000       -0.00000000
H          -1.19699876        0.94311746        0.04433452
H          -1.19699876       -0.94311746       -0.04433452
H           1.19699875        0.94311747       -0.04433450
H           1.19699875       -0.94311747        0.04433450
6
MD Time 550.00
C          -0.61687802       -0.00000000        0.00000000
C           0.61687802        0.00000000       -0.00000000
H          -1.18685170        0.94274873        0.03168073
H          -1.18685170       -0.94274873       -0.03168073
H           1.18685168        0.94274875       -0.03168071
H           1.18685168       -0.94274875        0.03168071
6
MD Time 560.00
C          -0.60509984       -0.00000000        0.00000000
C           0.60509985        0.00000000       -0.00000000
H          -1.17677433        0.94207926        0.01894767
H          -1.17677433       -0.94207926       -0.01894767
H           1.17677431        0.94207928       -0.01894765
H           1.17677431       -0.94207928        0.01894765
6
MD Time 570.00
C          -0.59392099       -0.00000000        0.00000000
C           0.59392099        0.00000000       -0.00000000
H          -1.16678618        0.94109848        0.00617013
H          -1.16678618       -0.94109848       -0.00617013
H           1.16678615        0.94109850       -0.00617011
H           1.16678615       -0.94109850        0.00617011
6
MD Time 580.00
C          -0.58348017       -0.00000000        0.00000000
C           0.58348017        0.00000000       -0.00000000
H          -1.15691223        0.93980244       -0.00661491
H          -1.15691223       -0.93980244        0.00661491
H           1.15691220        0.93980246        0.00661493
H           1.15691220       -0.93980246       -0.00661493
6
MD Time 590.00
C          -0.57392151       -0.00000000        0.00000000
C           0.57392152        0.00000000       -0.00000000
H          -1.14718372        0.93819492       -0.01936876
H          -1.14718373       -0.93819492        0.01936876
H           1.14718370        0.93819494        0.01936878
H           1.14718370       -0.93819494       -0.01936878
6
MD Time 600.00
C          -0.56539035       -0.00000000        0.00000000
C           0.56539036        0.00000000       -0.00000000
H          -1.13763882        0.93628847       -0.03205152
H          -1.13763882       -0.93628847        0.03205152
H           1.13763879        0.93628850        0.03205154
H           1.13763879       -0.93628850       -0.03205154
6
MD Time 610.00
C          -0.55802783       -0.00000000        0.00000000
C           0.55802784        0.00000000       -0.00000000
H          -1.12832309        0.93410539       -0.04462272
H          -1.12832309       -0.93410539        0.04462273
H           1.12832306        0.93410541        0.04462274
H           1.12832306       -0.93410541       -0.04462275
6
MD Time 620.00
C          -0.55196466       -0.00000000        0.00000000
C           0.55196467        0.00000000       -0.00000000
H          -1.11928997        0.93167860       -0.05704201
H          -1.11928997       -0.93167860        0.05704201
H           1.11928994        0.93167862        0.05704203
H           1.11928994       -0.93167862       -0.05704203
6
MD Time 630.00
C          -0.54731433       -0.00000000        0.00000000
C           0.54731434        0.00000000       -0.00000000
H          -1.11060084        0.92905242       -0.06926986
H          -1.11060084       -0.92905242        0.06926987
H           1.11060080        0.92905245        0.06926988
H           1.11060081       -0.92905245       -0.06926989
6
MD Time 640.00
C          -0.54416641       -0.00000000        0.00000000
C           0.54416642        0.00000000       -0.00000000
H          -1.10232495        0.92628304       -0.08126842
H          -1.10232495       -0.92628304        0.08126843
H           1.10232492        0.92628306        0.08126844
H           1.10232492       -0.92628306       -0.08126845
6
MD Time 650.00
C          -0.54258073       -0.00000000        0.00000000
C           0.54258073        0.00000000       -0.00000000
H          -1.09453899        0.92343867       -0.09300226
H          -1.09453899       -0.92343867        0.09300226
H           1.09453895        0.92343869        0.09300228
H           1.09453895       -0.92343869       -0.09300229
6
MD Time 660.00
C          -0.54258310       -0.00000000        0.00000000
C           0.54258311        0.00000000       -0.00000000
H          -1.08732623        0.92059923       -0.10443918
H          -1.08732623       -0.92059923        0.10443919
H           1.08732620        0.92059925        0.10443921
H           1.08732620       -0.92059925       -0.10443921
6
MD Time 670.00
C          -0.54416327       -0.00000000        0.00000000
C           0.54416328        0.00000000       -0.00000000
H          -1.08077533        0.91785549       -0.11555096
H          -1.08077533       -0.91785549        0.11555096
H           1.08077529        0.91785552        0.11555098
H           1.08077529       -0.91785552       -0.11555098
6
MD Time 680.00
C          -0.54727532       -0.00000000        0.00000000
C           0.54727533        0.00000000       -0.00000000
H          -1.07497854        0.91530741       -0.12631392
H          -1.07497854       -0.91530741        0.12631392
H           1.07497850        0.91530744        0.12631394
H           1.07497850       -0.91530743       -0.12631395
6
MD Time 690.00
C          -0.55184057       -0.00000000        0.00000000
C           0.55184058        0.00000000       -0.00000000
H          -1.07002959        0.91306169       -0.13670943
H          -1.07002959       -0.91306169        0.13670943
H           1.07002955        0.91306171        0.13670945
H           1.07002956       -0.91306171       -0.13670945
6
MD Time 700.00
C          -0.55775258       -0.00000000        0.00000000
C           0.55775258        0.00000000       -0.00000000
H          -1.06602102        0.91122845       -0.14672403
H          -1.06602102       -0.91122845        0.14672403
H           1.06602098        0.91122847        0.14672405
H           1.06602098       -0.91122847       -0.14672405
6
MD Time 710.00
C          -0.56488349       -0.00000000        0.00000000
C           0.56488350        0.00000000       -0.00000000
H          -1.06304119        0.90991706       -0.15634933
H          -1.06304118       -0.90991706        0.15634933
H           1.06304115        0.90991708        0.15634935
H           1.06304115       -0.90991708       -0.15634935
6
MD Time 720.00
C          -0.57309120       -0.00000000        0.00000000
C           0.57309120        0.00000000       -0.00000000
H          -1.06117110        0.90923130       -0.16558151
H          -1.06117110       -0.90923130        0.16558152
H           1.06117107        0.90923132        0.16558154
H           1.06117107       -0.90923132       -0.16558154
6
MD Time 730.00
C          -0.58222626       -0.00000000        0.00000000
C           0.58222626        0.00000000       -0.00000000
H          -1.06048123        0.90926408       -0.17442051
H          -1.06048123       -0.90926408        0.17442051
H           1.06048120        0.90926410        0.17442053
H           1.06048120       -0.90926410       -0.17442054
6
MD Time 740.00
C          -0.59213829       -0.00000000        0.00000000
C           0.59213829        0.00000000       -0.00000000
H          -1.06102856        0.91009210       -0.18286880
H          -1.06102856       -0.91009210        0.18286881
H           1.06102853        0.91009212        0.18286883
H           1.06102853       -0.91009212       -0.18286883
6
MD Time 750.00
C          -0.60268126       -0.00000000        0.00000000
C           0.60268126        0.00000000       -0.00000000
H          -1.06285416        0.91177092       -0.19093010
H          -1.06285416       -0.91177092        0.19093010
H           1.06285413        0.91177094        0.19093013
H           1.06285413       -0.91177094       -0.19093013
6
MD Time 760.00
C          -0.61371752       -0.00000000        0.00000000
C           0.61371752        0.00000000       -0.00000000
H          -1.06598143        0.91433088       -0.19860783
H          -1.06598143       -0.91433088        0.19860783
H           1.06598140        0.91433089        0.19860786
H           1.06598140       -0.91433089       -0.19860786
6
MD Time 770.00
C          -0.62512059       -0.00000000        0.00000000
C           0.62512059        0.00000000       -0.00000000
H          -1.07041519        0.91777422       -0.20590379
H          -1.07041519       -0.91777422        0.20590379
H           1.07041516        0.91777423        0.20590382
H           1.07041516       -0.91777423       -0.20590382
6
MD Time 780.00
C          -0.63677679       -0.00000000        0.00000000
C           0.63677679        0.00000000       -0.00000000
H          -1.07614168        0.92207388       -0.21281697
H          -1.07614168       -0.92207388        0.21281698
H           1.07614166        0.92207389        0.21281701
H           1.07614166       -0.92207389       -0.21281701
6
MD Time 790.00
C          -0.64858590       -0.00000000        0.00000000
C           0.64858591        0.00000000       -0.00000000
H          -1.08312941        0.92717376       -0.21934278
H          -1.08312941       -0.92717376        0.21934278
H           1.08312939        0.92717377        0.21934282
H           1.08312939       -0.92717377       -0.21934282
6
MD Time 800.00
C          -0.66046108       -0.00000000        0.00000000
C           0.66046108        0.00000000       -0.00000000
H          -1.09133070        0.93299078       -0.22547260
H          -1.09133070       -0.93299078        0.22547260
H           1.09133068        0.93299078        0.22547263
H           1.09133068       -0.93299078       -0.22547264
6
MD Time 810.00
C          -0.67232815       -0.00000000        0.00000000
C           0.67232816        0.00000000       -0.00000000
H          -1.10068380        0.93941814       -0.23119385
H          -1.10068380       -0.93941814        0.23119386
H           1.10068378        0.93941814        0.23119389
H           1.10068378       -0.93941814       -0.23119389
6
MD Time 820.00
C          -0.68412471       -0.00000000        0.00000000
C           0.68412471        0.00000000       -0.00000000
H          -1.11111532        0.94632971       -0.23649042
H          -1.11111531       -0.94632971        0.23649042
H           1.11111530        0.94632971        0.23649045
H           1.11111530       -0.94632971       -0.23649046
6
MD Time 830.00
C          -0.69579885       -0.00000000        0.00000000
C           0.69579885        0.00000000       -0.00000000
H          -1.12254274        0.95358494       -0.24134332
H          -1.12254274       -0.95358494        0.24134332
H           1.12254272        0.95358494        0.24134336
H           1.12254272       -0.95358494       -0.24134336
6
MD Time 840.00
C          -0.70730793       -0.00000000        0.00000000
C           0.70730793        0.00000000       -0.00000000
H          -1.13487698        0.96103401       -0.24573165
H          -1.13487698       -0.96103401        0.24573166
H           1.13487696        0.96103401        0.24573170
H           1.13487696       -0.96103401       -0.24573170
6
MD Time 850.00
C          -0.71861736       -0.00000000        0.00000000
C           0.71861736        0.00000000       -0.00000000
H          -1.14802464        0.96852277       -0.24963357
H          -1.14802464       -0.96852277        0.24963358
H           1.14802463        0.96852276        0.24963362
H           1.14802463       -0.96852276       -0.24963362
6
MD Time 860.00
C          -0.72969938       -0.00000000        0.00000000
C           0.72969938        0.00000000       -0.00000000
H          -1.16189010        0.97589730       -0.25302726
H          -1.16189010       -0.97589731        0.25302727
H           1.16189009        0.97589730        0.25302731
H           1.16189009       -0.97589730       -0.25302731
6
MD Time 870.00
C          -0.74053206       -0.00000000        0.00000000
C           0.74053206        0.00000000       -0.00000000
H          -1.17637722        0.98300785       -0.25589186
H          -1.17637722       -0.98300785        0.25589186
H           1.17637721        0.98300784        0.25589191
H           1.17637721       -0.98300784       -0.25589191
6
MD Time 880.00
C          -0.75109829       -0.00000000        0.00000000
C           0.75109829        0.00000000       -0.00000000
H          -1.19139078        0.98971201       -0.25820822
H          -1.19139078       -0.98971202        0.25820822
H           1.19139077        0.98971200        0.25820826
H           1.19139077       -0.98971200       -0.25820827
6
MD Time 890.00
C          -0.76138502       -0.00000000        0.00000000
C           0.76138502        0.00000000       -0.00000000
H          -1.20683758        0.99587732       -0.25995955
H          -1.20683758       -0.99587732        0.25995956
H           1.20683757        0.99587731        0.25995960
H           1.20683757       -0.99587731       -0.25995961
6
MD Time 900.00
C          -0.77138249       -0.00000000        0.00000000
C           0.77138249        0.00000000       -0.00000000
H          -1.22262731        1.00138309       -0.26113193
H          -1.22262730       -1.00138309        0.26113194
H           1.22262730        1.00138308        0.26113198
H           1.22262731       -1.00138308       -0.26113199
6
MD Time 910.00
C          -0.78108368       -0.00000000        0.00000000
C           0.78108368        0.00000000       -0.00000000
H          -1.23867316        1.00612177       -0.26171459
H          -1.23867316       -1.00612177        0.26171460
H           1.23867316        1.00612175        0.26171464
H           1.23867316       -1.00612175       -0.26171465
6
MD Time 920.00
C          -0.79048376       -0.00000000        0.00000000
C           0.79048376        0.00000000       -0.00000000
H          -1.25489229        1.00999976       -0.26170018
H          -1.25489229       -1.00999977        0.26170018
H           1.25489229        1.00999975        0.26170023
H           1.25489229       -1.00999975       -0.26170023
6
MD Time 930.00
C          -0.79957967       -0.00000000        0.00000000
C           0.79957967        0.00000000       -0.00000000
H          -1.27120611        1.01293795       -0.26108486
H          -1.27120611       -1.01293796        0.26108486
H           1.27120612        1.01293793        0.26108491
H           1.27120612       -1.01293793       -0.26108491
6
MD Time 940.00
C          -0.80836974       -0.00000000        0.00000000
C           0.80836974        0.00000000       -0.00000000
H          -1.28754052        1.01487189       -0.25986835
H          -1.28754052       -1.01487190        0.25986836
H           1.28754053        1.01487187        0.25986841
H           1.28754053       -1.01487187       -0.25986841
6
MD Time 950.00
C          -0.81685338       -0.00000000        0.00000000
C           0.81685337        0.00000000       -0.00000000
H          -1.30382605        1.01575187       -0.25805394
H          -1.30382604       -1.01575188        0.25805395
H           1.30382606        1.01575185        0.25805400
H           1.30382606       -1.01575185       -0.25805400
6
MD Time 960.00
C          -0.82503077       -0.00000000        0.00000000
C           0.82503077        0.00000000       -0.00000000
H          -1.31999793        1.01554285       -0.25564839
H          -1.31999793       -1.01554285        0.25564839
H           1.31999794        1.01554283        0.25564844
H           1.31999794       -1.01554283       -0.25564845
6
MD Time 970.00
C          -0.83290267       -0.00000000        0.00000000
C           0.83290267        0.00000000       -0.00000000
H          -1.33599625        1.01422432       -0.25266184
H          -1.33599625       -1.01422432        0.25266185
H           1.33599627        1.01422430        0.25266190
H           1.33599627       -1.01422430       -0.25266191
6
MD Time 980.00
C          -0.84047017       -0.00000000        0.00000000
C           0.84047017        0.00000000       -0.00000000
H          -1.35176603        1.01179022       -0.24910779
H          -1.35176603       -1.01179022        0.24910779
H           1.35176605        1.01179019        0.24910784
H           1.35176605       -1.01179019       -0.24910785
6
MD Time 990.00
C          -0.84773452       -0.00000000        0.00000000
C           0.84773452        0.00000000       -0.00000000
H          -1.36725732        1.00824877       -0.24500286
H          -1.36725732       -1.00824877        0.24500287
H           1.36725734        1.00824875        0.24500292
H           1.36725734       -1.00824875       -0.24500292
6
MD Time 1000.00
C          -0.85469695       -0.00000000        0.00000000
C           0.85469694        0.00000000       -0.00000000
H          -1.38242538        1.00362243       -0.24036678
H          -1.38242538       -1.00362243        0.24036679
H           1.38242540        1.00362240        0.24036683
H           1.38242540       -1.00362240       -0.24036684
6
MD Time 1010.00
C          -0.86135848       -0.00000000        0.00000000
C           0.86135848        0.00000000       -0.00000000
H          -1.39723084        0.99794778       -0.23522217
H          -1.39723084       -0.99794779        0.23522218
H           1.39723086        0.99794776        0.23522223
H           1.39723086       -0.99794776       -0.23522224
6
MD Time 1020.00
C          -0.86771985       -0.00000000        0.00000000
C           0.86771985        0.00000000       -0.00000000
H          -1.41163988        0.99127552       -0.22959444
H          -1.41163988       -0.99127552        0.22959445
H           1.41163991        0.99127549        0.22959449
H           1.41163991       -0.99127549       -0.22959450
6
MD Time 1030.00
C          -0.87378131       -0.00000000        0.00000000
C           0.87378131        0.00000000       -0.00000000
H          -1.42562451        0.98367034       -0.22351154
H          -1.42562451       -0.98367034        0.22351155
H           1.42562453        0.98367031        0.22351160
H           1.42562453       -0.98367031       -0.22351160
6
MD Time 1040.00
C          -0.87954255       -0.00000000        0.00000000
C           0.87954254        0.00000000       -0.00000000
H          -1.43916272        0.97521081       -0.21700381
H          -1.43916272       -0.97521081        0.21700382
H           1.43916275        0.97521079        0.21700387
H           1.43916275       -0.97521078       -0.21700387
6
MD Time 1050.00
C          -0.88500256       -0.00000000        0.00000000
C           0.88500256        0.00000000       -0.00000000
H          -1.45223877        0.96598919       -0.21010367
H          -1.45223877       -0.96598919        0.21010368
H           1.45223880        0.96598916        0.21010372
H           1.45223880       -0.96598916       -0.21010373
6
MD Time 1060.00
C          -0.89015960       -0.00000000        0.00000000
C           0.89015959        0.00000000       -0.00000000
H          -1.46484328        0.95611097       -0.20284529
H          -1.46484328       -0.95611097        0.20284530
H           1.46484330        0.95611095        0.20284535
H           1.46484330       -0.95611094       -0.20284535
6
MD Time 1070.00
C          -0.89501105       -0.00000000        0.00000000
C           0.89501105        0.00000000       -0.00000000
H          -1.47697334        0.94569431       -0.19526424
H          -1.47697334       -0.94569431        0.19526425
H           1.47697337        0.94569428        0.19526430
H           1.47697337       -0.94569428       -0.19526430
6
MD Time 1080.00
C          -0.89955349       -0.00000000        0.00000000
C           0.89955348        0.00000000       -0.00000000
H          -1.48863246        0.93486908       -0.18739697
H          -1.48863245       -0.93486909        0.18739699
H           1.48863248        0.93486906        0.18739703
H           1.48863248       -0.93486906       -0.18739704
6
MD Time 1090.00
C          -0.90378261       -0.00000000        0.00000000
C           0.90378261        0.00000000       -0.00000000
H          -1.49983029        0.92377561       -0.17928030
H          -1.49983028       -0.92377561        0.17928031
H           1.49983032        0.92377559        0.17928035
H           1.49983032       -0.92377559       -0.17928036
6
MD Time 1100.00
C          -0.90769335       -0.00000000        0.00000000
C           0.90769334        0.00000000       -0.00000000
H          -1.51058216        0.91256294       -0.17095076
H          -1.51058216       -0.91256294        0.17095077
H           1.51058219        0.91256291        0.17095081
H           1.51058219       -0.91256291       -0.17095082
6
MD Time 1110.00
C          -0.91127995       -0.00000000        0.00000000
C           0.91127995        0.00000000       -0.00000000
H          -1.52090831        0.90138662       -0.16244390
H          -1.52090831       -0.90138662        0.16244391
H           1.52090834        0.90138660        0.16244395
H           1.52090834       -0.90138659       -0.16244396
6
MD Time 1120.00
C          -0.91453619       -0.00000000        0.00000000
C           0.91453619        0.00000000       -0.00000000
H          -1.53083276        0.89040604       -0.15379357
H          -1.53083276       -0.89040604        0.15379359
H           1.53083279        0.89040601        0.15379362
H           1.53083279       -0.89040601       -0.15379363
6
MD Time 1130.00
C          -0.91745557       -0.00000000        0.00000000
C           0.91745556        0.00000000       -0.00000000
H          -1.54038185        0.87978120       -0.14503115
H          -1.54038185       -0.87978120        0.14503116
H           1.54038188        0.87978118        0.14503119
H           1.54038188       -0.87978118       -0.14503121
6
MD Time 1140.00
C          -0.92003164       -0.00000000        0.00000000
C           0.92003164        0.00000000       -0.00000000
H          -1.54958246        0.86966916       -0.13618478
H          -1.54958246       -0.86966916        0.13618479
H           1.54958249        0.86966914        0.13618483
H           1.54958249       -0.86966914       -0.13618484
6
MD Time 1150.00
C          -0.92225837       -0.00000000        0.00000000
C           0.92225837        0.00000000       -0.00000000
H          -1.55845993        0.86022012       -0.12727878
H          -1.55845993       -0.86022012        0.12727879
H           1.55845996        0.86022009        0.12727882
H           1.55845996       -0.86022009       -0.12727884
6
MD Time 1160.00
C          -0.92413052       -0.00000000        0.00000000
C           0.92413051        0.00000000       -0.00000000
H          -1.56703576        0.85157339       -0.11833307
H          -1.56703576       -0.85157339        0.11833309
H           1.56703579        0.85157337        0.11833312
H           1.56703579       -0.85157336       -0.11833313
6
MD Time 1170.00
C          -0.92564401       -0.00000000        0.00000000
C           0.92564401        0.00000000       -0.00000000
H          -1.57532526        0.84385350       -0.10936288
H          -1.57532525       -0.84385350        0.10936290
H           1.57532528        0.84385348        0.10936293
H           1.57532528       -0.84385348       -0.10936294
6
MD Time 1180.00
C          -0.92679638       -0.00000000        0.00000000
C           0.92679638        0.00000000       -0.00000000
H          -1.58333533        0.83716659       -0.10037863
H          -1.58333533       -0.83716659        0.10037865
H           1.58333535        0.83716657        0.10037867
H           1.58333535       -0.83716657       -0.10037868
6
MD Time 1190.00
C          -0.92758705       -0.00000000        0.00000000
C           0.92758704        0.00000000       -0.00000000
H          -1.59106254        0.83159736       -0.09138605
H          -1.59106254       -0.83159736        0.09138607
H           1.59106257        0.83159735        0.09138609
H           1.59106257       -0.83159734       -0.09138611
6
MD Time 1200.00
C          -0.92801758       -0.00000000        0.00000000
C           0.92801758        0.00000000       -0.00000000
H          -1.59849167        0.82720686       -0.08238665
H          -1.59849167       -0.82720686        0.08238667
H           1.59849170        0.82720684        0.08238669
H           1.59849170       -0.82720684       -0.08238670
6
MD Time 1210.00
C          -0.92809185       -0.00000000        0.00000000
C           0.92809185        0.00000000       -0.00000000
H          -1.60559487        0.82403112       -0.07337828
H          -1.60559487       -0.82403112        0.07337830
H           1.60559489        0.82403110        0.07337832
H           1.60559489       -0.82403110       -0.07337834
6
MD Time 1220.00
C          -0.92781604       -0.00000000        0.00000000
C           0.92781603        0.00000000       -0.00000000
H          -1.61233155        0.82208087       -0.06435601
H          -1.61233155       -0.82208087        0.06435603
H           1.61233157        0.82208085        0.06435604
H           1.61233157       -0.82208085       -0.06435606
6
MD Time 1230.00
C          -0.92719851       -0.00000000        0.00000000
C           0.92719851        0.00000000       -0.00000000
H          -1.61864905        0.82134217       -0.05531302
H          -1.61864905       -0.82134217        0.05531304
H           1.61864907        0.82134216        0.05531306
H           1.61864907       -0.82134216       -0.05531307
6
MD Time 1240.00
C          -0.92624962       -0.00000000        0.00000000
C           0.92624962        0.00000000       -0.00000000
H          -1.62448392        0.82177803       -0.04624163
H          -1.62448392       -0.82177803        0.04624165
H           1.62448394        0.82177802        0.04624166
H           1.62448394       -0.82177802       -0.04624168
6
MD Time 1250.00
C          -0.92498135       -0.00000000        0.00000000
C           0.92498135        0.00000000       -0.00000000
H          -1.62976386        0.82333064       -0.03713423
H          -1.62976386       -0.82333064        0.03713425
H           1.62976387        0.82333063        0.03713426
H           1.62976387       -0.82333063       -0.03713428
6
MD Time 1260.00
C          -0.92340695       -0.00000000        0.00000000
C           0.92340694        0.00000000       -0.00000000
H          -1.63440998        0.82592424       -0.02798416
H          -1.63440998       -0.82592424        0.02798418
H           1.63440999        0.82592423        0.02798419
H           1.63440999       -0.82592423       -0.02798421
6
MD Time 1270.00
C          -0.92154045       -0.00000000        0.00000000
C           0.92154045        0.00000000       -0.00000000
H          -1.63833939        0.82946825       -0.01878647
H          -1.63833939       -0.82946825        0.01878649
H           1.63833940        0.82946824        0.01878650
H           1.63833940       -0.82946824       -0.01878652
6
MD Time 1280.00
C          -0.91939626       -0.00000000        0.00000000
C           0.91939626        0.00000000       -0.00000000
H          -1.64146775        0.83386054       -0.00953847
H          -1.64146775       -0.83386054        0.00953849
H           1.64146775        0.83386054        0.00953849
H           1.64146775       -0.83386053       -0.00953851
6
MD Time 1290.00
C          -0.91698874       -0.00000000        0.00000000
C           0.91698874        0.00000000       -0.00000000
H          -1.64371175        0.83899064       -0.00024015
H          -1.64371175       -0.83899064        0.00024017
H           1.64371176        0.83899064        0.00024017
H           1.64371176       -0.83899063       -0.00024019
6
MD Time 1300.00
C          -0.91433177       -0.00000000        0.00000000
C           0.91433177        0.00000000       -0.00000000
H          -1.64499141        0.84474274        0.00910560
H          -1.64499141       -0.84474274       -0.00910557
H           1.64499141        0.84474274       -0.00910558
H           1.64499141       -0.84474273        0.00910556
6
MD Time 1310.00
C          -0.91143846       -0.00000000        0.00000000
C           0.91143846        0.00000000       -0.00000000
H          -1.64523194        0.85099840        0.01849289
H          -1.64523194       -0.85099840       -0.01849286
H           1.64523194        0.85099840       -0.01849287
H           1.64523194       -0.85099840        0.01849285
6
MD Time 1320.00
C          -0.90832088       -0.00000000        0.00000000
C           0.90832088        0.00000000       -0.00000000
H          -1.64436542        0.85763899        0.02791289
H          -1.64436542       -0.85763899       -0.02791287
H           1.64436541        0.85763899       -0.02791287
H           1.64436542       -0.85763899        0.02791285
6
MD Time 1330.00
C          -0.90498980       -0.00000000        0.00000000
C           0.90498980        0.00000000       -0.00000000
H          -1.64233200        0.86454767        0.03735399
H          -1.64233201       -0.86454767       -0.03735397
H           1.64233200        0.86454767       -0.03735397
H           1.64233200       -0.86454767        0.03735395
6
MD Time 1340.00
C          -0.90145459       -0.00000000        0.00000000
C           0.90145459        0.00000000       -0.00000000
H          -1.63908086        0.87161113        0.04680199
H          -1.63908086       -0.87161113       -0.04680197
H           1.63908085        0.87161113       -0.04680198
H           1.63908085       -0.87161113        0.04680196
6
MD Time 1350.00
C          -0.89772309       -0.00000000        0.00000000
C           0.89772309        0.00000000       -0.00000000
H          -1.63457080        0.87872099        0.05624042
H          -1.63457081       -0.87872099       -0.05624039
H           1.63457079        0.87872100       -0.05624041
H           1.63457080       -0.87872099        0.05624038
6
MD Time 1360.00
C          -0.89380157       -0.00000000        0.00000000
C           0.89380157        0.00000000       -0.00000000
H          -1.62877069        0.88577491        0.06565078
H          -1.62877069       -0.88577491       -0.06565076
H           1.62877068        0.88577492       -0.06565078
H           1.62877068       -0.88577492        0.06565075
6
MD Time 1370.00
C          -0.88969469       -0.00000000        0.00000000
C           0.88969469        0.00000000       -0.00000000
H          -1.62165963        0.89267750        0.07501296
H          -1.62165963       -0.89267751       -0.07501294
H           1.62165961        0.89267752       -0.07501295
H           1.62165961       -0.89267751        0.07501293
6
MD Time 1380.00
C          -0.88540550       -0.00000000        0.00000000
C           0.88540551        0.00000000       -0.00000000
H          -1.61322703        0.89934107        0.08430548
H          -1.61322703       -0.89934107       -0.08430545
H           1.61322701        0.89934108       -0.08430547
H           1.61322702       -0.89934108        0.08430545
6
MD Time 1390.00
C          -0.88093552       -0.00000000        0.00000000
C           0.88093552        0.00000000       -0.00000000
H          -1.60347261        0.90568618        0.09350587
H          -1.60347262       -0.90568618       -0.09350584
H           1.60347259        0.90568619       -0.09350586
H           1.60347260       -0.90568619        0.09350584
6
MD Time 1400.00
C          -0.87628472       -0.00000000        0.00000000
C           0.87628472        0.00000000       -0.00000000
H          -1.59240627        0.91164218        0.10259097
H          -1.59240627       -0.91164218       -0.10259095
H           1.59240624        0.91164220       -0.10259097
H           1.59240625       -0.91164220        0.10259095
6
MD Time 1410.00
C          -0.87145161       -0.00000000        0.00000000
C           0.87145161        0.00000000       -0.00000000
H          -1.58004795        0.91714766        0.11153728
H          -1.58004795       -0.91714766       -0.11153726
H           1.58004793        0.91714768       -0.11153728
H           1.58004793       -0.91714767        0.11153726
6
MD Time 1420.00
C          -0.86643330       -0.00000000        0.00000000
C           0.86643330        0.00000000       -0.00000000
H          -1.56642755        0.92215080        0.12032122
H          -1.56642755       -0.92215080       -0.12032120
H           1.56642752        0.92215082       -0.12032123
H           1.56642753       -0.92215082        0.12032120
6
MD Time 1430.00
C          -0.86122556       -0.00000000        0.00000000
C           0.86122557        0.00000000       -0.00000000
H          -1.55158471        0.92660983        0.12891948
H          -1.55158472       -0.92660983       -0.12891945
H           1.55158469        0.92660985       -0.12891948
H           1.55158469       -0.92660985        0.12891946
6
MD Time 1440.00
C          -0.85582293       -0.00000000        0.00000000
C           0.85582294        0.00000000       -0.00000000
H          -1.53556873        0.93049336        0.13730925
H          -1.53556873       -0.93049336       -0.13730923
H           1.53556870        0.93049338       -0.13730926
H           1.53556871       -0.93049338        0.13730924
6
MD Time 1450.00
C          -0.85021876       -0.00000000        0.00000000
C           0.85021877        0.00000000       -0.00000000
H          -1.51843837        0.93378078        0.14546861
H          -1.51843837       -0.93378078       -0.14546858
H           1.51843834        0.93378081       -0.14546862
H           1.51843834       -0.93378080        0.14546859
6
MD Time 1460.00
C          -0.84440535       -0.00000000        0.00000000
C           0.84440536        0.00000000       -0.00000000
H          -1.50026169        0.93646267        0.15337672
H          -1.50026169       -0.93646267       -0.15337669
H           1.50026166        0.93646269       -0.15337673
H           1.50026167       -0.93646269        0.15337671
6
MD Time 1470.00
C          -0.83837405       -0.00000000        0.00000000
C           0.83837405        0.00000000       -0.00000000
H          -1.48111589        0.93854109        0.16101416
H          -1.48111589       -0.93854110       -0.16101413
H           1.48111586        0.93854112       -0.16101417
H           1.48111587       -0.93854112        0.16101415
6
MD Time 1480.00
C          -0.83211538       -0.00000000        0.00000000
C           0.83211539        0.00000000       -0.00000000
H          -1.46108703        0.94002997        0.16836317
H          -1.46108703       -0.94002997       -0.16836315
H           1.46108699        0.94002999       -0.16836319
H           1.46108700       -0.94002999        0.16836317
6
MD Time 1490.00
C          -0.82561924       -0.00000000        0.00000000
C           0.82561925        0.00000000       -0.00000000
H          -1.44026969        0.94095523        0.17540793
H          -1.44026969       -0.94095524       -0.17540791
H           1.44026966        0.94095526       -0.17540795
H           1.44026966       -0.94095526        0.17540793
6
MD Time 1500.00
C          -0.81887505       -0.00000000        0.00000000
C           0.81887506        0.00000000       -0.00000000
H          -1.41876658        0.94135499        0.18213475
H          -1.41876658       -0.94135500       -0.18213473
H           1.41876654        0.94135502       -0.18213477
H           1.41876655       -0.94135502        0.18213474
6
MD Time 1510.00
C          -0.81187200       -0.00000000        0.00000000
C           0.81187201        0.00000000       -0.00000000
H          -1.39668793        0.94127940        0.18853224
H          -1.39668793       -0.94127941       -0.18853222
H           1.39668789        0.94127943       -0.18853226
H           1.39668790       -0.94127943        0.18853224
6
MD Time 1520.00
C          -0.80459934       -0.00000000        0.00000000
C           0.80459935        0.00000000       -0.00000000
H          -1.37415077        0.94079033        0.19459148
H          -1.37415078       -0.94079033       -0.19459146
H           1.37415074        0.94079036       -0.19459150
H           1.37415075       -0.94079036        0.19459148
6
MD Time 1530.00
C          -0.79704671       -0.00000000        0.00000001
C           0.79704671        0.00000000       -0.00000001
H          -1.35127804        0.93996070        0.20030601
H          -1.35127804       -0.93996071       -0.20030599
H           1.35127800        0.93996073       -0.20030603
H           1.35127801       -0.93996073        0.20030601
6
MD Time 1540.00
C          -0.78920449       -0.00000000        0.00000001
C           0.78920450        0.00000000       -0.00000001
H          -1.32819738        0.93887347        0.20567177
H          -1.32819738       -0.93887347       -0.20567175
H           1.32819735        0.93887350       -0.20567180
H           1.32819735       -0.93887349        0.20567178
6
MD Time 1550.00
C          -0.78106433       -0.00000000        0.00000001
C           0.78106433        0.00000000       -0.00000001
H          -1.30503990        0.93762010        0.21068694
H          -1.30503990       -0.93762011       -0.21068692
H           1.30503987        0.93762013       -0.21068697
H           1.30503987       -0.93762013        0.21068695
6
MD Time 1560.00
C          -0.77261955       -0.00000000        0.00000001
C           0.77261956        0.00000000       -0.00000001
H          -1.28193856        0.93629865        0.21535158
H          -1.28193857       -0.93629865       -0.21535156
H           1.28193853        0.93629867       -0.21535161
H           1.28193854       -0.93629867        0.21535159
6
MD Time 1570.00
C          -0.76386584       -0.00000000        0.00000001
C           0.76386585        0.00000000       -0.00000001
H          -1.25902653        0.93501122        0.21966717
H          -1.25902653       -0.93501123       -0.21966716
H           1.25902650        0.93501125       -0.21966720
H           1.25902650       -0.93501125        0.21966718
6
MD Time 1580.00
C          -0.75480179       -0.00000000        0.00000001
C           0.75480179        0.00000000       -0.00000001
H          -1.23643531        0.93386111        0.22363601
H          -1.23643531       -0.93386111       -0.22363599
H           1.23643528        0.93386113       -0.22363604
H           1.23643528       -0.93386113        0.22363602
6
MD Time 1590.00
C          -0.74542964       -0.00000000        0.00000001
C           0.74542964        0.00000000       -0.00000001
H          -1.21429287        0.93294941        0.22726041
H          -1.21429288       -0.93294941       -0.22726039
H           1.21429284        0.93294943       -0.22726044
H           1.21429285       -0.93294943        0.22726042
6
MD Time 1600.00
C          -0.73575598       -0.00000000        0.00000001
C           0.73575599        0.00000000       -0.00000001
H          -1.19272179        0.93237143        0.23054192
H          -1.19272179       -0.93237143       -0.23054191
H           1.19272176        0.93237145       -0.23054195
H           1.19272177       -0.93237145        0.23054194
6
MD Time 1610.00
C          -0.72579255       -0.00000000        0.00000001
C           0.72579256        0.00000000       -0.00000001
H          -1.17183746        0.93221302        0.23348039
H          -1.17183746       -0.93221302       -0.23348037
H           1.17183743        0.93221304       -0.23348042
H           1.17183744       -0.93221304        0.23348041
6
MD Time 1620.00
C          -0.71555697       -0.00000000        0.00000001
C           0.71555698        0.00000000       -0.00000001
H          -1.15174653        0.93254699        0.23607312
H          -1.15174654       -0.93254699       -0.23607310
H           1.15174650        0.93254701       -0.23607315
H           1.15174651       -0.93254700        0.23607314
6
MD Time 1630.00
C          -0.70507357       -0.00000000        0.00000001
C           0.70507357        0.00000000       -0.00000001
H          -1.13254561        0.93342992        0.23831411
H          -1.13254561       -0.93342992       -0.23831409
H           1.13254558        0.93342993       -0.23831414
H           1.13254559       -0.93342993        0.23831412
6
MD Time 1640.00
C          -0.69437415       -0.00000000        0.00000001
C           0.69437415        0.00000000       -0.00000001
H          -1.11432026        0.93489956        0.24019345
H          -1.11432026       -0.93489956       -0.24019343
H           1.11432023        0.93489957       -0.24019348
H           1.11432024       -0.93489956        0.24019347
6
MD Time 1650.00
C          -0.68349873       -0.00000000        0.00000001
C           0.68349874        0.00000000       -0.00000001
H          -1.09714440        0.93697300        0.24169703
H          -1.09714440       -0.93697300       -0.24169701
H           1.09714437        0.93697300       -0.24169706
H           1.09714438       -0.93697300        0.24169705
6
MD Time 1660.00
C          -0.67249627       -0.00000000        0.00000001
C           0.67249628        0.00000000       -0.00000001
H          -1.08108005        0.93964582        0.24280645
H          -1.08108005       -0.93964582       -0.24280643
H           1.08108002        0.93964583       -0.24280648
H           1.08108003       -0.93964582        0.24280647
6
MD Time 1670.00
C          -0.66142528       -0.00000000        0.00000001
C           0.66142529        0.00000000       -0.00000001
H          -1.06617742        0.94289221        0.24349931
H          -1.06617742       -0.94289221       -0.24349929
H           1.06617739        0.94289221       -0.24349934
H           1.06617740       -0.94289221        0.24349933
6
MD Time 1680.00
C          -0.65035433       -0.00000000        0.00000001
C           0.65035434        0.00000000       -0.00000001
H          -1.05247534        0.94666601        0.24374980
H          -1.05247534       -0.94666601       -0.24374978
H           1.05247531        0.94666601       -0.24374984
H           1.05247532       -0.94666601        0.24374982
6
MD Time 1690.00
C          -0.63936242       -0.00000000        0.00000001
C           0.63936242        0.00000000       -0.00000001
H          -1.04000192        0.95090272        0.24352954
H          -1.04000192       -0.95090272       -0.24352952
H           1.04000189        0.95090272       -0.24352958
H           1.04000190       -0.95090272        0.24352956
6
MD Time 1700.00
C          -0.62853903       -0.00000000        0.00000001
C           0.62853904        0.00000000       -0.00000001
H          -1.02877539        0.95552213        0.24280862
H          -1.02877539       -0.95552213       -0.24280861
H           1.02877537        0.95552212       -0.24280866
H           1.02877537       -0.95552212        0.24280864
6
MD Time 1710.00
C          -0.61798396       -0.00000000        0.00000001
C           0.61798397        0.00000000       -0.00000001
H          -1.01880512        0.96043145        0.24155680
H          -1.01880512       -0.96043145       -0.24155679
H           1.01880510        0.96043145       -0.24155684
H           1.01880510       -0.96043144        0.24155683
6
MD Time 1720.00
C          -0.60780658       -0.00000000        0.00000001
C           0.60780659        0.00000000       -0.00000001
H          -1.01009264        0.96552882        0.23974472
H          -1.01009264       -0.96552882       -0.23974471
H           1.01009262        0.96552881       -0.23974476
H           1.01009262       -0.96552881        0.23974475
6
MD Time 1730.00
C          -0.59812463       -0.00000000        0.00000001
C           0.59812464        0.00000000       -0.00000001
H          -1.00263275        0.97070674        0.23734508
H          -1.00263275       -0.97070675       -0.23734507
H           1.00263273        0.97070674       -0.23734512
H           1.00263273       -0.97070673        0.23734511
6
MD Time 1740.00
C          -0.58906227       -0.00000000        0.00000001
C           0.58906227        0.00000000       -0.00000001
H          -0.99641455        0.97585558        0.23433373
H          -0.99641455       -0.97585558       -0.23433372
H           0.99641453        0.97585557       -0.23433378
H           0.99641454       -0.97585557        0.23433376
6
MD Time 1750.00
C          -0.58074737       -0.00000000        0.00000001
C           0.58074738        0.00000000       -0.00000001
H          -0.99142246        0.98086669        0.23069060
H          -0.99142246       -0.98086669       -0.23069059
H           0.99142245        0.98086668       -0.23069064
H           0.99142245       -0.98086668        0.23069063
6
MD Time 1760.00
C          -0.57330803       -0.00000000        0.00000001
C           0.57330803        0.00000000       -0.00000001
H          -0.98763715        0.98563532        0.22640040
H          -0.98763715       -0.98563532       -0.22640038
H           0.98763714        0.98563531       -0.22640044
H           0.98763714       -0.98563530        0.22640043
6
MD Time 1770.00
C          -0.56686827       -0.00000000        0.00000001
C           0.56686828        0.00000000       -0.00000001
H          -0.98503636        0.99006307        0.22145318
H          -0.98503636       -0.99006307       -0.22145317
H           0.98503636        0.99006306       -0.22145323
H           0.98503636       -0.99006305        0.22145321
6
MD Time 1780.00
C          -0.56154321       -0.00000000        0.00000001
C           0.56154321        0.00000000       -0.00000001
H          -0.98359568        0.99406003        0.21584468
H          -0.98359568       -0.99406004       -0.21584467
H           0.98359568        0.99406002       -0.21584472
H           0.98359568       -0.99406002        0.21584471
6
MD Time 1790.00
C          -0.55743386       -0.00000000        0.00000001
C           0.55743386        0.00000000       -0.00000001
H          -0.98328918        0.99754650        0.20957641
H          -0.98328918       -0.99754650       -0.20957640
H           0.98328917        0.99754649       -0.20957646
H           0.98328918       -0.99754648        0.20957644
6
MD Time 1800.00
C          -0.55462214       -0.00000000        0.00000001
C           0.55462214        0.00000000       -0.00000001
H          -0.98408998        1.00045431        0.20265573
H          -0.98408998       -1.00045431       -0.20265572
H           0.98408998        1.00045430       -0.20265578
H           0.98408998       -1.00045430        0.20265576
6
MD Time 1810.00
C          -0.55316638       -0.00000000        0.00000001
C           0.55316638        0.00000000       -0.00000001
H          -0.98597079        1.00272795        0.19509566
H          -0.98597079       -1.00272795       -0.19509565
H           0.98597079        1.00272793       -0.19509571
H           0.98597080       -1.00272793        0.19509569
6
MD Time 1820.00
C          -0.55309802       -0.00000000        0.00000001
C           0.55309802        0.00000000       -0.00000001
H          -0.98890433        1.00432527        0.18691466
H          -0.98890433       -1.00432527       -0.18691464
H           0.98890433        1.00432526       -0.18691470
H           0.98890434       -1.00432526        0.18691469
6
MD Time 1830.00
C          -0.55441970       -0.00000000        0.00000001
C           0.55441970        0.00000000       -0.00000001
H          -0.99286372        1.00521808        0.17813633
H          -0.99286372       -1.00521809       -0.17813632
H           0.99286373        1.00521807       -0.17813637
H           0.99286373       -1.00521807        0.17813636
6
MD Time 1840.00
C          -0.55710515       -0.00000000        0.00000001
C           0.55710514        0.00000000       -0.00000001
H          -0.99782287        1.00539243        0.16878905
H          -0.99782287       -1.00539243       -0.16878904
H           0.99782288        1.00539241       -0.16878910
H           0.99782288       -1.00539241        0.16878908
6
MD Time 1850.00
C          -0.56110077       -0.00000000        0.00000001
C           0.56110077        0.00000000       -0.00000001
H          -1.00375679        1.00484868        0.15890555
H          -1.00375679       -1.00484868       -0.15890554
H           1.00375680        1.00484867       -0.15890560
H           1.00375680       -1.00484867        0.15890558
6
MD Time 1860.00
C          -0.56632884       -0.00000000        0.00000001
C           0.56632883        0.00000000       -0.00000001
H          -1.01064187        1.00360147        0.14852242
H          -1.01064186       -1.00360147       -0.14852240
H           1.01064188        1.00360146       -0.14852246
H           1.01064188       -1.00360145        0.14852245
6
MD Time 1870.00
C          -0.57269171       -0.00000000        0.00000001
C           0.57269171        0.00000000       -0.00000001
H          -1.01845606        1.00167932        0.13767955
H          -1.01845605       -1.00167932       -0.13767954
H           1.01845607        1.00167931       -0.13767960
H           1.01845608       -1.00167930        0.13767958
6
MD Time 1880.00
C          -0.58007688       -0.00000000        0.00000001
C           0.58007687        0.00000000       -0.00000001
H          -1.02717900        0.99912409        0.12641957
H          -1.02717900       -0.99912410       -0.12641956
H           1.02717902        0.99912409       -0.12641962
H           1.02717902       -0.99912408        0.12641960
6
MD Time 1890.00
C          -0.58836204       -0.00000000        0.00000001
C           0.58836203        0.00000000       -0.00000001
H          -1.03679201        0.99599014        0.11478713
H          -1.03679201       -0.99599015       -0.11478711
H           1.03679203        0.99599013       -0.11478717
H           1.03679203       -0.99599013        0.11478715
6
MD Time 1900.00
C          -0.59742003       -0.00000000        0.00000001
C           0.59742002        0.00000000       -0.00000001
H          -1.04727791        0.99234311        0.10282814
H          -1.04727791       -0.99234312       -0.10282813
H           1.04727793        0.99234311       -0.10282818
H           1.04727794       -0.99234310        0.10282817
6
MD Time 1910.00
C          -0.60712317       -0.00000000        0.00000001
C           0.60712317        0.00000000       -0.00000001
H          -1.05862074        0.98825846        0.09058904
H          -1.05862074       -0.98825846       -0.09058902
H           1.05862077        0.98825845       -0.09058908
H           1.05862077       -0.98825845        0.09058906
6
MD Time 1920.00
C          -0.61734687       -0.00000000        0.00000001
C           0.61734686        0.00000000       -0.00000001
H          -1.07080524        0.98381954        0.07811592
H          -1.07080524       -0.98381954       -0.07811590
H           1.07080527        0.98381953       -0.07811596
H           1.07080527       -0.98381953        0.07811594
6
MD Time 1930.00
C          -0.62797238       -0.00000000        0.00000001
C           0.62797237        0.00000000       -0.00000001
H          -1.08381620        0.97911540        0.06545379
H          -1.08381620       -0.97911540       -0.06545377
H           1.08381623        0.97911539       -0.06545382
H           1.08381623       -0.97911539        0.06545381
6
MD Time 1940.00
C          -0.63888886       -0.00000000        0.00000001
C           0.63888886        0.00000000       -0.00000001
H          -1.09763760        0.97423816        0.05264578
H          -1.09763759       -0.97423816       -0.05264576
H           1.09763762        0.97423815       -0.05264581
H           1.09763763       -0.97423815        0.05264579
6
MD Time 1950.00
C          -0.64999471       -0.00000000        0.00000001
C           0.64999471        0.00000000       -0.00000001
H          -1.11225162        0.96928016        0.03973253
H          -1.11225161       -0.96928016       -0.03973251
H           1.11225164        0.96928015       -0.03973257
H           1.11225164       -0.96928015        0.03973255
6
MD Time 1960.00
C          -0.66119829       -0.00000000        0.00000001
C           0.66119828        0.00000000       -0.00000001
H          -1.12763752        0.96433090        0.02675168
H          -1.12763751       -0.96433090       -0.02675166
H           1.12763754        0.96433089       -0.02675172
H           1.12763755       -0.96433089        0.02675170
6
MD Time 1970.00
C          -0.67241822       -0.00000000        0.00000001
C           0.67241821        0.00000000       -0.00000001
H          -1.14377044        0.95947392        0.01373752
H          -1.14377043       -0.95947392       -0.01373750
H           1.14377046        0.95947391       -0.01373756
H           1.14377047       -0.95947391        0.01373754
6
MD Time 1980.00
C          -0.68358337       -0.00000000        0.00000001
C           0.68358337        0.00000000       -0.00000001
H          -1.16062017        0.95478379        0.00072087
H          -1.16062016       -0.95478379       -0.00072085
H           1.16062019        0.95478378       -0.00072090
H           1.16062020       -0.95478378        0.00072088
6
MD Time 1990.00
C          -0.69463258       -0.00000000        0.00000001
C           0.69463257        0.00000000       -0.00000001
H          -1.17815000        0.95032342       -0.01227088
H          -1.17815000       -0.95032342        0.01227090
H           1.17815003        0.95032341        0.01227085
H           1.17815003       -0.95032341       -0.01227087
6
MD Time 2000.00
C          -0.70551417       -0.00000000        0.00000001
C           0.70551417        0.00000000       -0.00000001
H          -1.19631571        0.94614176       -0.02521349
H          -1.19631570       -0.94614177        0.02521351
H           1.19631574        0.94614176        0.02521346
H           1.19631574       -0.94614175       -0.02521348
6
MD Time 2010.00
C          -0.71618543       -0.00000000        0.00000001
C           0.71618542        0.00000000       -0.00000001
H          -1.21506472        0.94227222       -0.03808545
H          -1.21506472       -0.94227223        0.03808547
H           1.21506475        0.94227222        0.03808542
H           1.21506475       -0.94227222       -0.03808544
6
MD Time 2020.00
C          -0.72661194       -0.00000000        0.00000001
C           0.72661193        0.00000000       -0.00000001
H          -1.23433564        0.93873176       -0.05086746
H          -1.23433563       -0.93873177        0.05086748
H           1.23433567        0.93873175        0.05086743
H           1.23433567       -0.93873175       -0.05086745
6
MD Time 2030.00
C          -0.73676691       -0.00000000        0.00000001
C           0.73676690        0.00000000       -0.00000001
H          -1.25405806        0.93552081       -0.06354183
H          -1.25405805       -0.93552081        0.06354186
H           1.25405808        0.93552080        0.06354181
H           1.25405808       -0.93552080       -0.06354183
6
MD Time 2040.00
C          -0.74663045       -0.00000000        0.00000001
C           0.74663044        0.00000000       -0.00000001
H          -1.27415280        0.93262400       -0.07609189
H          -1.27415279       -0.93262400        0.07609192
H           1.27415282        0.93262399        0.07609187
H           1.27415282       -0.93262399       -0.07609190
6
MD Time 2050.00
C          -0.75618883       -0.00000000        0.00000001
C           0.75618883        0.00000000       -0.00000001
H          -1.29453252        0.93001160       -0.08850143
H          -1.29453251       -0.93001161        0.08850146
H           1.29453253        0.93001159        0.08850141
H           1.29453254       -0.93001159       -0.08850143
6
MD Time 2060.00
C          -0.76543375       -0.00000000        0.00000001
C           0.76543375        0.00000000       -0.00000001
H          -1.31510265        0.92764157       -0.10075425
H          -1.31510264       -0.92764157        0.10075428
H           1.31510267        0.92764156        0.10075423
H           1.31510267       -0.92764156       -0.10075425
6
MD Time 2070.00
C          -0.77436157       -0.00000000        0.00000001
C           0.77436157        0.00000000       -0.00000001
H          -1.33576272        0.92546198       -0.11283386
H          -1.33576271       -0.92546199        0.11283389
H           1.33576274        0.92546198        0.11283384
H           1.33576274       -0.92546197       -0.11283387
6
MD Time 2080.00
C          -0.78297261       -0.00000000        0.00000001
C           0.78297261        0.00000000       -0.00000001
H          -1.35640779        0.92341376       -0.12472330
H          -1.35640779       -0.92341377        0.12472333
H           1.35640781        0.92341375        0.12472329
H           1.35640781       -0.92341375       -0.12472332
6
MD Time 2090.00
C          -0.79127044       -0.00000000        0.00000001
C           0.79127044        0.00000000       -0.00000001
H          -1.37693013        0.92143340       -0.13640509
H          -1.37693012       -0.92143341        0.13640512
H           1.37693014        0.92143340        0.13640508
H           1.37693014       -0.92143339       -0.13640511
6
MD Time 2100.00
C          -0.79926124       -0.00000000        0.00000001
C           0.79926124        0.00000000       -0.00000001
H          -1.39722084        0.91945566       -0.14786130
H          -1.39722083       -0.91945567        0.14786134
H           1.39722085        0.91945566        0.14786129
H           1.39722085       -0.91945565       -0.14786132
6
MD Time 2110.00
C          -0.80695318       -0.00000000        0.00000001
C           0.80695318        0.00000000       -0.00000001
H          -1.41717157        0.91741597       -0.15907377
H          -1.41717156       -0.91741598        0.15907380
H           1.41717158        0.91741596        0.15907376
H           1.41717158       -0.91741596       -0.15907379
6
MD Time 2120.00
C          -0.81435588       -0.00000000        0.00000001
C           0.81435588        0.00000000       -0.00000001
H          -1.43667602        0.91525255       -0.17002431
H          -1.43667601       -0.91525255        0.17002435
H           1.43667603        0.91525254        0.17002430
H           1.43667603       -0.91525254       -0.17002434
6
MD Time 2130.00
C          -0.82147992       -0.00000000        0.00000001
C           0.82147991        0.00000000       -0.00000001
H          -1.45563136        0.91290819       -0.18069507
H          -1.45563136       -0.91290820        0.18069510
H           1.45563137        0.91290819        0.18069506
H           1.45563137       -0.91290818       -0.18069509
6
MD Time 2140.00
C          -0.82833641       -0.00000000        0.00000001
C           0.82833640        0.00000000       -0.00000001
H          -1.47393946        0.91033167       -0.19106878
H          -1.47393945       -0.91033168        0.19106882
H           1.47393946        0.91033167        0.19106878
H           1.47393946       -0.91033166       -0.19106881
6
MD Time 2150.00
C          -0.83493663       -0.00000000        0.00000001
C           0.83493663        0.00000000       -0.00000001
H          -1.49150788        0.90747877       -0.20112916
H          -1.49150787       -0.90747878        0.20112920
H           1.49150788        0.90747876        0.20112915
H           1.49150787       -0.90747876       -0.20112919
6
MD Time 2160.00
C          -0.84129175       -0.00000000        0.00000001
C           0.84129175        0.00000000       -0.00000001
H          -1.50825077        0.90431304       -0.21086115
H          -1.50825076       -0.90431304        0.21086119
H           1.50825076        0.90431303        0.21086114
H           1.50825076       -0.90431303       -0.21086118
6
MD Time 2170.00
C          -0.84741249       -0.00000000        0.00000001
C           0.84741249        0.00000000       -0.00000001
H          -1.52408950        0.90080627       -0.22025125
H          -1.52408950       -0.90080627        0.22025129
H           1.52408950        0.90080626        0.22025125
H           1.52408950       -0.90080626       -0.22025129
6
MD Time 2180.00
C          -0.85330902       -0.00000000        0.00000001
C           0.85330902        0.00000000       -0.00000001
H          -1.53895321        0.89693874       -0.22928778
H          -1.53895320       -0.89693874        0.22928782
H           1.53895320        0.89693874        0.22928778
H           1.53895320       -0.89693873       -0.22928782
6
MD Time 2190.00
C          -0.85899069       -0.00000000        0.00000001
C           0.85899069        0.00000000       -0.00000001
H          -1.55277913        0.89269932       -0.23796111
H          -1.55277913       -0.89269932        0.23796115
H           1.55277913        0.89269932        0.23796111
H           1.55277912       -0.89269931       -0.23796115
6
MD Time 2200.00
C          -0.86446595       -0.00000000        0.00000001
C           0.86446595        0.00000000       -0.00000001
H          -1.56551296        0.88808542       -0.24626386
H          -1.56551295       -0.88808543        0.24626390
H           1.56551295        0.88808542        0.24626386
H           1.56551295       -0.88808542       -0.24626390
6
MD Time 2210.00
C          -0.86974219       -0.00000000        0.00000001
C           0.86974220        0.00000000       -0.00000001
H          -1.57710900        0.88310290       -0.25419112
H          -1.57710899       -0.88310291        0.25419116
H           1.57710899        0.88310290        0.25419112
H           1.57710899       -0.88310289       -0.25419116
6
MD Time 2220.00
C          -0.87482570       -0.00000000        0.00000001
C           0.87482570        0.00000000       -0.00000001
H          -1.58753036        0.87776587       -0.26174061
H          -1.58753035       -0.87776587        0.26174066
H           1.58753035        0.87776587        0.26174062
H           1.58753035       -0.87776587       -0.26174066
6
MD Time 2230.00
C          -0.87972153       -0.00000000        0.00000001
C           0.87972153        0.00000000       -0.00000001
H          -1.59674909        0.87209652       -0.26891285
H          -1.59674908       -0.87209653        0.26891290
H           1.59674908        0.87209653        0.26891286
H           1.59674908       -0.87209652       -0.26891290
6
MD Time 2240.00
C          -0.88443344       -0.00000000        0.00000001
C           0.88443344        0.00000000       -0.00000001
H          -1.60474628        0.86612494       -0.27571129
H          -1.60474627       -0.86612495        0.27571134
H           1.60474626        0.86612495        0.27571130
H           1.60474626       -0.86612494       -0.27571135
6
MD Time 2250.00
C          -0.88896386       -0.00000000        0.00000001
C           0.88896386        0.00000000       -0.00000001
H          -1.61151216        0.85988884       -0.28214247
H          -1.61151215       -0.85988885        0.28214252
H           1.61151214        0.85988885        0.28214248
H           1.61151214       -0.85988884       -0.28214253
6
MD Time 2260.00
C          -0.89331383       -0.00000000        0.00000001
C           0.89331383        0.00000000       -0.00000001
H          -1.61704622        0.85343341       -0.28821612
H          -1.61704621       -0.85343341        0.28821617
H           1.61704620        0.85343342        0.28821613
H           1.61704620       -0.85343341       -0.28821618
6
MD Time 2270.00
C          -0.89748293       -0.00000000        0.00000001
C           0.89748293        0.00000000       -0.00000001
H          -1.62135728        0.84681105       -0.29394530
H          -1.62135727       -0.84681106        0.29394535
H           1.62135726        0.84681106        0.29394532
H           1.62135726       -0.84681106       -0.29394536
6
MD Time 2280.00
C          -0.90146928       -0.00000000        0.00000001
C           0.90146928        0.00000000       -0.00000001
H          -1.62446355        0.84008115       -0.29934646
H          -1.62446354       -0.84008116        0.29934652
H           1.62446353        0.84008116        0.29934648
H           1.62446353       -0.84008116       -0.29934653
6
MD Time 2290.00
C          -0.90526949       -0.00000000        0.00000001
C           0.90526949        0.00000000       -0.00000001
H          -1.62639265        0.83330977       -0.30443953
H          -1.62639264       -0.83330978        0.30443958
H           1.62639263        0.83330979        0.30443955
H           1.62639263       -0.83330978       -0.30443959
6
MD Time 2300.00
C          -0.90887868       -0.00000000        0.00000001
C           0.90887868        0.00000000       -0.00000001
H          -1.62718155        0.82656930       -0.30924787
H          -1.62718154       -0.82656930        0.30924792
H           1.62718152        0.82656931        0.30924789
H           1.62718152       -0.82656931       -0.30924794
6
MD Time 2310.00
C          -0.91229047       -0.00000000        0.00000001
C           0.91229047        0.00000000       -0.00000001
H          -1.62687639        0.81993793       -0.31379829
H          -1.62687638       -0.81993794        0.31379834
H           1.62687637        0.81993795        0.31379831
H           1.62687637       -0.81993794       -0.31379836
6
MD Time 2320.00
C          -0.91549702       -0.00000000        0.00000001
C           0.91549703        0.00000000       -0.00000001
H          -1.62553221        0.81349910       -0.31812087
H          -1.62553220       -0.81349911        0.31812092
H           1.62553219        0.81349912        0.31812089
H           1.62553219       -0.81349911       -0.31812094
6
MD Time 2330.00
C          -0.91848915       -0.00000000        0.00000001
C           0.91848915        0.00000000       -0.00000001
H          -1.62321242        0.80734062       -0.32224874
H          -1.62321241       -0.80734063        0.32224879
H           1.62321240        0.80734064        0.32224876
H           1.62321239       -0.80734063       -0.32224881
6
MD Time 2340.00
C          -0.92125640       -0.00000000        0.00000001
C           0.92125640        0.00000000       -0.00000001
H          -1.61998808        0.80155368       -0.32621769
H          -1.61998807       -0.80155369        0.32621775
H           1.61998805        0.80155370        0.32621772
H           1.61998805       -0.80155369       -0.32621777
6
MD Time 2350.00
C          -0.92378722       -0.00000000        0.00000001
C           0.92378723        0.00000000       -0.00000001
H          -1.61593689        0.79623149       -0.33006569
H          -1.61593688       -0.79623150        0.33006574
H           1.61593687        0.79623152        0.33006571
H           1.61593687       -0.79623151       -0.33006576
6
MD Time 2360.00
C          -0.92606921       -0.00000000        0.00000001
C           0.92606921        0.00000000       -0.00000001
H          -1.61114194        0.79146772       -0.33383212
H          -1.61114193       -0.79146773        0.33383217
H           1.61114191        0.79146774        0.33383214
H           1.61114191       -0.79146773       -0.33383220
6
MD Time 2370.00
C          -0.92808934       -0.00000000        0.00000001
C           0.92808935        0.00000000       -0.00000001
H          -1.60569002        0.78735453       -0.33755694
H          -1.60569000       -0.78735454        0.33755700
H           1.60568999        0.78735455        0.33755697
H           1.60568999       -0.78735454       -0.33755702
6
MD Time 2380.00
C          -0.92983432       -0.00000000        0.00000001
C           0.92983433        0.00000000       -0.00000001
H          -1.59966978        0.78398038       -0.34127958
H          -1.59966977       -0.78398038        0.34127964
H           1.59966976        0.78398040        0.34127961
H           1.59966976       -0.78398039       -0.34127966
6
MD Time 2390.00
C          -0.93129094       -0.00000000        0.00000001
C           0.93129094        0.00000000       -0.00000001
H          -1.59316958        0.78142752       -0.34503768
H          -1.59316957       -0.78142753        0.34503774
H           1.59316955        0.78142754        0.34503771
H           1.59316955       -0.78142753       -0.34503776
6
MD Time 2400.00
C          -0.93244644       -0.00000000        0.00000001
C           0.93244644        0.00000000       -0.00000002
H          -1.58627512        0.77976936       -0.34886568
H          -1.58627511       -0.77976936        0.34886574
H           1.58627509        0.77976938        0.34886571
H           1.58627509       -0.77976937       -0.34886576
6
MD Time 2410.00
C          -0.93328896       -0.00000000        0.00000001
C           0.93328896        0.00000000       -0.00000002
H          -1.57906712        0.77906769       -0.35279334
H          -1.57906710       -0.77906769        0.35279340
H           1.57906709        0.77906771        0.35279336
H           1.57906709       -0.77906770       -0.35279342
6
MD Time 2420.00
C          -0.93380789       -0.00000000        0.00000001
C           0.93380789        0.00000000       -0.00000002
H          -1.57161901        0.77937007       -0.35684422
H          -1.57161900       -0.77937007        0.35684428
H           1.57161899        0.77937009        0.35684424
H           1.57161898       -0.77937008       -0.35684430
6
MD Time 2430.00
C          -0.93399420       -0.00000000        0.00000001
C           0.93399420        0.00000000       -0.00000002
H          -1.56399491        0.78070742       -0.36103430
H          -1.56399490       -0.78070742        0.36103436
H           1.56399489        0.78070744        0.36103433
H           1.56399489       -0.78070743       -0.36103438
6
MD Time 2440.00
C          -0.93384076       -0.00000000        0.00000001
C           0.93384076        0.00000000       -0.00000002
H          -1.55624802        0.78309209       -0.36537076
H          -1.55624800       -0.78309209        0.36537082
H           1.55624800        0.78309211        0.36537079
H           1.55624799       -0.78309209       -0.36537084
6
MD Time 2450.00
C          -0.93334246       -0.00000000        0.00000001
C           0.93334247        0.00000000       -0.00000002
H          -1.54841945        0.78651650       -0.36985106
H          -1.54841944       -0.78651650        0.36985112
H           1.54841943        0.78651652        0.36985108
H           1.54841943       -0.78651650       -0.36985114
6
MD Time 2460.00
C          -0.93249635       -0.00000000        0.00000001
C           0.93249635        0.00000000       -0.00000002
H          -1.54053784        0.79095258       -0.37446239
H          -1.54053783       -0.79095258        0.37446245
H           1.54053782        0.79095259        0.37446240
H           1.54053782       -0.79095258       -0.37446246
6
MD Time 2470.00
C          -0.93130155       -0.00000000        0.00000001
C           0.93130155        0.00000000       -0.00000002
H          -1.53261944        0.79635196       -0.37918161
H          -1.53261943       -0.79635196        0.37918167
H           1.53261942        0.79635197        0.37918162
H           1.53261942       -0.79635195       -0.37918168
6
MD Time 2480.00
C          -0.92975915       -0.00000000        0.00000001
C           0.92975915        0.00000000       -0.00000002
H          -1.52466896        0.80264706       -0.38397560
H          -1.52466894       -0.80264705        0.38397567
H           1.52466894        0.80264707        0.38397562
H           1.52466894       -0.80264705       -0.38397568
6
MD Time 2490.00
C          -0.92787195       -0.00000000        0.00000001
C           0.92787195        0.00000000       -0.00000002
H          -1.51668085        0.80975288       -0.38880208
H          -1.51668084       -0.80975287        0.38880214
H           1.51668084        0.80975288        0.38880210
H           1.51668083       -0.80975287       -0.38880215
6
MD Time 2500.00
C          -0.92564420       -0.00000000        0.00000001
C           0.92564420        0.00000000       -0.00000001
H          -1.50864105        0.81756946       -0.39361074
H          -1.50864104       -0.81756946        0.39361080
H           1.50864104        0.81756946        0.39361076
H           1.50864104       -0.81756945       -0.39361081
6
MD Time 2510.00
C          -0.92308123       -0.00000000        0.00000001
C           0.92308124        0.00000000       -0.00000001
H          -1.50052893        0.82598479       -0.39834474
H          -1.50052892       -0.82598479        0.39834480
H           1.50052892        0.82598479        0.39834475
H           1.50052891       -0.82598478       -0.39834481
6
MD Time 2520.00
C          -0.92018914       -0.00000000        0.00000001
C           0.92018914        0.00000000       -0.00000001
H          -1.49231934        0.83487798       -0.40294231
H          -1.49231932       -0.83487798        0.40294237
H           1.49231933        0.83487798        0.40294232
H           1.49231932       -0.83487797       -0.40294238
6
MD Time 2530.00
C          -0.91697440       -0.00000000        0.00000001
C           0.91697440        0.00000000       -0.00000001
H          -1.48398463        0.84412253       -0.40733850
H          -1.48398461       -0.84412252        0.40733856
H           1.48398462        0.84412253        0.40733850
H           1.48398461       -0.84412251       -0.40733856
6
MD Time 2540.00
C          -0.91344359       -0.00000000        0.00000001
C           0.91344359        0.00000000       -0.00000001
H          -1.47549648        0.85358945       -0.41146680
H          -1.47549647       -0.85358945        0.41146686
H           1.47549648        0.85358945        0.41146680
H           1.47549647       -0.85358943       -0.41146686
6
MD Time 2550.00
C          -0.90960313       -0.00000000        0.00000001
C           0.90960313        0.00000000       -0.00000001
H          -1.46682754        0.86315023       -0.41526076
H          -1.46682752       -0.86315023        0.41526082
H           1.46682753        0.86315023        0.41526076
H           1.46682753       -0.86315021       -0.41526081
6
MD Time 2560.00
C          -0.90545903       -0.00000000        0.00000001
C           0.90545903        0.00000000       -0.00000001
H          -1.45795268        0.87267940       -0.41865534
H          -1.45795266       -0.87267940        0.41865540
H           1.45795268        0.87267940        0.41865534
H           1.45795267       -0.87267938       -0.41865539
6
MD Time 2570.00
C          -0.90101676       -0.00000000        0.00000001
C           0.90101676        0.00000000       -0.00000001
H          -1.44885010        0.88205676       -0.42158812
H          -1.44885009       -0.88205675        0.42158818
H           1.44885010        0.88205675        0.42158812
H           1.44885010       -0.88205674       -0.42158817
6
MD Time 2580.00
C          -0.89628113       -0.00000000        0.00000001
C           0.89628113        0.00000000       -0.00000001
H          -1.43950207        0.89116917       -0.42400029
H          -1.43950205       -0.89116917        0.42400035
H           1.43950207        0.89116917        0.42400028
H           1.43950207       -0.89116915       -0.42400034
6
MD Time 2590.00
C          -0.89125620       -0.00000000        0.00000001
C           0.89125620        0.00000000       -0.00000001
H          -1.42989542        0.89991205       -0.42583736
H          -1.42989541       -0.89991205        0.42583742
H           1.42989543        0.89991204        0.42583736
H           1.42989543       -0.89991202       -0.42583741
6
MD Time 2600.00
C          -0.88594527       -0.00000000        0.00000001
C           0.88594526        0.00000000       -0.00000001
H          -1.42002191        0.90819039       -0.42704978
H          -1.42002190       -0.90819039        0.42704984
H           1.42002192        0.90819038        0.42704977
H           1.42002192       -0.90819037       -0.42704983
6
MD Time 2610.00
C          -0.88035088       -0.00000000        0.00000001
C           0.88035088        0.00000000       -0.00000001
H          -1.40987833        0.91591962       -0.42759327
H          -1.40987831       -0.91591962        0.42759333
H           1.40987834        0.91591961        0.42759326
H           1.40987834       -0.91591960       -0.42759331
6
MD Time 2620.00
C          -0.87447487       -0.00000000        0.00000001
C           0.87447486        0.00000000       -0.00000001
H          -1.39946655        0.92302613       -0.42742911
H          -1.39946654       -0.92302613        0.42742916
H           1.39946657        0.92302612        0.42742909
H           1.39946656       -0.92302611       -0.42742914
6
MD Time 2630.00
C          -0.86831837       -0.00000000        0.00000001
C           0.86831836        0.00000000       -0.00000001
H          -1.38879350        0.92944764       -0.42652421
H          -1.38879349       -0.92944764        0.42652427
H           1.38879352        0.92944763        0.42652420
H           1.38879352       -0.92944762       -0.42652425
6
MD Time 2640.00
C          -0.86188192       -0.00000000        0.00000001
C           0.86188192        0.00000000       -0.00000001
H          -1.37787102        0.93513345       -0.42485122
H          -1.37787101       -0.93513345        0.42485128
H           1.37787104        0.93513343        0.42485120
H           1.37787104       -0.93513342       -0.42485126
6
MD Time 2650.00
C          -0.85516555       -0.00000000        0.00000001
C           0.85516554        0.00000000       -0.00000001
H          -1.36671576        0.94004455       -0.42238843
H          -1.36671575       -0.94004455        0.42238849
H           1.36671578        0.94004454        0.42238841
H           1.36671578       -0.94004453       -0.42238846
6
MD Time 2660.00
C          -0.84816883       -0.00000000        0.00000001
C           0.84816883        0.00000000       -0.00000001
H          -1.35534904        0.94415375       -0.41911970
H          -1.35534902       -0.94415375        0.41911976
H           1.35534906        0.94415374        0.41911968
H           1.35534906       -0.94415372       -0.41911973
6
MD Time 2670.00
C          -0.84089104       -0.00000000        0.00000001
C           0.84089103        0.00000000       -0.00000001
H          -1.34379668        0.94744567       -0.41503438
H          -1.34379667       -0.94744567        0.41503444
H           1.34379671        0.94744566        0.41503435
H           1.34379671       -0.94744565       -0.41503440
6
MD Time 2680.00
C          -0.83333121       -0.00000000        0.00000001
C           0.83333121        0.00000000       -0.00000001
H          -1.33208894        0.94991683       -0.41012712
H          -1.33208893       -0.94991683        0.41012718
H           1.33208897        0.94991682        0.41012709
H           1.33208896       -0.94991681       -0.41012715
6
MD Time 2690.00
C          -0.82548833       -0.00000000        0.00000001
C           0.82548832        0.00000000       -0.00000001
H          -1.32026032        0.95157559       -0.40439774
H          -1.32026030       -0.95157559        0.40439779
H           1.32026035        0.95157558        0.40439771
H           1.32026034       -0.95157557       -0.40439776
6
MD Time 2700.00
C          -0.81736141       -0.00000000        0.00000001
C           0.81736141        0.00000000       -0.00000001
H          -1.30834950        0.95244222       -0.39785100
H          -1.30834949       -0.95244222        0.39785105
H           1.30834953        0.95244221        0.39785097
H           1.30834953       -0.95244220       -0.39785102
6
MD Time 2710.00
C          -0.80894974       -0.00000000        0.00000001
C           0.80894974        0.00000000       -0.00000001
H          -1.29639921        0.95254881       -0.39049641
H          -1.29639920       -0.95254881        0.39049646
H           1.29639925        0.95254880        0.39049637
H           1.29639925       -0.95254879       -0.39049642
6
MD Time 2720.00
C          -0.80025300       -0.00000000        0.00000001
C           0.80025299        0.00000000       -0.00000001
H          -1.28445609        0.95193914       -0.38234794
H          -1.28445608       -0.95193915        0.38234799
H           1.28445613        0.95193914        0.38234790
H           1.28445613       -0.95193913       -0.38234795
6
MD Time 2730.00
C          -0.79127154       -0.00000000        0.00000001
C           0.79127153        0.00000000       -0.00000001
H          -1.27257051        0.95066852       -0.37342374
H          -1.27257050       -0.95066852        0.37342380
H           1.27257054        0.95066852        0.37342371
H           1.27257054       -0.95066851       -0.37342376
6
MD Time 2740.00
C          -0.78200662       -0.00000000        0.00000001
C           0.78200661        0.00000000       -0.00000001
H          -1.26079633        0.94880333       -0.36374575
H          -1.26079632       -0.94880333        0.36374580
H           1.26079636        0.94880333        0.36374571
H           1.26079636       -0.94880332       -0.36374576
6
MD Time 2750.00
C          -0.77246075       -0.00000000        0.00000001
C           0.77246075        0.00000000       -0.00000001
H          -1.24919061        0.94642048       -0.35333923
H          -1.24919060       -0.94642048        0.35333928
H           1.24919065        0.94642048        0.35333919
H           1.24919065       -0.94642047       -0.35333924
6
MD Time 2760.00
C          -0.76263809       -0.00000000        0.00000001
C           0.76263809        0.00000000       -0.00000001
H          -1.23781318        0.94360649       -0.34223227
H          -1.23781317       -0.94360650        0.34223232
H           1.23781321        0.94360650        0.34223223
H           1.23781321       -0.94360649       -0.34223228
6
MD Time 2770.00
C          -0.75254488       -0.00000000        0.00000001
C           0.75254487        0.00000000       -0.00000001
H          -1.22672601        0.94045631       -0.33045513
H          -1.22672600       -0.94045631        0.33045518
H           1.22672605        0.94045631        0.33045509
H           1.22672605       -0.94045630       -0.33045513
6
MD Time 2780.00
C          -0.74218997       -0.00000000        0.00000001
C           0.74218997        0.00000000       -0.00000001
H          -1.21599252        0.93707160       -0.31803957
H          -1.21599251       -0.93707160        0.31803961
H           1.21599256        0.93707160        0.31803952
H           1.21599256       -0.93707160       -0.31803957
6
MD Time 2790.00
C          -0.73158555       -0.00000000        0.00000001
C           0.73158555        0.00000000       -0.00000001
H          -1.20567659        0.93355874       -0.30501804
H          -1.20567658       -0.93355874        0.30501809
H           1.20567663        0.93355874        0.30501799
H           1.20567663       -0.93355873       -0.30501804
6
MD Time 2800.00
C          -0.72074781       -0.00000000        0.00000001
C           0.72074780        0.00000000       -0.00000001
H          -1.19584140        0.93002620       -0.29142293
H          -1.19584139       -0.93002620        0.29142298
H           1.19584143        0.93002621        0.29142289
H           1.19584144       -0.93002620       -0.29142293
6
MD Time 2810.00
C          -0.70969784       -0.00000000        0.00000001
C           0.70969783        0.00000000       -0.00000001
H          -1.18654803        0.92658161       -0.27728574
H          -1.18654802       -0.92658162        0.27728579
H           1.18654806        0.92658162        0.27728570
H           1.18654806       -0.92658161       -0.27728574
6
MD Time 2820.00
C          -0.69846260       -0.00000000        0.00000001
C           0.69846259        0.00000000       -0.00000001
H          -1.17785389        0.92332839       -0.26263639
H          -1.17785388       -0.92332839        0.26263643
H           1.17785392        0.92332840        0.26263634
H           1.17785393       -0.92332839       -0.26263638
6
MD Time 2830.00
C          -0.68707597       -0.00000000        0.00000001
C           0.68707596        0.00000000       -0.00000001
H          -1.16981098        0.92036213       -0.24750262
H          -1.16981097       -0.92036213        0.24750266
H           1.16981101        0.92036214        0.24750257
H           1.16981102       -0.92036213       -0.24750261
6
MD Time 2840.00
C          -0.67557989       -0.00000000        0.00000001
C           0.67557989        0.00000000       -0.00000001
H          -1.16246408        0.91776703       -0.23190971
H          -1.16246408       -0.91776703        0.23190975
H           1.16246412        0.91776704        0.23190966
H           1.16246412       -0.91776703       -0.23190970
6
MD Time 2850.00
C          -0.66402547       -0.00000000        0.00000001
C           0.66402547        0.00000000       -0.00000001
H          -1.15584899        0.91561245       -0.21588041
H          -1.15584899       -0.91561245        0.21588045
H           1.15584902        0.91561246        0.21588036
H           1.15584903       -0.91561245       -0.21588040
6
MD Time 2860.00
C          -0.65247410       -0.00000000        0.00000001
C           0.65247410        0.00000000       -0.00000001
H          -1.14999093        0.91394999       -0.19943522
H          -1.14999092       -0.91394999        0.19943526
H           1.14999095        0.91395000        0.19943517
H           1.14999096       -0.91394999       -0.19943521
6
MD Time 2870.00
C          -0.64099840       -0.00000000        0.00000001
C           0.64099840        0.00000000       -0.00000001
H          -1.14490323        0.91281126       -0.18259307
H          -1.14490323       -0.91281126        0.18259311
H           1.14490326        0.91281127        0.18259301
H           1.14490326       -0.91281126       -0.18259305
6
MD Time 2880.00
C          -0.62968291       -0.00000000        0.00000001
C           0.62968290        0.00000000       -0.00000001
H          -1.14058658        0.91220667       -0.16537226
H          -1.14058657       -0.91220668        0.16537230
H           1.14058660        0.91220668        0.16537220
H           1.14058660       -0.91220668       -0.16537224
6
MD Time 2890.00
C          -0.61862440       -0.00000000        0.00000001
C           0.61862440        0.00000000       -0.00000001
H          -1.13702869        0.91212529       -0.14779167
H          -1.13702868       -0.91212530        0.14779170
H           1.13702871        0.91212530        0.14779161
H           1.13702871       -0.91212530       -0.14779164
6
MD Time 2900.00
C          -0.60793168       -0.00000000        0.00000001
C           0.60793167        0.00000000       -0.00000001
H          -1.13420475        0.91253589       -0.12987209
H          -1.13420474       -0.91253589        0.12987213
H           1.13420476        0.91253590        0.12987203
H           1.13420477       -0.91253589       -0.12987207
6
MD Time 2910.00
C          -0.59772460       -0.00000000        0.00000001
C           0.59772459        0.00000000       -0.00000001
H          -1.13207845        0.91338904       -0.11163754
H          -1.13207845       -0.91338905        0.11163757
H           1.13207846        0.91338905        0.11163748
H           1.13207847       -0.91338905       -0.11163751
6
MD Time 2920.00
C          -0.58813235       -0.00000000        0.00000001
C           0.58813234        0.00000000       -0.00000001
H          -1.13060365        0.91462021       -0.09311638
H          -1.13060364       -0.91462021        0.09311642
H           1.13060365        0.91462022        0.09311632
H           1.13060366       -0.91462021       -0.09311636
6
MD Time 2930.00
C          -0.57929068       -0.00000000        0.00000001
C           0.57929067        0.00000000       -0.00000001
H          -1.12972650        0.91615339       -0.07434224
H          -1.12972649       -0.91615339        0.07434228
H           1.12972650        0.91615340        0.07434218
H           1.12972651       -0.91615339       -0.07434222
6
MD Time 2940.00
C          -0.57133815       -0.00000000        0.00000001
C           0.57133815        0.00000000       -0.00000001
H          -1.12938795        0.91790522       -0.05535447
H          -1.12938794       -0.91790522        0.05535451
H           1.12938795        0.91790522        0.05535441
H           1.12938795       -0.91790522       -0.05535444
6
MD Time 2950.00
C          -0.56441141       -0.00000000        0.00000001
C           0.56441141        0.00000000       -0.00000001
H          -1.12952635        0.91978905       -0.03619826
H          -1.12952635       -0.91978906        0.03619830
H           1.12952635        0.91978906        0.03619820
H           1.12952636       -0.91978905       -0.03619823
6
MD Time 2960.00
C          -0.55863962       -0.00000000        0.00000001
C           0.55863962        0.00000000       -0.00000001
H          -1.13008006        0.92171888       -0.01692434
H          -1.13008006       -0.92171889        0.01692437
H           1.13008006        0.92171889        0.01692428
H           1.13008006       -0.92171888       -0.01692431
6
MD Time 2970.00
C          -0.55413847       -0.00000000        0.00000001
C           0.55413848        0.00000000       -0.00000001
H          -1.13098981        0.92361279        0.00241167
H          -1.13098980       -0.92361279       -0.00241164
H           1.13098979        0.92361279       -0.00241174
H           1.13098980       -0.92361278        0.00241170
6
MD Time 2980.00
C          -0.55100418       -0.00000000        0.00000001
C           0.55100419        0.00000000       -0.00000001
H          -1.13220077        0.92539582        0.02175019
H          -1.13220077       -0.92539583       -0.02175016
H           1.13220076        0.92539582       -0.02175025
H           1.13220076       -0.92539582        0.02175022
6
MD Time 2990.00
C          -0.54930807       -0.00000000        0.00000001
C           0.54930808        0.00000000       -0.00000001
H          -1.13366428        0.92700226        0.04102876
H          -1.13366427       -0.92700227       -0.04102872
H           1.13366426        0.92700226       -0.04102882
H           1.13366426       -0.92700226        0.04102879
