6
MD Time 0.00
C          -1.00424993        0.00000000        0.00000000
C           1.00424993        0.00000000        0.00000000
H          -1.57974221        0.85087473        0.35244385
H          -1.57974221       -0.85087473       -0.35244385
H           1.57974221        0.85087473       -0.35244385
H           1.57974221       -0.85087473        0.35244385
6
MD Time 10.00
C          -1.00413353       -0.00000000        0.00000000
C           1.00413353       -0.00000000       -0.00000000
H          -1.57960113        0.85102871        0.35240054
H          -1.57960113       -0.85102871       -0.35240054
H           1.57960113        0.85102871       -0.35240054
H           1.57960113       -0.85102871        0.35240054
6
MD Time 20.00
C          -1.00378436       -0.00000000        0.00000000
C           1.00378436       -0.00000000       -0.00000000
H          -1.57917730        0.85148887        0.35226969
H          -1.57917730       -0.85148887       -0.35226969
H           1.57917730        0.85148887       -0.35226969
H           1.57917730       -0.85148887        0.35226969
6
MD Time 30.00
C          -1.00320248       -0.00000000        0.00000000
C           1.00320248       -0.00000000       -0.00000000
H          -1.57846892        0.85224982        0.35204859
H          -1.57846892       -0.85224982       -0.35204859
H           1.57846892        0.85224982       -0.35204859
H           1.57846892       -0.85224982        0.35204859
6
MD Time 40.00
C          -1.00238796       -0.00000000        0.00000000
C           1.00238796       -0.00000000       -0.00000000
H          -1.57747309        0.85330275        0.35173280
H          -1.57747309       -0.85330275       -0.35173280
H           1.57747310        0.85330275       -0.35173280
H           1.57747310       -0.85330275        0.35173280
6
MD Time 50.00
C          -1.00134090       -0.00000000        0.00000000
C           1.00134090       -0.00000000       -0.00000000
H          -1.57618590        0.85463555        0.35131623
H          -1.57618590       -0.85463555       -0.35131623
H           1.57618591        0.85463554       -0.35131622
H           1.57618591       -0.85463554        0.35131622
6
MD Time 60.00
C          -1.00006137       -0.00000000        0.00000000
C           1.00006137       -0.00000000       -0.00000000
H          -1.57460257        0.85623310        0.35079124
H          -1.57460257       -0.85623310       -0.35079124
H           1.57460258        0.85623310       -0.35079123
H           1.57460258       -0.85623310        0.35079123
6
MD Time 70.00
C          -0.99854942       -0.00000000        0.00000000
C           0.99854941       -0.00000000       -0.00000000
H          -1.57271763        0.85807759        0.35014885
H          -1.57271763       -0.85807759       -0.35014885
H           1.57271764        0.85807759       -0.35014884
H           1.57271764       -0.85807759        0.35014884
6
MD Time 80.00
C          -0.99680498       -0.00000000        0.00000000
C           0.99680498       -0.00000000       -0.00000000
H          -1.57052512        0.86014884        0.34937887
H          -1.57052512       -0.86014884       -0.34937887
H           1.57052513        0.86014884       -0.34937886
H           1.57052513       -0.86014884        0.34937886
6
MD Time 90.00
C          -0.99482792       -0.00000000        0.00000000
C           0.99482792       -0.00000000       -0.00000000
H          -1.56801883        0.86242470        0.34847011
H          -1.56801883       -0.86242469       -0.34847011
H           1.56801884        0.86242469       -0.34847010
H           1.56801884       -0.86242469        0.34847010
6
MD Time 100.00
C          -0.99261793       -0.00000000        0.00000000
C           0.99261793       -0.00000000       -0.00000000
H          -1.56519251        0.86488149        0.34741058
H          -1.56519251       -0.86488149       -0.34741058
H           1.56519252        0.86488148       -0.34741057
H           1.56519252       -0.86488148        0.34741057
6
MD Time 110.00
C          -0.99017453       -0.00000000        0.00000000
C           0.99017453       -0.00000000       -0.00000000
H          -1.56204008        0.86749441        0.34618771
H          -1.56204008       -0.86749441       -0.34618771
H           1.56204010        0.86749441       -0.34618770
H           1.56204010       -0.86749441        0.34618770
6
MD Time 120.00
C          -0.98749701       -0.00000000        0.00000000
C           0.98749701       -0.00000000       -0.00000000
H          -1.55855594        0.87023802        0.34478854
H          -1.55855594       -0.87023802       -0.34478854
H           1.55855596        0.87023802       -0.34478852
H           1.55855596       -0.87023802        0.34478852
6
MD Time 130.00
C          -0.98458441       -0.00000000        0.00000000
C           0.98458441       -0.00000000       -0.00000000
H          -1.55473509        0.87308660        0.34319993
H          -1.55473509       -0.87308660       -0.34319993
H           1.55473511        0.87308659       -0.34319991
H           1.55473511       -0.87308659        0.34319991
6
MD Time 140.00
C          -0.98143550       -0.00000000        0.00000000
C           0.98143550       -0.00000000       -0.00000000
H          -1.55057340        0.87601462        0.34140876
H          -1.55057340       -0.87601462       -0.34140876
H           1.55057343        0.87601462       -0.34140873
H           1.55057343       -0.87601461        0.34140874
6
MD Time 150.00
C          -0.97804871       -0.00000000        0.00000000
C           0.97804871       -0.00000000       -0.00000000
H          -1.54606781        0.87899713        0.33940211
H          -1.54606781       -0.87899713       -0.33940211
H           1.54606783        0.87899713       -0.33940208
H           1.54606783       -0.87899713        0.33940209
6
MD Time 160.00
C          -0.97442216       -0.00000000        0.00000000
C           0.97442215       -0.00000000       -0.00000000
H          -1.54121643        0.88201012        0.33716742
H          -1.54121643       -0.88201012       -0.33716742
H           1.54121646        0.88201012       -0.33716739
H           1.54121646       -0.88201012        0.33716739
6
MD Time 170.00
C          -0.97055359       -0.00000000        0.00000000
C           0.97055359       -0.00000000       -0.00000000
H          -1.53601874        0.88503084        0.33469263
H          -1.53601874       -0.88503084       -0.33469263
H           1.53601877        0.88503084       -0.33469260
H           1.53601877       -0.88503084        0.33469260
6
MD Time 180.00
C          -0.96644041       -0.00000000        0.00000000
C           0.96644040       -0.00000000       -0.00000000
H          -1.53047568        0.88803812        0.33196631
H          -1.53047568       -0.88803812       -0.33196632
H           1.53047571        0.88803811       -0.33196628
H           1.53047570       -0.88803811        0.33196628
6
MD Time 190.00
C          -0.96207961       -0.00000000        0.00000000
C           0.96207960       -0.00000000       -0.00000000
H          -1.52458973        0.89101260        0.32897777
H          -1.52458973       -0.89101260       -0.32897778
H           1.52458976        0.89101260       -0.32897773
H           1.52458976       -0.89101260        0.32897774
6
MD Time 200.00
C          -0.95746783       -0.00000000        0.00000000
C           0.95746783       -0.00000000       -0.00000000
H          -1.51836502        0.89393697        0.32571713
H          -1.51836502       -0.89393697       -0.32571713
H           1.51836505        0.89393697       -0.32571708
H           1.51836505       -0.89393696        0.32571709
6
MD Time 210.00
C          -0.95260134       -0.00000000        0.00000000
C           0.95260134       -0.00000000       -0.00000000
H          -1.51180727        0.89679611        0.32217537
H          -1.51180727       -0.89679611       -0.32217537
H           1.51180730        0.89679611       -0.32217532
H           1.51180730       -0.89679610        0.32217533
6
MD Time 220.00
C          -0.94747605       -0.00000000        0.00000000
C           0.94747605       -0.00000000       -0.00000000
H          -1.50492390        0.89957723        0.31834441
H          -1.50492389       -0.89957723       -0.31834441
H           1.50492393        0.89957723       -0.31834436
H           1.50492393       -0.89957723        0.31834436
6
MD Time 230.00
C          -0.94208751       -0.00000000        0.00000000
C           0.94208750       -0.00000000       -0.00000000
H          -1.49772393        0.90226995        0.31421708
H          -1.49772393       -0.90226995       -0.31421708
H           1.49772396        0.90226995       -0.31421703
H           1.49772396       -0.90226995        0.31421703
6
MD Time 240.00
C          -0.93643095       -0.00000000        0.00000000
C           0.93643095       -0.00000000       -0.00000000
H          -1.49021798        0.90486631        0.30978717
H          -1.49021798       -0.90486631       -0.30978717
H           1.49021802        0.90486631       -0.30978711
H           1.49021802       -0.90486631        0.30978712
6
MD Time 250.00
C          -0.93050134       -0.00000000        0.00000000
C           0.93050134       -0.00000000       -0.00000000
H          -1.48241820        0.90736077        0.30504937
H          -1.48241820       -0.90736077       -0.30504937
H           1.48241824        0.90736077       -0.30504931
H           1.48241824       -0.90736077        0.30504932
6
MD Time 260.00
C          -0.92429338       -0.00000000        0.00000000
C           0.92429337       -0.00000000       -0.00000000
H          -1.47433815        0.90975016        0.29999928
H          -1.47433815       -0.90975016       -0.29999928
H           1.47433818        0.90975015       -0.29999921
H           1.47433818       -0.90975015        0.29999922
6
MD Time 270.00
C          -0.91780157       -0.00000000        0.00000000
C           0.91780157       -0.00000000       -0.00000000
H          -1.46599269        0.91203352        0.29463332
H          -1.46599269       -0.91203352       -0.29463333
H           1.46599273        0.91203352       -0.29463326
H           1.46599273       -0.91203351        0.29463326
6
MD Time 280.00
C          -0.91102028       -0.00000000        0.00000000
C           0.91102027       -0.00000000       -0.00000000
H          -1.45739788        0.91421200        0.28894874
H          -1.45739788       -0.91421200       -0.28894874
H           1.45739791        0.91421200       -0.28894867
H           1.45739791       -0.91421200        0.28894868
6
MD Time 290.00
C          -0.90394380       -0.00000000        0.00000000
C           0.90394379       -0.00000000       -0.00000000
H          -1.44857078        0.91628865        0.28294350
H          -1.44857077       -0.91628865       -0.28294350
H           1.44857081        0.91628865       -0.28294342
H           1.44857081       -0.91628865        0.28294343
6
MD Time 300.00
C          -0.89656643       -0.00000000        0.00000000
C           0.89656643       -0.00000000       -0.00000000
H          -1.43952928        0.91826814        0.27661622
H          -1.43952928       -0.91826814       -0.27661623
H           1.43952931        0.91826814       -0.27661615
H           1.43952931       -0.91826814        0.27661615
6
MD Time 310.00
C          -0.88888258       -0.00000000        0.00000000
C           0.88888258       -0.00000000       -0.00000000
H          -1.43029196        0.92015652        0.26996615
H          -1.43029196       -0.92015652       -0.26996615
H           1.43029199        0.92015652       -0.26996607
H           1.43029199       -0.92015652        0.26996607
6
MD Time 320.00
C          -0.88088685       -0.00000000        0.00000000
C           0.88088685       -0.00000000       -0.00000000
H          -1.42087780        0.92196086        0.26299304
H          -1.42087780       -0.92196086       -0.26299304
H           1.42087783        0.92196086       -0.26299296
H           1.42087783       -0.92196086        0.26299296
6
MD Time 330.00
C          -0.87257418       -0.00000000        0.00000000
C           0.87257418       -0.00000000       -0.00000000
H          -1.41130605        0.92368893        0.25569713
H          -1.41130605       -0.92368893       -0.25569714
H           1.41130608        0.92368893       -0.25569705
H           1.41130608       -0.92368893        0.25569706
6
MD Time 340.00
C          -0.86393998       -0.00000000        0.00000000
C           0.86393998       -0.00000000       -0.00000000
H          -1.40159593        0.92534880        0.24807910
H          -1.40159593       -0.92534880       -0.24807911
H           1.40159596        0.92534880       -0.24807901
H           1.40159596       -0.92534880        0.24807902
6
MD Time 350.00
C          -0.85498030       -0.00000000        0.00000000
C           0.85498029       -0.00000000       -0.00000000
H          -1.39176645        0.92694846        0.24013999
H          -1.39176645       -0.92694846       -0.24013999
H           1.39176648        0.92694846       -0.24013990
H           1.39176648       -0.92694846        0.24013991
6
MD Time 360.00
C          -0.84569198       -0.00000000        0.00000000
C           0.84569198       -0.00000000       -0.00000000
H          -1.38183616        0.92849538        0.23188123
H          -1.38183616       -0.92849538       -0.23188123
H           1.38183619        0.92849538       -0.23188114
H           1.38183619       -0.92849538        0.23188114
6
MD Time 370.00
C          -0.83607293       -0.00000000        0.00000000
C           0.83607292       -0.00000000       -0.00000000
H          -1.37182294        0.92999613        0.22330461
H          -1.37182293       -0.92999613       -0.22330462
H           1.37182296        0.92999613       -0.22330452
H           1.37182296       -0.92999613        0.22330453
6
MD Time 380.00
C          -0.82612228       -0.00000000        0.00000000
C           0.82612227       -0.00000000       -0.00000000
H          -1.36174374        0.93145598        0.21441235
H          -1.36174374       -0.93145598       -0.21441236
H           1.36174377        0.93145598       -0.21441226
H           1.36174377       -0.93145598        0.21441227
6
MD Time 390.00
C          -0.81584073       -0.00000000        0.00000000
C           0.81584073       -0.00000000       -0.00000000
H          -1.35161447        0.93287852        0.20520711
H          -1.35161447       -0.93287852       -0.20520712
H           1.35161449        0.93287852       -0.20520701
H           1.35161449       -0.93287852        0.20520702
6
MD Time 400.00
C          -0.80523084       -0.00000000        0.00000000
C           0.80523084       -0.00000000       -0.00000000
H          -1.34144974        0.93426534        0.19569209
H          -1.34144974       -0.93426533       -0.19569210
H           1.34144976        0.93426534       -0.19569199
H           1.34144976       -0.93426534        0.19569200
6
MD Time 410.00
C          -0.79429737       -0.00000000        0.00000000
C           0.79429737       -0.00000000       -0.00000000
H          -1.33126276        0.93561574        0.18587117
H          -1.33126276       -0.93561574       -0.18587118
H           1.33126278        0.93561575       -0.18587107
H           1.33126278       -0.93561574        0.18587108
6
MD Time 420.00
C          -0.78304769       -0.00000000        0.00000000
C           0.78304769       -0.00000000       -0.00000000
H          -1.32106524        0.93692654        0.17574900
H          -1.32106524       -0.93692654       -0.17574901
H           1.32106525        0.93692654       -0.17574890
H           1.32106525       -0.93692654        0.17574891
6
MD Time 430.00
C          -0.77149227       -0.00000000        0.00000000
C           0.77149227       -0.00000000       -0.00000000
H          -1.31086730        0.93819191        0.16533122
H          -1.31086730       -0.93819191       -0.16533123
H           1.31086732        0.93819192       -0.16533112
H           1.31086731       -0.93819191        0.16533112
6
MD Time 440.00
C          -0.75964518       -0.00000000        0.00000000
C           0.75964517       -0.00000000       -0.00000000
H          -1.30067750        0.93940334        0.15462461
H          -1.30067749       -0.93940334       -0.15462462
H           1.30067751        0.93940335       -0.15462450
H           1.30067751       -0.93940335        0.15462451
6
MD Time 450.00
C          -0.74752467       -0.00000000        0.00000000
C           0.74752467       -0.00000000       -0.00000000
H          -1.29050283        0.94054970        0.14363730
H          -1.29050283       -0.94054970       -0.14363731
H           1.29050284        0.94054971       -0.14363720
H           1.29050284       -0.94054971        0.14363721
6
MD Time 460.00
C          -0.73515390       -0.00000000        0.00000000
C           0.73515389       -0.00000000       -0.00000000
H          -1.28034888        0.94161733        0.13237901
H          -1.28034888       -0.94161733       -0.13237902
H           1.28034889        0.94161734       -0.13237891
H           1.28034889       -0.94161734        0.13237892
6
MD Time 470.00
C          -0.72256158       -0.00000000        0.00000000
C           0.72256158        0.00000000       -0.00000000
H          -1.27021997        0.94259035        0.12086121
H          -1.27021996       -0.94259035       -0.12086122
H           1.27021997        0.94259036       -0.12086111
H           1.27021997       -0.94259036        0.12086112
6
MD Time 480.00
C          -0.70978289       -0.00000000        0.00000000
C           0.70978289        0.00000000       -0.00000000
H          -1.26011938        0.94345097        0.10909736
H          -1.26011938       -0.94345097       -0.10909737
H           1.26011938        0.94345098       -0.10909726
H           1.26011938       -0.94345098        0.10909727
6
MD Time 490.00
C          -0.69686028       -0.00000000        0.00000000
C           0.69686028        0.00000000       -0.00000000
H          -1.25004972        0.94417992        0.09710307
H          -1.25004972       -0.94417992       -0.09710308
H           1.25004972        0.94417993       -0.09710297
H           1.25004972       -0.94417993        0.09710298
6
MD Time 500.00
C          -0.68384446       -0.00000000        0.00000000
C           0.68384446        0.00000000       -0.00000000
H          -1.24001326        0.94475703        0.08489626
H          -1.24001326       -0.94475703       -0.08489627
H           1.24001326        0.94475704       -0.08489615
H           1.24001325       -0.94475704        0.08489616
6
MD Time 510.00
C          -0.67079530       -0.00000000        0.00000000
C           0.67079530        0.00000000       -0.00000000
H          -1.23001241        0.94516178        0.07249727
H          -1.23001241       -0.94516178       -0.07249728
H           1.23001241        0.94516180       -0.07249716
H           1.23001240       -0.94516180        0.07249717
6
MD Time 520.00
C          -0.65778280       -0.00000000        0.00000000
C           0.65778281        0.00000000       -0.00000000
H          -1.22005025        0.94537405        0.05992892
H          -1.22005025       -0.94537405       -0.05992893
H           1.22005024        0.94537407       -0.05992882
H           1.22005024       -0.94537407        0.05992883
6
MD Time 530.00
C          -0.64488792       -0.00000000        0.00000000
C           0.64488792        0.00000000       -0.00000000
H          -1.21013109        0.94537479        0.04721654
H          -1.21013109       -0.94537480       -0.04721655
H           1.21013108        0.94537481       -0.04721644
H           1.21013108       -0.94537481        0.04721645
6
MD Time 540.00
C          -0.63220318       -0.00000000        0.00000000
C           0.63220318        0.00000000       -0.00000000
H          -1.20026114        0.94514686        0.03438790
H          -1.20026114       -0.94514686       -0.03438791
H           1.20026113        0.94514687       -0.03438780
H           1.20026113       -0.94514687        0.03438781
6
MD Time 550.00
C          -0.61983302       -0.00000000        0.00000000
C           0.61983302        0.00000000       -0.00000000
H          -1.19044918        0.94467578        0.02147308
H          -1.19044917       -0.94467578       -0.02147309
H           1.19044916        0.94467580       -0.02147298
H           1.19044916       -0.94467580        0.02147299
6
MD Time 560.00
C          -0.60789364       -0.00000000        0.00000000
C           0.60789365        0.00000000       -0.00000000
H          -1.18070723        0.94395063        0.00850432
H          -1.18070722       -0.94395063       -0.00850434
H           1.18070721        0.94395065       -0.00850423
H           1.18070720       -0.94395065        0.00850424
6
MD Time 570.00
C          -0.59651220       -0.00000000        0.00000000
C           0.59651220        0.00000000       -0.00000000
H          -1.17105131        0.94296484       -0.00448425
H          -1.17105131       -0.94296484        0.00448424
H           1.17105129        0.94296486        0.00448434
H           1.17105129       -0.94296486       -0.00448433
6
MD Time 580.00
C          -0.58582511        0.00000000        0.00000000
C           0.58582512        0.00000000       -0.00000000
H          -1.16150210        0.94171704       -0.01745695
H          -1.16150210       -0.94171705        0.01745694
H           1.16150208        0.94171706        0.01745704
H           1.16150208       -0.94171706       -0.01745703
6
MD Time 590.00
C          -0.57597544        0.00000000        0.00000000
C           0.57597544        0.00000000       -0.00000000
H          -1.15208557        0.94021189       -0.03037691
H          -1.15208557       -0.94021189        0.03037690
H           1.15208554        0.94021191        0.03037700
H           1.15208554       -0.94021191       -0.03037699
6
MD Time 600.00
C          -0.56710899        0.00000000        0.00000000
C           0.56710900        0.00000000       -0.00000000
H          -1.14283350        0.93846086       -0.04320654
H          -1.14283350       -0.93846087        0.04320653
H           1.14283347        0.93846088        0.04320662
H           1.14283347       -0.93846088       -0.04320661
6
MD Time 610.00
C          -0.55936940        0.00000000        0.00000000
C           0.55936941        0.00000000       -0.00000000
H          -1.13378398        0.93648301       -0.05590798
H          -1.13378398       -0.93648301        0.05590797
H           1.13378394        0.93648302        0.05590806
H           1.13378394       -0.93648302       -0.05590805
6
MD Time 620.00
C          -0.55289210        0.00000000        0.00000000
C           0.55289211        0.00000000       -0.00000000
H          -1.12498162        0.93430564       -0.06844373
H          -1.12498162       -0.93430565        0.06844371
H           1.12498158        0.93430566        0.06844380
H           1.12498158       -0.93430566       -0.06844379
6
MD Time 630.00
C          -0.54779769        0.00000000        0.00000000
C           0.54779769        0.00000000       -0.00000000
H          -1.11647768        0.93196493       -0.08077714
H          -1.11647768       -0.93196493        0.08077713
H           1.11647764        0.93196495        0.08077721
H           1.11647764       -0.93196495       -0.08077720
6
MD Time 640.00
C          -0.54418514        0.00000000        0.00000000
C           0.54418515        0.00000000       -0.00000000
H          -1.10832998        0.92950633       -0.09287312
H          -1.10832998       -0.92950633        0.09287311
H           1.10832994        0.92950634        0.09287318
H           1.10832994       -0.92950634       -0.09287317
6
MD Time 650.00
C          -0.54212564        0.00000000        0.00000000
C           0.54212565        0.00000000       -0.00000000
H          -1.10060249        0.92698479       -0.10469870
H          -1.10060248       -0.92698479        0.10469869
H           1.10060244        0.92698480        0.10469875
H           1.10060244       -0.92698480       -0.10469875
6
MD Time 660.00
C          -0.54165770        0.00000000        0.00000000
C           0.54165771        0.00000000       -0.00000000
H          -1.09336473        0.92446467       -0.11622369
H          -1.09336472       -0.92446467        0.11622368
H           1.09336468        0.92446468        0.11622374
H           1.09336468       -0.92446468       -0.11622373
6
MD Time 670.00
C          -0.54278433        0.00000000        0.00000000
C           0.54278433        0.00000000       -0.00000000
H          -1.08669085        0.92201922       -0.12742130
H          -1.08669084       -0.92201922        0.12742129
H           1.08669080        0.92201923        0.12742134
H           1.08669080       -0.92201923       -0.12742133
6
MD Time 680.00
C          -0.54547254        0.00000000        0.00000000
C           0.54547255        0.00000000       -0.00000000
H          -1.08065836        0.91972958       -0.13826863
H          -1.08065836       -0.91972959        0.13826862
H           1.08065832        0.91972960        0.13826867
H           1.08065832       -0.91972960       -0.13826867
6
MD Time 690.00
C          -0.54965547        0.00000000        0.00000000
C           0.54965548        0.00000000       -0.00000000
H          -1.07534658        0.91768319       -0.14874716
H          -1.07534658       -0.91768319        0.14874715
H           1.07534653        0.91768320        0.14874720
H           1.07534653       -0.91768321       -0.14874719
6
MD Time 700.00
C          -0.55523660        0.00000000        0.00000000
C           0.55523661        0.00000000       -0.00000000
H          -1.07083465        0.91597146       -0.15884293
H          -1.07083465       -0.91597146        0.15884293
H           1.07083461        0.91597147        0.15884296
H           1.07083460       -0.91597147       -0.15884296
6
MD Time 710.00
C          -0.56209572        0.00000000        0.00000000
C           0.56209572        0.00000000       -0.00000000
H          -1.06719944        0.91468687       -0.16854659
H          -1.06719943       -0.91468687        0.16854658
H           1.06719939        0.91468689        0.16854661
H           1.06719939       -0.91468689       -0.16854661
6
MD Time 720.00
C          -0.57009572        0.00000000        0.00000000
C           0.57009573        0.00000000       -0.00000000
H          -1.06451305        0.91391944       -0.17785312
H          -1.06451305       -0.91391945        0.17785311
H           1.06451300        0.91391946        0.17785314
H           1.06451300       -0.91391946       -0.17785313
6
MD Time 730.00
C          -0.57908966        0.00000000        0.00000000
C           0.57908967        0.00000000       -0.00000000
H          -1.06284042        0.91375270       -0.18676128
H          -1.06284042       -0.91375271        0.18676127
H           1.06284038        0.91375272        0.18676129
H           1.06284037       -0.91375272       -0.18676128
6
MD Time 740.00
C          -0.58892726        0.00000000        0.00000000
C           0.58892727        0.00000000       -0.00000000
H          -1.06223689        0.91425948       -0.19527273
H          -1.06223689       -0.91425949        0.19527272
H           1.06223684        0.91425950        0.19527273
H           1.06223684       -0.91425950       -0.19527273
6
MD Time 750.00
C          -0.59946051        0.00000000        0.00000000
C           0.59946052        0.00000000       -0.00000000
H          -1.06274608        0.91549777       -0.20339097
H          -1.06274607       -0.91549777        0.20339096
H           1.06274603        0.91549779        0.20339096
H           1.06274603       -0.91549779       -0.20339096
6
MD Time 760.00
C          -0.61054814        0.00000000        0.00000000
C           0.61054815        0.00000000       -0.00000000
H          -1.06439820        0.91750695       -0.21112006
H          -1.06439820       -0.91750696        0.21112005
H           1.06439816        0.91750697        0.21112005
H           1.06439816       -0.91750698       -0.21112005
6
MD Time 770.00
C          -0.62205881        0.00000000        0.00000000
C           0.62205882        0.00000000       -0.00000000
H          -1.06720896        0.92030488       -0.21846341
H          -1.06720896       -0.92030488        0.21846340
H           1.06720892        0.92030490        0.21846339
H           1.06720892       -0.92030491       -0.21846339
6
MD Time 780.00
C          -0.63387317        0.00000000        0.00000000
C           0.63387317        0.00000000       -0.00000000
H          -1.07117905        0.92388587       -0.22542258
H          -1.07117905       -0.92388588        0.22542257
H           1.07117901        0.92388590        0.22542256
H           1.07117901       -0.92388590       -0.22542255
6
MD Time 790.00
C          -0.64588484        0.00000000        0.00000000
C           0.64588484        0.00000000       -0.00000000
H          -1.07629441        0.92822000       -0.23199640
H          -1.07629441       -0.92822001        0.23199639
H           1.07629437        0.92822003        0.23199637
H           1.07629437       -0.92822003       -0.23199636
6
MD Time 800.00
C          -0.65800069       -0.00000000        0.00000000
C           0.65800070        0.00000000        0.00000000
H          -1.08252702        0.93325365       -0.23818031
H          -1.08252702       -0.93325366        0.23818030
H           1.08252699        0.93325368        0.23818027
H           1.08252699       -0.93325368       -0.23818027
6
MD Time 810.00
C          -0.67014043       -0.00000000        0.00000000
C           0.67014044        0.00000000        0.00000000
H          -1.08983628        0.93891125       -0.24396614
H          -1.08983627       -0.93891126        0.24396613
H           1.08983625        0.93891128        0.24396609
H           1.08983624       -0.93891128       -0.24396608
6
MD Time 820.00
C          -0.68223580       -0.00000000        0.00000000
C           0.68223581        0.00000000        0.00000000
H          -1.09817067        0.94509806       -0.24934216
H          -1.09817067       -0.94509807        0.24934216
H           1.09817065        0.94509809        0.24934211
H           1.09817065       -0.94509810       -0.24934210
6
MD Time 830.00
C          -0.69422951       -0.00000000        0.00000000
C           0.69422951        0.00000000        0.00000000
H          -1.10746976        0.95170369       -0.25429356
H          -1.10746976       -0.95170369        0.25429355
H           1.10746973        0.95170372        0.25429349
H           1.10746973       -0.95170372       -0.25429349
6
MD Time 840.00
C          -0.70607408       -0.00000000        0.00000000
C           0.70607408        0.00000000        0.00000000
H          -1.11766609        0.95860603       -0.25880300
H          -1.11766609       -0.95860604        0.25880299
H           1.11766607        0.95860606        0.25880293
H           1.11766607       -0.95860607       -0.25880293
6
MD Time 850.00
C          -0.71773063       -0.00000000        0.00000000
C           0.71773063        0.00000000        0.00000000
H          -1.12868718        0.96567540       -0.26285148
H          -1.12868718       -0.96567540        0.26285148
H           1.12868716        0.96567543        0.26285140
H           1.12868716       -0.96567543       -0.26285140
6
MD Time 860.00
C          -0.72916771       -0.00000000        0.00000000
C           0.72916771        0.00000000        0.00000000
H          -1.14045725        0.97277845       -0.26641918
H          -1.14045725       -0.97277845        0.26641917
H           1.14045723        0.97277848        0.26641909
H           1.14045723       -0.97277848       -0.26641909
6
MD Time 870.00
C          -0.74036022       -0.00000000        0.00000000
C           0.74036023        0.00000000        0.00000000
H          -1.15289881        0.97978187       -0.26948628
H          -1.15289880       -0.97978188        0.26948627
H           1.15289879        0.97978191        0.26948618
H           1.15289879       -0.97978191       -0.26948618
6
MD Time 880.00
C          -0.75128846       -0.00000000        0.00000000
C           0.75128846        0.00000000        0.00000000
H          -1.16593394        0.98655553       -0.27203379
H          -1.16593394       -0.98655553        0.27203378
H           1.16593393        0.98655556        0.27203368
H           1.16593393       -0.98655556       -0.27203368
6
MD Time 890.00
C          -0.76193720       -0.00000000       -0.00000000
C           0.76193720        0.00000000        0.00000000
H          -1.17948541        0.99297511       -0.27404420
H          -1.17948541       -0.99297511        0.27404419
H           1.17948540        0.99297515        0.27404409
H           1.17948540       -0.99297515       -0.27404409
6
MD Time 900.00
C          -0.77229500       -0.00000000       -0.00000000
C           0.77229500        0.00000000        0.00000000
H          -1.19347749        0.99892427       -0.27550206
H          -1.19347749       -0.99892427        0.27550205
H           1.19347749        0.99892431        0.27550193
H           1.19347749       -0.99892431       -0.27550193
6
MD Time 910.00
C          -0.78235352       -0.00000000       -0.00000000
C           0.78235352        0.00000000        0.00000000
H          -1.20783662        1.00429619       -0.27639436
H          -1.20783661       -1.00429619        0.27639435
H           1.20783662        1.00429623        0.27639423
H           1.20783661       -1.00429623       -0.27639423
6
MD Time 920.00
C          -0.79210695       -0.00000000       -0.00000000
C           0.79210695        0.00000000        0.00000000
H          -1.22249185        1.00899477       -0.27671090
H          -1.22249185       -1.00899478        0.27671089
H           1.22249185        1.00899481        0.27671076
H           1.22249185       -1.00899481       -0.27671076
6
MD Time 930.00
C          -0.80155159       -0.00000000       -0.00000000
C           0.80155158        0.00000000        0.00000000
H          -1.23737524        1.01293539       -0.27644443
H          -1.23737523       -1.01293539        0.27644442
H           1.23737524        1.01293543        0.27644428
H           1.23737524       -1.01293543       -0.27644428
6
MD Time 940.00
C          -0.81068538       -0.00000000       -0.00000000
C           0.81068538        0.00000000        0.00000000
H          -1.25242202        1.01604538       -0.27559082
H          -1.25242202       -1.01604538        0.27559081
H           1.25242203        1.01604542        0.27559066
H           1.25242202       -1.01604542       -0.27559066
6
MD Time 950.00
C          -0.81950763       -0.00000000       -0.00000000
C           0.81950763        0.00000000        0.00000000
H          -1.26757082        1.01826431       -0.27414907
H          -1.26757081       -1.01826431        0.27414906
H           1.26757083        1.01826435        0.27414891
H           1.26757083       -1.01826435       -0.27414891
6
MD Time 960.00
C          -0.82801866       -0.00000000       -0.00000000
C           0.82801866        0.00000000        0.00000000
H          -1.28276373        1.01954408       -0.27212133
H          -1.28276372       -1.01954408        0.27212132
H           1.28276374        1.01954412        0.27212116
H           1.28276374       -1.01954412       -0.27212115
6
MD Time 970.00
C          -0.83621957       -0.00000000       -0.00000000
C           0.83621957        0.00000000        0.00000000
H          -1.29794640        1.01984893       -0.26951284
H          -1.29794640       -1.01984893        0.26951283
H           1.29794642        1.01984896        0.26951265
H           1.29794642       -1.01984896       -0.26951265
6
MD Time 980.00
C          -0.84411205       -0.00000000       -0.00000000
C           0.84411205        0.00000000        0.00000000
H          -1.31306814        1.01915540       -0.26633188
H          -1.31306814       -1.01915540        0.26633187
H           1.31306816        1.01915543        0.26633169
H           1.31306816       -1.01915543       -0.26633169
6
MD Time 990.00
C          -0.85169815       -0.00000000       -0.00000000
C           0.85169814        0.00000000        0.00000000
H          -1.32808194        1.01745227       -0.26258970
H          -1.32808194       -1.01745227        0.26258969
H           1.32808196        1.01745231        0.26258950
H           1.32808196       -1.01745231       -0.26258950
6
MD Time 1000.00
C          -0.85898010       -0.00000000       -0.00000000
C           0.85898010        0.00000000        0.00000000
H          -1.34294462        1.01474051       -0.25830042
H          -1.34294461       -1.01474051        0.25830041
H           1.34294464        1.01474055        0.25830021
H           1.34294464       -1.01474055       -0.25830021
6
MD Time 1010.00
C          -0.86596022       -0.00000000       -0.00000000
C           0.86596021        0.00000000        0.00000000
H          -1.35761689        1.01103324       -0.25348092
H          -1.35761688       -1.01103324        0.25348091
H           1.35761691        1.01103328        0.25348071
H           1.35761691       -1.01103327       -0.25348071
6
MD Time 1020.00
C          -0.87264069       -0.00000000       -0.00000000
C           0.87264069        0.00000000        0.00000000
H          -1.37206352        1.00635567       -0.24815078
H          -1.37206352       -1.00635568        0.24815077
H           1.37206355        1.00635571        0.24815056
H           1.37206355       -1.00635571       -0.24815056
6
MD Time 1030.00
C          -0.87902352       -0.00000000       -0.00000000
C           0.87902351        0.00000000        0.00000000
H          -1.38625351        1.00074517       -0.24233209
H          -1.38625351       -1.00074517        0.24233208
H           1.38625354        1.00074521        0.24233186
H           1.38625354       -1.00074521       -0.24233186
6
MD Time 1040.00
C          -0.88511034       -0.00000000       -0.00000000
C           0.88511034        0.00000000        0.00000000
H          -1.40016023        0.99425114       -0.23604938
H          -1.40016023       -0.99425115        0.23604937
H           1.40016026        0.99425118        0.23604915
H           1.40016026       -0.99425118       -0.23604914
6
MD Time 1050.00
C          -0.89090238       -0.00000000       -0.00000000
C           0.89090237        0.00000000        0.00000000
H          -1.41376162        0.98693505       -0.22932942
H          -1.41376162       -0.98693505        0.22932941
H           1.41376165        0.98693508        0.22932918
H           1.41376165       -0.98693508       -0.22932918
6
MD Time 1060.00
C          -0.89640030       -0.00000000       -0.00000000
C           0.89640030        0.00000000        0.00000000
H          -1.42704038        0.97887021       -0.22220104
H          -1.42704038       -0.97887021        0.22220103
H           1.42704041        0.97887024        0.22220080
H           1.42704041       -0.97887024       -0.22220080
6
MD Time 1070.00
C          -0.90160418       -0.00000000       -0.00000000
C           0.90160418        0.00000000        0.00000000
H          -1.43998412        0.97014158       -0.21469488
H          -1.43998412       -0.97014159        0.21469487
H           1.43998415        0.97014162        0.21469463
H           1.43998415       -0.97014162       -0.21469463
6
MD Time 1080.00
C          -0.90651342       -0.00000000       -0.00000000
C           0.90651341        0.00000000        0.00000000
H          -1.45258543        0.96084533       -0.20684308
H          -1.45258543       -0.96084534        0.20684307
H           1.45258546        0.96084537        0.20684282
H           1.45258546       -0.96084537       -0.20684282
6
MD Time 1090.00
C          -0.91112670       -0.00000000       -0.00000000
C           0.91112669        0.00000000        0.00000000
H          -1.46484190        0.95108814       -0.19867895
H          -1.46484190       -0.95108815        0.19867894
H           1.46484193        0.95108818        0.19867869
H           1.46484193       -0.95108818       -0.19867869
6
MD Time 1100.00
C          -0.91544200       -0.00000000       -0.00000000
C           0.91544199        0.00000000        0.00000000
H          -1.47675599        0.94098630       -0.19023654
H          -1.47675598       -0.94098630        0.19023653
H           1.47675602        0.94098634        0.19023628
H           1.47675602       -0.94098634       -0.19023628
6
MD Time 1110.00
C          -0.91945660       -0.00000000       -0.00000000
C           0.91945660        0.00000000        0.00000000
H          -1.48833471        0.93066438       -0.18155015
H          -1.48833471       -0.93066439        0.18155014
H           1.48833474        0.93066442        0.18154989
H           1.48833474       -0.93066442       -0.18154988
6
MD Time 1120.00
C          -0.92316719       -0.00000000       -0.00000000
C           0.92316718        0.00000000        0.00000000
H          -1.49958914        0.92025360       -0.17265378
H          -1.49958914       -0.92025360        0.17265377
H           1.49958918        0.92025363        0.17265351
H           1.49958918       -0.92025363       -0.17265350
6
MD Time 1130.00
C          -0.92656991       -0.00000000       -0.00000000
C           0.92656990        0.00000000        0.00000000
H          -1.51053363        0.90988971       -0.16358050
H          -1.51053363       -0.90988972        0.16358049
H           1.51053367        0.90988974        0.16358023
H           1.51053366       -0.90988974       -0.16358022
6
MD Time 1140.00
C          -0.92966060       -0.00000000       -0.00000000
C           0.92966059        0.00000000        0.00000000
H          -1.52118478        0.89971055       -0.15436190
H          -1.52118477       -0.89971055        0.15436188
H           1.52118481        0.89971058        0.15436162
H           1.52118481       -0.89971058       -0.15436162
6
MD Time 1150.00
C          -0.93243496       -0.00000000       -0.00000000
C           0.93243496        0.00000000        0.00000000
H          -1.53156011        0.88985316       -0.14502739
H          -1.53156011       -0.88985316        0.14502738
H           1.53156015        0.88985319        0.14502711
H           1.53156015       -0.88985319       -0.14502710
6
MD Time 1160.00
C          -0.93488884       -0.00000000       -0.00000000
C           0.93488884        0.00000000        0.00000000
H          -1.54167654        0.88045070       -0.13560367
H          -1.54167654       -0.88045070        0.13560366
H           1.54167657        0.88045073        0.13560339
H           1.54167657       -0.88045073       -0.13560339
6
MD Time 1170.00
C          -0.93701852       -0.00000000       -0.00000000
C           0.93701851        0.00000000        0.00000000
H          -1.55154856        0.87162913       -0.12611423
H          -1.55154856       -0.87162913        0.12611422
H           1.55154860        0.87162915        0.12611395
H           1.55154860       -0.87162915       -0.12611395
6
MD Time 1180.00
C          -0.93882100       -0.00000000       -0.00000000
C           0.93882100        0.00000000        0.00000000
H          -1.56118644        0.86350393       -0.11657895
H          -1.56118644       -0.86350393        0.11657894
H           1.56118647        0.86350395        0.11657867
H           1.56118647       -0.86350395       -0.11657867
6
MD Time 1190.00
C          -0.94029438       -0.00000000       -0.00000000
C           0.94029438        0.00000000        0.00000000
H          -1.57059429        0.85617699       -0.10701392
H          -1.57059429       -0.85617699        0.10701391
H           1.57059433        0.85617701        0.10701364
H           1.57059433       -0.85617701       -0.10701364
6
MD Time 1200.00
C          -0.94143809       -0.00000000       -0.00000000
C           0.94143809        0.00000000        0.00000000
H          -1.57976843        0.84973387       -0.09743141
H          -1.57976843       -0.84973388        0.09743140
H           1.57976847        0.84973389        0.09743113
H           1.57976846       -0.84973389       -0.09743113
6
MD Time 1210.00
C          -0.94225315       -0.00000000       -0.00000000
C           0.94225314        0.00000000        0.00000000
H          -1.58869593        0.84424164       -0.08784004
H          -1.58869593       -0.84424164        0.08784003
H           1.58869596        0.84424165        0.08783976
H           1.58869596       -0.84424165       -0.08783975
6
MD Time 1220.00
C          -0.94274231       -0.00000000       -0.00000000
C           0.94274231        0.00000000        0.00000000
H          -1.59735364        0.83974732       -0.07824516
H          -1.59735364       -0.83974732        0.07824515
H           1.59735367        0.83974733        0.07824487
H           1.59735367       -0.83974733       -0.07824487
6
MD Time 1230.00
C          -0.94291019       -0.00000000       -0.00000000
C           0.94291019        0.00000000        0.00000000
H          -1.60570775        0.83627724       -0.06864937
H          -1.60570775       -0.83627725        0.06864936
H           1.60570778        0.83627725        0.06864908
H           1.60570778       -0.83627725       -0.06864907
6
MD Time 1240.00
C          -0.94276318       -0.00000000       -0.00000000
C           0.94276318        0.00000000        0.00000000
H          -1.61371392        0.83383712       -0.05905316
H          -1.61371391       -0.83383712        0.05905315
H           1.61371394        0.83383712        0.05905287
H           1.61371394       -0.83383712       -0.05905287
6
MD Time 1250.00
C          -0.94230937       -0.00000000       -0.00000000
C           0.94230937        0.00000000        0.00000000
H          -1.62131795        0.83241287       -0.04945569
H          -1.62131795       -0.83241288        0.04945569
H           1.62131797        0.83241288        0.04945540
H           1.62131797       -0.83241288       -0.04945540
6
MD Time 1260.00
C          -0.94155832       -0.00000000       -0.00000000
C           0.94155832        0.00000000        0.00000000
H          -1.62845708        0.83197221       -0.03985546
H          -1.62845707       -0.83197221        0.03985545
H           1.62845710        0.83197221        0.03985517
H           1.62845710       -0.83197221       -0.03985517
6
MD Time 1270.00
C          -0.94052079       -0.00000000       -0.00000000
C           0.94052079        0.00000000        0.00000000
H          -1.63506158        0.83246660       -0.03025104
H          -1.63506158       -0.83246660        0.03025103
H           1.63506160        0.83246660        0.03025075
H           1.63506160       -0.83246660       -0.03025074
6
MD Time 1280.00
C          -0.93920841       -0.00000000       -0.00000000
C           0.93920840        0.00000000        0.00000000
H          -1.64105679        0.83383371       -0.02064170
H          -1.64105678       -0.83383372        0.02064169
H           1.64105680        0.83383371        0.02064140
H           1.64105680       -0.83383371       -0.02064140
6
MD Time 1290.00
C          -0.93763331       -0.00000000       -0.00000000
C           0.93763331        0.00000000        0.00000000
H          -1.64636511        0.83599998       -0.01102791
H          -1.64636511       -0.83599998        0.01102790
H           1.64636513        0.83599998        0.01102761
H           1.64636513       -0.83599998       -0.01102760
6
MD Time 1300.00
C          -0.93580779       -0.00000000       -0.00000000
C           0.93580779        0.00000000        0.00000000
H          -1.65090824        0.83888320       -0.00141174
H          -1.65090824       -0.83888320        0.00141173
H           1.65090825        0.83888319        0.00141143
H           1.65090825       -0.83888319       -0.00141143
6
MD Time 1310.00
C          -0.93374397       -0.00000000       -0.00000000
C           0.93374397        0.00000000        0.00000000
H          -1.65460911        0.84239504        0.00820289
H          -1.65460911       -0.84239504       -0.00820290
H           1.65460912        0.84239502       -0.00820320
H           1.65460912       -0.84239502        0.00820320
6
MD Time 1320.00
C          -0.93145348       -0.00000000       -0.00000000
C           0.93145348        0.00000000        0.00000000
H          -1.65739375        0.84644339        0.01781005
H          -1.65739374       -0.84644340       -0.01781005
H           1.65739375        0.84644338       -0.01781036
H           1.65739375       -0.84644338        0.01781036
6
MD Time 1330.00
C          -0.92894720       -0.00000000       -0.00000000
C           0.92894720        0.00000000        0.00000000
H          -1.65919284        0.85093446        0.02740176
H          -1.65919284       -0.85093447       -0.02740177
H           1.65919285        0.85093445       -0.02740208
H           1.65919285       -0.85093445        0.02740208
6
MD Time 1340.00
C          -0.92623506       -0.00000000       -0.00000000
C           0.92623506        0.00000000        0.00000000
H          -1.65994308        0.85577455        0.03696808
H          -1.65994307       -0.85577455       -0.03696809
H           1.65994308        0.85577453       -0.03696841
H           1.65994308       -0.85577453        0.03696841
6
MD Time 1350.00
C          -0.92332585       -0.00000000       -0.00000000
C           0.92332585        0.00000000        0.00000000
H          -1.65958812        0.86087159        0.04649720
H          -1.65958812       -0.86087159       -0.04649721
H           1.65958812        0.86087157       -0.04649753
H           1.65958811       -0.86087157        0.04649754
6
MD Time 1360.00
C          -0.92022711       -0.00000000       -0.00000000
C           0.92022712        0.00000000        0.00000000
H          -1.65807941        0.86613645        0.05597560
H          -1.65807941       -0.86613645       -0.05597561
H           1.65807941        0.86613642       -0.05597594
H           1.65807940       -0.86613642        0.05597594
6
MD Time 1370.00
C          -0.91694507       -0.00000000       -0.00000000
C           0.91694507        0.00000000        0.00000000
H          -1.65537671        0.87148394        0.06538828
H          -1.65537671       -0.87148394       -0.06538829
H           1.65537670        0.87148391       -0.06538863
H           1.65537670       -0.87148391        0.06538864
6
MD Time 1380.00
C          -0.91348455       -0.00000000       -0.00000000
C           0.91348455        0.00000000        0.00000000
H          -1.65144844        0.87683366        0.07471900
H          -1.65144844       -0.87683366       -0.07471901
H           1.65144843        0.87683363       -0.07471936
H           1.65144842       -0.87683363        0.07471936
6
MD Time 1390.00
C          -0.90984897       -0.00000000       -0.00000000
C           0.90984897        0.00000000        0.00000000
H          -1.64627186        0.88211067        0.08395047
H          -1.64627186       -0.88211067       -0.08395048
H           1.64627184        0.88211064       -0.08395083
H           1.64627184       -0.88211064        0.08395084
6
MD Time 1400.00
C          -0.90604037       -0.00000000       -0.00000000
C           0.90604038        0.00000000        0.00000000
H          -1.63983318        0.88724602        0.09306464
H          -1.63983318       -0.88724602       -0.09306465
H           1.63983316        0.88724599       -0.09306501
H           1.63983316       -0.88724599        0.09306502
6
MD Time 1410.00
C          -0.90205940       -0.00000000       -0.00000000
C           0.90205940        0.00000000        0.00000000
H          -1.63212755        0.89217722        0.10204292
H          -1.63212755       -0.89217722       -0.10204292
H           1.63212753        0.89217718       -0.10204330
H           1.63212753       -0.89217718        0.10204330
6
MD Time 1420.00
C          -0.89790532       -0.00000000       -0.00000000
C           0.89790532        0.00000000        0.00000000
H          -1.62315901        0.89684860        0.11086641
H          -1.62315901       -0.89684860       -0.11086642
H           1.62315899        0.89684856       -0.11086680
H           1.62315898       -0.89684856        0.11086681
6
MD Time 1430.00
C          -0.89357611       -0.00000000       -0.00000000
C           0.89357611        0.00000000        0.00000000
H          -1.61294040        0.90121166        0.11951617
H          -1.61294039       -0.90121166       -0.11951618
H           1.61294037        0.90121162       -0.11951658
H           1.61294037       -0.90121162        0.11951658
6
MD Time 1440.00
C          -0.88906844       -0.00000000       -0.00000000
C           0.88906845        0.00000000        0.00000000
H          -1.60149326        0.90522539        0.12797342
H          -1.60149326       -0.90522539       -0.12797343
H           1.60149323        0.90522535       -0.12797384
H           1.60149323       -0.90522535        0.12797385
6
MD Time 1450.00
C          -0.88437777       -0.00000000       -0.00000000
C           0.88437778        0.00000000        0.00000000
H          -1.58884777        0.90885658        0.13621978
H          -1.58884777       -0.90885658       -0.13621979
H           1.58884773        0.90885654       -0.13622021
H           1.58884773       -0.90885654        0.13622022
6
MD Time 1460.00
C          -0.87949836       -0.00000000       -0.00000000
C           0.87949836        0.00000000        0.00000000
H          -1.57504258        0.91208012        0.14423749
H          -1.57504258       -0.91208012       -0.14423750
H           1.57504254        0.91208008       -0.14423793
H           1.57504254       -0.91208007        0.14423794
6
MD Time 1470.00
C          -0.87442334       -0.00000000       -0.00000000
C           0.87442335        0.00000000        0.00000000
H          -1.56012475        0.91487931        0.15200963
H          -1.56012475       -0.91487931       -0.15200964
H           1.56012471        0.91487926       -0.15201008
H           1.56012471       -0.91487926        0.15201009
6
MD Time 1480.00
C          -0.86914482       -0.00000000       -0.00000000
C           0.86914483        0.00000000        0.00000000
H          -1.54414962        0.91724617        0.15952035
H          -1.54414961       -0.91724617       -0.15952036
H           1.54414957        0.91724612       -0.15952081
H           1.54414957       -0.91724612        0.15952082
6
MD Time 1490.00
C          -0.86365388       -0.00000000       -0.00000000
C           0.86365389        0.00000000        0.00000000
H          -1.52718062        0.91918173        0.16675507
H          -1.52718062       -0.91918173       -0.16675508
H           1.52718058        0.91918167       -0.16675554
H           1.52718057       -0.91918167        0.16675555
6
MD Time 1500.00
C          -0.85794076       -0.00000000       -0.00000000
C           0.85794076        0.00000000        0.00000000
H          -1.50928913        0.92069624        0.17370068
H          -1.50928913       -0.92069624       -0.17370069
H           1.50928908        0.92069619       -0.17370116
H           1.50928908       -0.92069619        0.17370117
6
MD Time 1510.00
C          -0.85199487       -0.00000000       -0.00000000
C           0.85199488        0.00000000        0.00000000
H          -1.49055417        0.92180943        0.18034573
H          -1.49055417       -0.92180943       -0.18034575
H           1.49055412        0.92180937       -0.18034623
H           1.49055412       -0.92180937        0.18034624
6
MD Time 1520.00
C          -0.84580504       -0.00000000       -0.00000000
C           0.84580505        0.00000000        0.00000000
H          -1.47106209        0.92255051        0.18668060
H          -1.47106208       -0.92255051       -0.18668061
H           1.47106204        0.92255045       -0.18668110
H           1.47106203       -0.92255045        0.18668111
6
MD Time 1530.00
C          -0.83935957       -0.00000000       -0.00000000
C           0.83935958        0.00000000        0.00000000
H          -1.45090605        0.92295818        0.19269757
H          -1.45090605       -0.92295818       -0.19269759
H           1.45090600        0.92295811       -0.19269808
H           1.45090599       -0.92295811        0.19269809
6
MD Time 1540.00
C          -0.83264651       -0.00000000       -0.00000000
C           0.83264652        0.00000000        0.00000000
H          -1.43018547        0.92308034        0.19839096
H          -1.43018547       -0.92308034       -0.19839098
H           1.43018542        0.92308027       -0.19839148
H           1.43018542       -0.92308027        0.19839149
6
MD Time 1550.00
C          -0.82565389       -0.00000000       -0.00000000
C           0.82565390        0.00000000        0.00000000
H          -1.40900525        0.92297365        0.20375708
H          -1.40900525       -0.92297365       -0.20375710
H           1.40900520        0.92297358       -0.20375761
H           1.40900519       -0.92297357        0.20375762
6
MD Time 1560.00
C          -0.81836997       -0.00000000       -0.00000000
C           0.81836998        0.00000000        0.00000000
H          -1.38747479        0.92270269        0.20879418
H          -1.38747479       -0.92270269       -0.20879420
H           1.38747474        0.92270262       -0.20879472
H           1.38747474       -0.92270261        0.20879474
6
MD Time 1570.00
C          -0.81078360       -0.00000000       -0.00000000
C           0.81078361        0.00000000        0.00000000
H          -1.36570695        0.92233891        0.21350227
H          -1.36570694       -0.92233891       -0.21350229
H           1.36570689        0.92233884       -0.21350282
H           1.36570689       -0.92233884        0.21350283
6
MD Time 1580.00
C          -0.80288461       -0.00000000       -0.00000000
C           0.80288462        0.00000000        0.00000000
H          -1.34381667        0.92195913        0.21788283
H          -1.34381667       -0.92195913       -0.21788285
H           1.34381661        0.92195905       -0.21788338
H           1.34381661       -0.92195905        0.21788339
6
MD Time 1590.00
C          -0.79466424       -0.00000000       -0.00000000
C           0.79466425        0.00000000        0.00000000
H          -1.32191961        0.92164366        0.22193839
H          -1.32191961       -0.92164366       -0.22193841
H           1.32191956        0.92164357       -0.22193895
H           1.32191955       -0.92164357        0.22193896
6
MD Time 1600.00
C          -0.78611560       -0.00000000       -0.00000000
C           0.78611561        0.00000000        0.00000000
H          -1.30013055        0.92147411        0.22567207
H          -1.30013055       -0.92147411       -0.22567209
H           1.30013049        0.92147402       -0.22567263
H           1.30013049       -0.92147402        0.22567265
6
MD Time 1610.00
C          -0.77723423       -0.00000000       -0.00000000
C           0.77723424        0.00000000        0.00000000
H          -1.27856177        0.92153086        0.22908690
H          -1.27856177       -0.92153086       -0.22908693
H           1.27856172        0.92153077       -0.22908747
H           1.27856171       -0.92153077        0.22908749
6
MD Time 1620.00
C          -0.76801866       -0.00000000       -0.00000000
C           0.76801867        0.00000000        0.00000000
H          -1.25732146        0.92189029        0.23218519
H          -1.25732146       -0.92189029       -0.23218521
H           1.25732141        0.92189020       -0.23218577
H           1.25732140       -0.92189020        0.23218578
6
MD Time 1630.00
C          -0.75847098       -0.00000000       -0.00000000
C           0.75847098        0.00000000        0.00000000
H          -1.23651216        0.92262196        0.23496774
H          -1.23651216       -0.92262196       -0.23496777
H           1.23651211        0.92262186       -0.23496832
H           1.23651210       -0.92262186        0.23496834
6
MD Time 1640.00
C          -0.74859748       -0.00000000       -0.00000000
C           0.74859749        0.00000000        0.00000000
H          -1.21622939        0.92378575        0.23743318
H          -1.21622939       -0.92378575       -0.23743320
H           1.21622934        0.92378565       -0.23743376
H           1.21622934       -0.92378565        0.23743378
6
MD Time 1650.00
C          -0.73840930       -0.00000000       -0.00000000
C           0.73840931        0.00000000        0.00000000
H          -1.19656049        0.92542938        0.23957726
H          -1.19656049       -0.92542938       -0.23957729
H           1.19656044        0.92542927       -0.23957785
H           1.19656044       -0.92542927        0.23957787
6
MD Time 1660.00
C          -0.72792306       -0.00000000       -0.00000000
C           0.72792307        0.00000000        0.00000000
H          -1.17758374        0.92758613        0.24139241
H          -1.17758374       -0.92758613       -0.24139244
H           1.17758369        0.92758602       -0.24139300
H           1.17758369       -0.92758602        0.24139302
6
MD Time 1670.00
C          -0.71716153       -0.00000000       -0.00000000
C           0.71716154        0.00000000        0.00000000
H          -1.15936781        0.93027330        0.24286735
H          -1.15936781       -0.93027329       -0.24286737
H           1.15936776        0.93027318       -0.24286794
H           1.15936775       -0.93027318        0.24286796
6
MD Time 1680.00
C          -0.70615429       -0.00000000       -0.00000000
C           0.70615430        0.00000000        0.00000000
H          -1.14197151        0.93349122        0.24398697
H          -1.14197151       -0.93349121       -0.24398699
H           1.14197146        0.93349110       -0.24398756
H           1.14197146       -0.93349110        0.24398758
6
MD Time 1690.00
C          -0.69493841       -0.00000000       -0.00000000
C           0.69493842        0.00000000        0.00000000
H          -1.12544393        0.93722303        0.24473250
H          -1.12544393       -0.93722303       -0.24473253
H           1.12544388        0.93722291       -0.24473310
H           1.12544388       -0.93722291        0.24473312
6
MD Time 1700.00
C          -0.68355911       -0.00000000       -0.00000000
C           0.68355912        0.00000000        0.00000000
H          -1.10982479        0.94143524        0.24508188
H          -1.10982478       -0.94143524       -0.24508190
H           1.10982474        0.94143512       -0.24508248
H           1.10982474       -0.94143512        0.24508250
6
MD Time 1710.00
C          -0.67207042       -0.00000000       -0.00000000
C           0.67207042        0.00000000        0.00000000
H          -1.09514508        0.94607889        0.24501033
H          -1.09514508       -0.94607888       -0.24501035
H           1.09514503        0.94607876       -0.24501093
H           1.09514503       -0.94607876        0.24501095
6
MD Time 1720.00
C          -0.66053573       -0.00000000       -0.00000000
C           0.66053574        0.00000000        0.00000000
H          -1.08142789        0.95109136        0.24449118
H          -1.08142788       -0.95109136       -0.24449121
H           1.08142784        0.95109123       -0.24449179
H           1.08142784       -0.95109123        0.24449181
6
MD Time 1730.00
C          -0.64902837       -0.00000000       -0.00000000
C           0.64902838        0.00000000        0.00000000
H          -1.06868930        0.95639864        0.24349681
H          -1.06868930       -0.95639864       -0.24349684
H           1.06868926        0.95639850       -0.24349742
H           1.06868926       -0.95639850        0.24349744
6
MD Time 1740.00
C          -0.63763193       -0.00000000       -0.00000000
C           0.63763193        0.00000000        0.00000000
H          -1.05693945        0.96191783        0.24199958
H          -1.05693945       -0.96191783       -0.24199961
H           1.05693941        0.96191770       -0.24200019
H           1.05693941       -0.96191770        0.24200022
6
MD Time 1750.00
C          -0.62644038       -0.00000000       -0.00000000
C           0.62644039       -0.00000000        0.00000000
H          -1.04618347        0.96755984        0.23997291
H          -1.04618347       -0.96755984       -0.23997293
H           1.04618343        0.96755970       -0.23997352
H           1.04618343       -0.96755970        0.23997354
6
MD Time 1760.00
C          -0.61555790       -0.00000000       -0.00000000
C           0.61555791       -0.00000000        0.00000000
H          -1.03642252        0.97323201        0.23739217
H          -1.03642252       -0.97323201       -0.23739220
H           1.03642248        0.97323187       -0.23739279
H           1.03642248       -0.97323187        0.23739281
6
MD Time 1770.00
C          -0.60509813       -0.00000000       -0.00000000
C           0.60509813       -0.00000000        0.00000000
H          -1.02765467        0.97884069        0.23423563
H          -1.02765467       -0.97884069       -0.23423566
H           1.02765464        0.97884055       -0.23423624
H           1.02765464       -0.97884055        0.23423627
6
MD Time 1780.00
C          -0.59518289       -0.00000000       -0.00000000
C           0.59518290       -0.00000000        0.00000000
H          -1.01987576        0.98429356        0.23048511
H          -1.01987576       -0.98429355       -0.23048514
H           1.01987573        0.98429342       -0.23048573
H           1.01987573       -0.98429341        0.23048576
6
MD Time 1790.00
C          -0.58594017       -0.00000000       -0.00000000
C           0.58594017       -0.00000000        0.00000000
H          -1.01308009        0.98950172        0.22612665
H          -1.01308009       -0.98950171       -0.22612668
H           1.01308006        0.98950158       -0.22612727
H           1.01308006       -0.98950157        0.22612730
6
MD Time 1800.00
C          -0.57750119       -0.00000000       -0.00000000
C           0.57750119       -0.00000000        0.00000000
H          -1.00726105        0.99438148        0.22115088
H          -1.00726105       -0.99438148       -0.22115091
H           1.00726102        0.99438134       -0.22115151
H           1.00726102       -0.99438134        0.22115153
6
MD Time 1810.00
C          -0.56999670       -0.00000000       -0.00000000
C           0.56999671       -0.00000000        0.00000000
H          -1.00241159        0.99885591        0.21555333
H          -1.00241158       -0.99885591       -0.21555336
H           1.00241156        0.99885577       -0.21555396
H           1.00241155       -0.99885577        0.21555398
6
MD Time 1820.00
C          -0.56355242       -0.00000000       -0.00000000
C           0.56355242       -0.00000000        0.00000000
H          -0.99852461        1.00285606        0.20933454
H          -0.99852460       -1.00285605       -0.20933457
H           0.99852458        1.00285592       -0.20933517
H           0.99852458       -1.00285592        0.20933520
6
MD Time 1830.00
C          -0.55828383       -0.00000000       -0.00000000
C           0.55828384       -0.00000000        0.00000000
H          -0.99559323        1.00632199        0.20250008
H          -0.99559323       -1.00632199       -0.20250011
H           0.99559321        1.00632185       -0.20250071
H           0.99559321       -1.00632185        0.20250073
6
MD Time 1840.00
C          -0.55429085       -0.00000000       -0.00000000
C           0.55429085       -0.00000000        0.00000000
H          -0.99361098        1.00920363        0.19506041
H          -0.99361098       -1.00920362       -0.19506044
H           0.99361096        1.00920350       -0.19506104
H           0.99361096       -1.00920349        0.19506107
6
MD Time 1850.00
C          -0.55165249       -0.00000000       -0.00000000
C           0.55165249       -0.00000000        0.00000000
H          -0.99257188        1.01146138        0.18703073
H          -0.99257187       -1.01146138       -0.18703076
H           0.99257186        1.01146125       -0.18703137
H           0.99257185       -1.01146125        0.18703139
6
MD Time 1860.00
C          -0.55042245       -0.00000000       -0.00000000
C           0.55042245       -0.00000000        0.00000000
H          -0.99247053        1.01306667        0.17843070
H          -0.99247052       -1.01306667       -0.17843073
H           0.99247051        1.01306655       -0.17843134
H           0.99247050       -1.01306655        0.17843137
6
MD Time 1870.00
C          -0.55062581       -0.00000000       -0.00000000
C           0.55062581       -0.00000000        0.00000000
H          -0.99330216        1.01400232        0.16928416
H          -0.99330216       -1.01400231       -0.16928419
H           0.99330214        1.01400220       -0.16928480
H           0.99330214       -1.01400220        0.16928483
6
MD Time 1880.00
C          -0.55225748       -0.00000000       -0.00000000
C           0.55225749       -0.00000000        0.00000000
H          -0.99506267        1.01426282        0.15961878
H          -0.99506267       -1.01426281       -0.15961881
H           0.99506265        1.01426270       -0.15961942
H           0.99506265       -1.01426270        0.15961945
6
MD Time 1890.00
C          -0.55528244       -0.00000000       -0.00000000
C           0.55528245       -0.00000000        0.00000000
H          -0.99774865        1.01385450        0.14946569
H          -0.99774865       -1.01385450       -0.14946572
H           0.99774864        1.01385439       -0.14946633
H           0.99774863       -1.01385439        0.14946636
6
MD Time 1900.00
C          -0.55963787       -0.00000000       -0.00000000
C           0.55963787       -0.00000000        0.00000000
H          -1.00135743        1.01279558        0.13885906
H          -1.00135742       -1.01279558       -0.13885909
H           1.00135741        1.01279548       -0.13885970
H           1.00135741       -1.01279548        0.13885973
6
MD Time 1910.00
C          -0.56523680       -0.00000000       -0.00000000
C           0.56523680       -0.00000000        0.00000000
H          -1.00588707        1.01111599        0.12783566
H          -1.00588707       -1.01111599       -0.12783569
H           1.00588706        1.01111590       -0.12783630
H           1.00588706       -1.01111590        0.12783633
6
MD Time 1920.00
C          -0.57197293        0.00000000       -0.00000000
C           0.57197293       -0.00000000        0.00000000
H          -1.01133638        1.00885708        0.11643431
H          -1.01133638       -1.00885707       -0.11643434
H           1.01133637        1.00885699       -0.11643496
H           1.01133637       -1.00885699        0.11643498
6
MD Time 1930.00
C          -0.57972594        0.00000000       -0.00000000
C           0.57972594       -0.00000000        0.00000001
H          -1.01770475        1.00607099        0.10469534
H          -1.01770475       -1.00607099       -0.10469537
H           1.01770474        1.00607091       -0.10469599
H           1.01770474       -1.00607091        0.10469601
6
MD Time 1940.00
C          -0.58836697        0.00000000       -0.00000000
C           0.58836697       -0.00000000        0.00000001
H          -1.02499199        1.00281983        0.09265993
H          -1.02499199       -1.00281983       -0.09265996
H           1.02499198        1.00281977       -0.09266058
H           1.02499198       -1.00281976        0.09266061
6
MD Time 1950.00
C          -0.59776361        0.00000000       -0.00000001
C           0.59776361       -0.00000000        0.00000001
H          -1.03319800        0.99917446        0.08036948
H          -1.03319800       -0.99917446       -0.08036951
H           1.03319799        0.99917440       -0.08037013
H           1.03319799       -0.99917440        0.08037015
6
MD Time 1960.00
C          -0.60778432        0.00000000       -0.00000001
C           0.60778432       -0.00000000        0.00000001
H          -1.04232228        0.99521290        0.06786490
H          -1.04232228       -0.99521290       -0.06786493
H           1.04232228        0.99521285       -0.06786555
H           1.04232228       -0.99521285        0.06786558
6
MD Time 1970.00
C          -0.61830196        0.00000000       -0.00000001
C           0.61830196       -0.00000000        0.00000001
H          -1.05236335        0.99101845        0.05518601
H          -1.05236335       -0.99101844       -0.05518604
H           1.05236335        0.99101841       -0.05518666
H           1.05236335       -0.99101841        0.05518669
6
MD Time 1980.00
C          -0.62919647        0.00000000       -0.00000001
C           0.62919647       -0.00000000        0.00000001
H          -1.06331795        0.98667734        0.04237089
H          -1.06331795       -0.98667734       -0.04237092
H           1.06331795        0.98667731       -0.04237154
H           1.06331795       -0.98667731        0.04237156
6
MD Time 1990.00
C          -0.64035673        0.00000000       -0.00000001
C           0.64035673       -0.00000000        0.00000001
H          -1.07518021        0.98227618        0.02945541
H          -1.07518021       -0.98227618       -0.02945544
H           1.07518020        0.98227616       -0.02945606
H           1.07518020       -0.98227616        0.02945609
6
MD Time 2000.00
C          -0.65168173        0.00000000       -0.00000001
C           0.65168173       -0.00000000        0.00000001
H          -1.08794062        0.97789911        0.01647287
H          -1.08794062       -0.97789911       -0.01647291
H           1.08794062        0.97789910       -0.01647353
H           1.08794062       -0.97789910        0.01647355
6
MD Time 2010.00
C          -0.66308111        0.00000000       -0.00000001
C           0.66308111       -0.00000000        0.00000001
H          -1.10158504        0.97362486        0.00345379
H          -1.10158505       -0.97362486       -0.00345383
H           1.10158504        0.97362486       -0.00345444
H           1.10158504       -0.97362486        0.00345447
6
MD Time 2020.00
C          -0.67447530        0.00000000       -0.00000001
C           0.67447530       -0.00000000        0.00000001
H          -1.11609363        0.96952384       -0.00957412
H          -1.11609364       -0.96952384        0.00957409
H           1.11609363        0.96952385        0.00957347
H           1.11609363       -0.96952385       -0.00957345
6
MD Time 2030.00
C          -0.68579531        0.00000000       -0.00000001
C           0.68579531       -0.00000000        0.00000001
H          -1.13143985        0.96565546       -0.02258582
H          -1.13143985       -0.96565545        0.02258579
H           1.13143985        0.96565548        0.02258517
H           1.13143985       -0.96565548       -0.02258515
6
MD Time 2040.00
C          -0.69698231        0.00000000       -0.00000001
C           0.69698231       -0.00000000        0.00000001
H          -1.14758956        0.96206581       -0.03555858
H          -1.14758957       -0.96206581        0.03555854
H           1.14758956        0.96206584        0.03555793
H           1.14758956       -0.96206584       -0.03555790
6
MD Time 2050.00
C          -0.70798703        0.00000000       -0.00000001
C           0.70798703       -0.00000000        0.00000001
H          -1.16450034        0.95878591       -0.04847153
H          -1.16450035       -0.95878591        0.04847150
H           1.16450034        0.95878595        0.04847088
H           1.16450034       -0.95878596       -0.04847085
6
MD Time 2060.00
C          -0.71876906        0.00000000       -0.00000001
C           0.71876906       -0.00000000        0.00000001
H          -1.18212098        0.95583064       -0.06130516
H          -1.18212099       -0.95583064        0.06130512
H           1.18212098        0.95583070        0.06130451
H           1.18212099       -0.95583070       -0.06130448
6
MD Time 2070.00
C          -0.72929618        0.00000000       -0.00000001
C           0.72929618       -0.00000000        0.00000001
H          -1.20039132        0.95319843       -0.07404067
H          -1.20039132       -0.95319843        0.07404064
H           1.20039132        0.95319849        0.07404003
H           1.20039132       -0.95319849       -0.07404000
6
MD Time 2080.00
C          -0.73954354        0.00000000       -0.00000001
C           0.73954354       -0.00000000        0.00000001
H          -1.21924234        0.95087170       -0.08665948
H          -1.21924234       -0.95087170        0.08665944
H           1.21924234        0.95087177        0.08665883
H           1.21924234       -0.95087178       -0.08665881
6
MD Time 2090.00
C          -0.74949290        0.00000000       -0.00000001
C           0.74949290       -0.00000000        0.00000001
H          -1.23859665        0.94881816       -0.09914266
H          -1.23859665       -0.94881816        0.09914263
H           1.23859665        0.94881823        0.09914202
H           1.23859665       -0.94881824       -0.09914200
6
MD Time 2100.00
C          -0.75913190        0.00000000       -0.00000001
C           0.75913190       -0.00000000        0.00000001
H          -1.25836922        0.94699256       -0.11147065
H          -1.25836922       -0.94699256        0.11147061
H           1.25836922        0.94699265        0.11147001
H           1.25836922       -0.94699265       -0.11146999
6
MD Time 2110.00
C          -0.76845325        0.00000000       -0.00000001
C           0.76845325       -0.00000000        0.00000001
H          -1.27846845        0.94533912       -0.12362294
H          -1.27846845       -0.94533912        0.12362291
H           1.27846845        0.94533921        0.12362231
H           1.27846845       -0.94533922       -0.12362229
6
MD Time 2120.00
C          -0.77745405        0.00000000       -0.00000001
C           0.77745405       -0.00000000        0.00000001
H          -1.29879740        0.94379411       -0.13557807
H          -1.29879740       -0.94379411        0.13557803
H           1.29879739        0.94379422        0.13557744
H           1.29879740       -0.94379422       -0.13557742
6
MD Time 2130.00
C          -0.78613508        0.00000000       -0.00000001
C           0.78613508       -0.00000000        0.00000001
H          -1.31925520        0.94228868       -0.14731363
H          -1.31925520       -0.94228868        0.14731360
H           1.31925520        0.94228878        0.14731301
H           1.31925520       -0.94228879       -0.14731299
6
MD Time 2140.00
C          -0.79450014        0.00000000       -0.00000001
C           0.79450014       -0.00000000        0.00000001
H          -1.33973854        0.94075152       -0.15880651
H          -1.33973855       -0.94075152        0.15880648
H           1.33973854        0.94075163        0.15880590
H           1.33973855       -0.94075164       -0.15880587
6
MD Time 2150.00
C          -0.80255546        0.00000000       -0.00000001
C           0.80255546       -0.00000000        0.00000001
H          -1.36014317        0.93911150       -0.17003315
H          -1.36014317       -0.93911150        0.17003312
H           1.36014317        0.93911162        0.17003255
H           1.36014317       -0.93911163       -0.17003252
6
MD Time 2160.00
C          -0.81030913        0.00000000       -0.00000001
C           0.81030913       -0.00000000        0.00000001
H          -1.38036527        0.93729990       -0.18096992
H          -1.38036527       -0.93729990        0.18096988
H           1.38036527        0.93730003        0.18096932
H           1.38036527       -0.93730003       -0.18096929
6
MD Time 2170.00
C          -0.81777066        0.00000000       -0.00000001
C           0.81777066       -0.00000000        0.00000001
H          -1.40030284        0.93525236       -0.19159348
H          -1.40030285       -0.93525236        0.19159344
H           1.40030284        0.93525249        0.19159289
H           1.40030284       -0.93525249       -0.19159286
6
MD Time 2180.00
C          -0.82495047        0.00000000       -0.00000001
C           0.82495047       -0.00000000        0.00000001
H          -1.41985687        0.93291043       -0.20188124
H          -1.41985688       -0.93291043        0.20188120
H           1.41985687        0.93291056        0.20188066
H           1.41985687       -0.93291057       -0.20188063
6
MD Time 2190.00
C          -0.83185956        0.00000000       -0.00000001
C           0.83185956       -0.00000000        0.00000001
H          -1.43893233        0.93022282       -0.21181168
H          -1.43893234       -0.93022282        0.21181164
H           1.43893233        0.93022296        0.21181111
H           1.43893233       -0.93022296       -0.21181108
6
MD Time 2200.00
C          -0.83850918        0.00000000       -0.00000001
C           0.83850918       -0.00000000        0.00000001
H          -1.45743906        0.92714624       -0.22136475
H          -1.45743907       -0.92714623        0.22136472
H           1.45743906        0.92714638        0.22136419
H           1.45743906       -0.92714638       -0.22136416
6
MD Time 2210.00
C          -0.84491056        0.00000000       -0.00000001
C           0.84491056       -0.00000000        0.00000001
H          -1.47529248        0.92364597       -0.23052218
H          -1.47529248       -0.92364597        0.23052215
H           1.47529247        0.92364612        0.23052164
H           1.47529248       -0.92364612       -0.23052161
6
MD Time 2220.00
C          -0.85107467        0.00000000       -0.00000001
C           0.85107468       -0.00000000        0.00000001
H          -1.49241410        0.91969624       -0.23926775
H          -1.49241410       -0.91969624        0.23926771
H           1.49241410        0.91969638        0.23926721
H           1.49241410       -0.91969639       -0.23926718
6
MD Time 2230.00
C          -0.85701204        0.00000000       -0.00000001
C           0.85701204       -0.00000000        0.00000001
H          -1.50873201        0.91528030       -0.24758751
H          -1.50873201       -0.91528030        0.24758747
H           1.50873201        0.91528045        0.24758698
H           1.50873201       -0.91528045       -0.24758695
6
MD Time 2240.00
C          -0.86273258        0.00000000       -0.00000001
C           0.86273258       -0.00000000        0.00000001
H          -1.52418117        0.91039049       -0.25547001
H          -1.52418117       -0.91039048        0.25546997
H           1.52418116        0.91039063        0.25546949
H           1.52418117       -0.91039063       -0.25546946
6
MD Time 2250.00
C          -0.86824549        0.00000000       -0.00000001
C           0.86824549       -0.00000000        0.00000001
H          -1.53870367        0.90502805       -0.26290645
H          -1.53870367       -0.90502805        0.26290641
H           1.53870367        0.90502820        0.26290595
H           1.53870367       -0.90502820       -0.26290591
6
MD Time 2260.00
C          -0.87355911        0.00000000       -0.00000001
C           0.87355911       -0.00000000        0.00000001
H          -1.55224893        0.89920303       -0.26989082
H          -1.55224894       -0.89920303        0.26989078
H           1.55224893        0.89920318        0.26989033
H           1.55224893       -0.89920318       -0.26989030
6
MD Time 2270.00
C          -0.87868085        0.00000000       -0.00000001
C           0.87868085       -0.00000000        0.00000001
H          -1.56477386        0.89293403       -0.27642003
H          -1.56477387       -0.89293403        0.27641999
H           1.56477386        0.89293418        0.27641956
H           1.56477386       -0.89293418       -0.27641952
6
MD Time 2280.00
C          -0.88361712        0.00000000       -0.00000001
C           0.88361712       -0.00000000        0.00000001
H          -1.57624298        0.88624798       -0.28249400
H          -1.57624299       -0.88624798        0.28249396
H           1.57624298        0.88624814        0.28249354
H           1.57624298       -0.88624814       -0.28249351
6
MD Time 2290.00
C          -0.88837323        0.00000000       -0.00000001
C           0.88837323       -0.00000000        0.00000001
H          -1.58662858        0.87917995       -0.28811578
H          -1.58662858       -0.87917994        0.28811574
H           1.58662857        0.87918010        0.28811534
H           1.58662857       -0.87918010       -0.28811530
6
MD Time 2300.00
C          -0.89295333        0.00000000       -0.00000001
C           0.89295333       -0.00000000        0.00000001
H          -1.59591081        0.87177286       -0.29329161
H          -1.59591081       -0.87177286        0.29329157
H           1.59591080        0.87177302        0.29329118
H           1.59591080       -0.87177302       -0.29329114
6
MD Time 2310.00
C          -0.89736038        0.00000000       -0.00000001
C           0.89736038       -0.00000000        0.00000001
H          -1.60407786        0.86407736       -0.29803102
H          -1.60407786       -0.86407735        0.29803098
H           1.60407785        0.86407751        0.29803060
H           1.60407785       -0.86407751       -0.29803057
6
MD Time 2320.00
C          -0.90159606        0.00000000       -0.00000001
C           0.90159606       -0.00000000        0.00000001
H          -1.61112607        0.85615151       -0.30234690
H          -1.61112608       -0.85615150        0.30234686
H           1.61112607        0.85615166        0.30234650
H           1.61112607       -0.85615166       -0.30234646
6
MD Time 2330.00
C          -0.90566076        0.00000000       -0.00000001
C           0.90566076       -0.00000000        0.00000001
H          -1.61706009        0.84806062       -0.30625554
H          -1.61706010       -0.84806062        0.30625550
H           1.61706008        0.84806077        0.30625515
H           1.61706008       -0.84806077       -0.30625511
6
MD Time 2340.00
C          -0.90955347        0.00000000       -0.00000001
C           0.90955348       -0.00000000        0.00000001
H          -1.62189295        0.83987696       -0.30977668
H          -1.62189295       -0.83987695        0.30977664
H           1.62189294        0.83987711        0.30977630
H           1.62189294       -0.83987711       -0.30977626
6
MD Time 2350.00
C          -0.91327186        0.00000000       -0.00000001
C           0.91327186       -0.00000000        0.00000001
H          -1.62564615        0.83167941       -0.31293347
H          -1.62564615       -0.83167940        0.31293343
H           1.62564614        0.83167956        0.31293310
H           1.62564614       -0.83167956       -0.31293306
6
MD Time 2360.00
C          -0.91681213        0.00000000       -0.00000001
C           0.91681213       -0.00000000        0.00000001
H          -1.62834967        0.82355308       -0.31575247
H          -1.62834967       -0.82355307        0.31575242
H           1.62834966        0.82355322        0.31575211
H           1.62834966       -0.82355323       -0.31575207
6
MD Time 2370.00
C          -0.92016913        0.00000000       -0.00000001
C           0.92016913       -0.00000000        0.00000001
H          -1.63004184        0.81558874       -0.31826347
H          -1.63004184       -0.81558874        0.31826343
H           1.63004183        0.81558889        0.31826313
H           1.63004183       -0.81558889       -0.31826309
6
MD Time 2380.00
C          -0.92333633        0.00000000       -0.00000001
C           0.92333633       -0.00000000        0.00000001
H          -1.63076910        0.80788216       -0.32049937
H          -1.63076911       -0.80788216        0.32049933
H           1.63076909        0.80788231        0.32049904
H           1.63076909       -0.80788231       -0.32049900
6
MD Time 2390.00
C          -0.92630589        0.00000000       -0.00000001
C           0.92630589       -0.00000000        0.00000001
H          -1.63058558        0.80053314       -0.32249578
H          -1.63058559       -0.80053313        0.32249574
H           1.63058557        0.80053328        0.32249545
H           1.63058557       -0.80053329       -0.32249541
6
MD Time 2400.00
C          -0.92906876        0.00000000       -0.00000001
C           0.92906876       -0.00000000        0.00000001
H          -1.62955240        0.79364441       -0.32429064
H          -1.62955241       -0.79364441        0.32429060
H           1.62955239        0.79364455        0.32429033
H           1.62955239       -0.79364456       -0.32429029
6
MD Time 2410.00
C          -0.93161487        0.00000000       -0.00000001
C           0.93161487       -0.00000000        0.00000001
H          -1.62773677        0.78732020       -0.32592365
H          -1.62773678       -0.78732020        0.32592361
H           1.62773676        0.78732034        0.32592335
H           1.62773676       -0.78732034       -0.32592331
6
MD Time 2420.00
C          -0.93393327        0.00000000       -0.00000001
C           0.93393327       -0.00000000        0.00000001
H          -1.62521073        0.78166450       -0.32743549
H          -1.62521074       -0.78166450        0.32743544
H           1.62521072        0.78166464        0.32743519
H           1.62521072       -0.78166464       -0.32743515
6
MD Time 2430.00
C          -0.93601244        0.00000000       -0.00000001
C           0.93601244       -0.00000000        0.00000001
H          -1.62204964        0.77677905       -0.32886691
H          -1.62204965       -0.77677904        0.32886686
H           1.62204963        0.77677919        0.32886662
H           1.62204963       -0.77677919       -0.32886658
6
MD Time 2440.00
C          -0.93784055        0.00000000       -0.00000001
C           0.93784056       -0.00000000        0.00000001
H          -1.61833035        0.77276100       -0.33025769
H          -1.61833036       -0.77276100        0.33025765
H           1.61833034        0.77276114        0.33025742
H           1.61833034       -0.77276114       -0.33025738
6
MD Time 2450.00
C          -0.93940585        0.00000000       -0.00000001
C           0.93940585       -0.00000000        0.00000001
H          -1.61412911        0.76970039       -0.33164543
H          -1.61412912       -0.76970039        0.33164539
H           1.61412910        0.76970052        0.33164516
H           1.61412910       -0.76970053       -0.33164512
6
MD Time 2460.00
C          -0.94069699        0.00000000       -0.00000001
C           0.94069699       -0.00000000        0.00000002
H          -1.60951936        0.76767741       -0.33306420
H          -1.60951936       -0.76767740        0.33306416
H           1.60951935        0.76767754        0.33306394
H           1.60951935       -0.76767754       -0.33306390
6
MD Time 2470.00
C          -0.94170346        0.00000000       -0.00000001
C           0.94170346       -0.00000000        0.00000002
H          -1.60456939        0.76675964       -0.33454322
H          -1.60456940       -0.76675964        0.33454318
H           1.60456938        0.76675977        0.33454297
H           1.60456938       -0.76675977       -0.33454293
6
MD Time 2480.00
C          -0.94241594        0.00000000       -0.00000001
C           0.94241594       -0.00000000        0.00000002
H          -1.59934020        0.76699944       -0.33610555
H          -1.59934020       -0.76699944        0.33610551
H           1.59934018        0.76699957        0.33610531
H           1.59934018       -0.76699957       -0.33610527
6
MD Time 2490.00
C          -0.94282661        0.00000000       -0.00000001
C           0.94282662       -0.00000000        0.00000002
H          -1.59388347        0.76843155       -0.33776690
H          -1.59388348       -0.76843155        0.33776686
H           1.59388345        0.76843168        0.33776666
H           1.59388346       -0.76843168       -0.33776662
6
MD Time 2500.00
C          -0.94292946        0.00000000       -0.00000001
C           0.94292946       -0.00000000        0.00000002
H          -1.58824006        0.77107120       -0.33953465
H          -1.58824007       -0.77107120        0.33953461
H           1.58824005        0.77107132        0.33953442
H           1.58824005       -0.77107132       -0.33953438
6
MD Time 2510.00
C          -0.94272039        0.00000000       -0.00000001
C           0.94272039       -0.00000000        0.00000002
H          -1.58243894        0.77491276       -0.34140720
H          -1.58243895       -0.77491275        0.34140716
H           1.58243892        0.77491287        0.34140698
H           1.58243893       -0.77491288       -0.34140693
6
MD Time 2520.00
C          -0.94219737        0.00000000       -0.00000001
C           0.94219737       -0.00000000        0.00000002
H          -1.57649677        0.77992921       -0.34337368
H          -1.57649678       -0.77992920        0.34337363
H           1.57649675        0.77992932        0.34337346
H           1.57649676       -0.77992933       -0.34337341
6
MD Time 2530.00
C          -0.94136032        0.00000000       -0.00000002
C           0.94136033       -0.00000000        0.00000002
H          -1.57041816        0.78607235       -0.34541401
H          -1.57041817       -0.78607235        0.34541396
H           1.57041815        0.78607246        0.34541379
H           1.57041815       -0.78607247       -0.34541375
6
MD Time 2540.00
C          -0.94021103        0.00000000       -0.00000002
C           0.94021104       -0.00000000        0.00000002
H          -1.56419651        0.79327386       -0.34749947
H          -1.56419652       -0.79327386        0.34749942
H           1.56419650        0.79327396        0.34749926
H           1.56419650       -0.79327397       -0.34749922
6
MD Time 2550.00
C          -0.93875287        0.00000000       -0.00000002
C           0.93875288       -0.00000000        0.00000002
H          -1.55781540        0.80144703       -0.34959352
H          -1.55781540       -0.80144702        0.34959348
H           1.55781538        0.80144712        0.34959332
H           1.55781538       -0.80144713       -0.34959328
6
MD Time 2560.00
C          -0.93699052        0.00000000       -0.00000002
C           0.93699052       -0.00000000        0.00000002
H          -1.55125036        0.81048920       -0.35165302
H          -1.55125037       -0.81048920        0.35165298
H           1.55125035        0.81048930        0.35165283
H           1.55125035       -0.81048930       -0.35165279
6
MD Time 2570.00
C          -0.93492961        0.00000000       -0.00000002
C           0.93492961       -0.00000000        0.00000002
H          -1.54447098        0.82028465       -0.35362959
H          -1.54447099       -0.82028465        0.35362955
H           1.54447096        0.82028474        0.35362940
H           1.54447096       -0.82028475       -0.35362936
6
MD Time 2580.00
C          -0.93257636        0.00000000       -0.00000002
C           0.93257636       -0.00000000        0.00000002
H          -1.53744295        0.83070768       -0.35547114
H          -1.53744296       -0.83070768        0.35547109
H           1.53744294        0.83070776        0.35547095
H           1.53744294       -0.83070777       -0.35547091
6
MD Time 2590.00
C          -0.92993724        0.00000000       -0.00000002
C           0.92993724       -0.00000000        0.00000002
H          -1.53013023        0.84162586       -0.35712337
H          -1.53013024       -0.84162586        0.35712332
H           1.53013022        0.84162594        0.35712319
H           1.53013022       -0.84162595       -0.35712315
6
MD Time 2600.00
C          -0.92701864        0.00000000       -0.00000002
C           0.92701865       -0.00000000        0.00000002
H          -1.52249689        0.85290318       -0.35853127
H          -1.52249690       -0.85290318        0.35853122
H           1.52249688        0.85290326        0.35853109
H           1.52249688       -0.85290326       -0.35853105
6
MD Time 2610.00
C          -0.92382660        0.00000000       -0.00000002
C           0.92382660       -0.00000000        0.00000002
H          -1.51450879        0.86440298       -0.35964043
H          -1.51450880       -0.86440298        0.35964039
H           1.51450878        0.86440305        0.35964027
H           1.51450878       -0.86440305       -0.35964023
6
MD Time 2620.00
C          -0.92036655        0.00000000       -0.00000001
C           0.92036655       -0.00000000        0.00000002
H          -1.50613496        0.87599053       -0.36039822
H          -1.50613497       -0.87599052        0.36039818
H           1.50613495        0.87599059        0.36039806
H           1.50613495       -0.87599060       -0.36039802
6
MD Time 2630.00
C          -0.91664319        0.00000000       -0.00000001
C           0.91664320       -0.00000000        0.00000002
H          -1.49734861        0.88753531       -0.36075472
H          -1.49734862       -0.88753530        0.36075468
H           1.49734860        0.88753537        0.36075457
H           1.49734860       -0.88753537       -0.36075453
6
MD Time 2640.00
C          -0.91266035        0.00000000       -0.00000001
C           0.91266036       -0.00000000        0.00000002
H          -1.48812795        0.89891286       -0.36066349
H          -1.48812796       -0.89891285        0.36066344
H           1.48812794        0.89891291        0.36066334
H           1.48812795       -0.89891291       -0.36066330
6
MD Time 2650.00
C          -0.90842090        0.00000000       -0.00000001
C           0.90842090       -0.00000000        0.00000002
H          -1.47845664        0.91000623       -0.36008213
H          -1.47845665       -0.91000623        0.36008209
H           1.47845664        0.91000628        0.36008199
H           1.47845664       -0.91000628       -0.36008195
6
MD Time 2660.00
C          -0.90392673        0.00000000       -0.00000001
C           0.90392673       -0.00000000        0.00000002
H          -1.46832410        0.92070716       -0.35897269
H          -1.46832411       -0.92070715        0.35897265
H           1.46832409        0.92070720        0.35897256
H           1.46832409       -0.92070720       -0.35897252
6
MD Time 2670.00
C          -0.89917876        0.00000000       -0.00000001
C           0.89917876       -0.00000000        0.00000001
H          -1.45772558        0.93091686       -0.35730187
H          -1.45772559       -0.93091685        0.35730183
H           1.45772557        0.93091689        0.35730174
H           1.45772557       -0.93091690       -0.35730170
6
MD Time 2680.00
C          -0.89417694        0.00000000       -0.00000001
C           0.89417694       -0.00000000        0.00000001
H          -1.44666218        0.94054661       -0.35504115
H          -1.44666219       -0.94054661        0.35504111
H           1.44666218        0.94054664        0.35504103
H           1.44666218       -0.94054665       -0.35504099
6
MD Time 2690.00
C          -0.88892035        0.00000000       -0.00000001
C           0.88892035       -0.00000000        0.00000001
H          -1.43514071        0.94951816       -0.35216681
H          -1.43514072       -0.94951816        0.35216677
H           1.43514071        0.94951819        0.35216670
H           1.43514071       -0.94951819       -0.35216666
6
MD Time 2700.00
C          -0.88340721        0.00000000       -0.00000001
C           0.88340721       -0.00000000        0.00000001
H          -1.42317352        0.95776394       -0.34865991
H          -1.42317353       -0.95776394        0.34865987
H           1.42317352        0.95776396        0.34865980
H           1.42317352       -0.95776397       -0.34865976
6
MD Time 2710.00
C          -0.87763496        0.00000000       -0.00000001
C           0.87763496       -0.00000000        0.00000001
H          -1.41077831        0.96522722       -0.34450614
H          -1.41077832       -0.96522722        0.34450609
H           1.41077831        0.96522724        0.34450603
H           1.41077831       -0.96522724       -0.34450599
6
MD Time 2720.00
C          -0.87160039        0.00000000       -0.00000001
C           0.87160039       -0.00000000        0.00000001
H          -1.39797792        0.97186221       -0.33969573
H          -1.39797793       -0.97186220        0.33969569
H           1.39797792        0.97186222        0.33969564
H           1.39797792       -0.97186222       -0.33969560
6
MD Time 2730.00
C          -0.86529967        0.00000000       -0.00000001
C           0.86529967       -0.00000000        0.00000001
H          -1.38480013        0.97763406       -0.33422332
H          -1.38480014       -0.97763405        0.33422328
H           1.38480014        0.97763407        0.33422323
H           1.38480014       -0.97763407       -0.33422319
6
MD Time 2740.00
C          -0.85872846        0.00000000       -0.00000001
C           0.85872846       -0.00000000        0.00000001
H          -1.37127751        0.98251900       -0.32808777
H          -1.37127752       -0.98251899        0.32808773
H           1.37127752        0.98251900        0.32808769
H           1.37127752       -0.98251900       -0.32808765
6
MD Time 2750.00
C          -0.85188205        0.00000000       -0.00000001
C           0.85188205       -0.00000000        0.00000001
H          -1.35744723        0.98650431       -0.32129202
H          -1.35744724       -0.98650431        0.32129198
H           1.35744724        0.98650431        0.32129194
H           1.35744724       -0.98650431       -0.32129190
6
MD Time 2760.00
C          -0.84475541        0.00000000       -0.00000001
C           0.84475541       -0.00000000        0.00000001
H          -1.34335096        0.98958849       -0.31384294
H          -1.34335097       -0.98958848        0.31384290
H           1.34335098        0.98958848        0.31384287
H           1.34335098       -0.98958848       -0.31384283
6
MD Time 2770.00
C          -0.83734335        0.00000000       -0.00000001
C           0.83734335       -0.00000000        0.00000001
H          -1.32903474        0.99178125       -0.30575117
H          -1.32903475       -0.99178124        0.30575113
H           1.32903476        0.99178124        0.30575111
H           1.32903476       -0.99178124       -0.30575107
6
MD Time 2780.00
C          -0.82964067        0.00000000       -0.00000001
C           0.82964067       -0.00000000        0.00000001
H          -1.31454887        0.99310368       -0.29703093
H          -1.31454888       -0.99310368        0.29703089
H           1.31454889        0.99310367        0.29703087
H           1.31454889       -0.99310367       -0.29703083
6
MD Time 2790.00
C          -0.82164225        0.00000000       -0.00000001
C           0.82164225       -0.00000000        0.00000001
H          -1.29994781        0.99358828       -0.28769984
H          -1.29994782       -0.99358828        0.28769980
H           1.29994783        0.99358827        0.28769979
H           1.29994783       -0.99358827       -0.28769975
6
MD Time 2800.00
C          -0.81334332        0.00000000       -0.00000001
C           0.81334332       -0.00000000        0.00000001
H          -1.28529007        0.99327895       -0.27777873
H          -1.28529007       -0.99327894        0.27777869
H           1.28529009        0.99327893        0.27777868
H           1.28529009       -0.99327893       -0.27777864
6
MD Time 2810.00
C          -0.80473959        0.00000000       -0.00000001
C           0.80473959       -0.00000000        0.00000001
H          -1.27063802        0.99223090       -0.26729134
H          -1.27063803       -0.99223090        0.26729130
H           1.27063804        0.99223088        0.26729130
H           1.27063804       -0.99223089       -0.26729126
6
MD Time 2820.00
C          -0.79582757        0.00000000       -0.00000001
C           0.79582757       -0.00000000        0.00000001
H          -1.25605771        0.99051041       -0.25626409
H          -1.25605772       -0.99051041        0.25626405
H           1.25605773        0.99051039        0.25626405
H           1.25605773       -0.99051039       -0.25626401
6
MD Time 2830.00
C          -0.78660482        0.00000000       -0.00000001
C           0.78660482       -0.00000000        0.00000001
H          -1.24161853        0.98819434       -0.24472565
H          -1.24161854       -0.98819433        0.24472561
H           1.24161856        0.98819431        0.24472562
H           1.24161856       -0.98819432       -0.24472558
6
MD Time 2840.00
C          -0.77707035        0.00000000       -0.00000001
C           0.77707034       -0.00000000        0.00000001
H          -1.22739283        0.98536933       -0.23270658
H          -1.22739284       -0.98536933        0.23270654
H           1.22739285        0.98536931        0.23270655
H           1.22739285       -0.98536931       -0.23270651
6
MD Time 2850.00
C          -0.76722501        0.00000000       -0.00000001
C           0.76722500       -0.00000000        0.00000001
H          -1.21345532        0.98213074       -0.22023881
H          -1.21345533       -0.98213074        0.22023877
H           1.21345535        0.98213072        0.22023879
H           1.21345535       -0.98213072       -0.22023875
6
MD Time 2860.00
C          -0.75707205        0.00000000       -0.00000001
C           0.75707205       -0.00000000        0.00000001
H          -1.19988243        0.97858105       -0.20735512
H          -1.19988244       -0.97858105        0.20735508
H           1.19988246        0.97858102        0.20735511
H           1.19988246       -0.97858103       -0.20735507
6
MD Time 2870.00
C          -0.74661768        0.00000000       -0.00000001
C           0.74661768       -0.00000000        0.00000001
H          -1.18675130        0.97482783       -0.19408856
H          -1.18675130       -0.97482783        0.19408852
H           1.18675133        0.97482780        0.19408856
H           1.18675133       -0.97482781       -0.19408852
6
MD Time 2880.00
C          -0.73587180        0.00000000       -0.00000001
C           0.73587179       -0.00000000        0.00000001
H          -1.17413875        0.97098126       -0.18047185
H          -1.17413876       -0.97098126        0.18047181
H           1.17413878        0.97098123        0.18047184
H           1.17413878       -0.97098123       -0.18047181
6
MD Time 2890.00
C          -0.72484879        0.00000000       -0.00000001
C           0.72484879       -0.00000000        0.00000001
H          -1.16211993        0.96715112       -0.16653678
H          -1.16211994       -0.96715112        0.16653674
H           1.16211996        0.96715109        0.16653678
H           1.16211996       -0.96715110       -0.16653675
6
MD Time 2900.00
C          -0.71356847        0.00000000       -0.00000001
C           0.71356846       -0.00000000        0.00000001
H          -1.15076683        0.96344343       -0.15231380
H          -1.15076684       -0.96344343        0.15231376
H           1.15076687        0.96344340        0.15231381
H           1.15076687       -0.96344341       -0.15231378
6
MD Time 2910.00
C          -0.70205706        0.00000000       -0.00000001
C           0.70205706       -0.00000000        0.00000001
H          -1.14014662        0.95995681       -0.13783161
H          -1.14014663       -0.95995681        0.13783157
H           1.14014666        0.95995678        0.13783163
H           1.14014666       -0.95995678       -0.13783159
6
MD Time 2920.00
C          -0.69034839        0.00000000       -0.00000001
C           0.69034838       -0.00000000        0.00000001
H          -1.13031994        0.95677875       -0.12311700
H          -1.13031994       -0.95677875        0.12311696
H           1.13031997        0.95677872        0.12311702
H           1.13031997       -0.95677873       -0.12311698
6
MD Time 2930.00
C          -0.67848497        0.00000000       -0.00000001
C           0.67848496       -0.00000000        0.00000001
H          -1.12133913        0.95398216       -0.10819492
H          -1.12133914       -0.95398216        0.10819488
H           1.12133917        0.95398213        0.10819495
H           1.12133917       -0.95398214       -0.10819491
6
MD Time 2940.00
C          -0.66651926        0.00000000       -0.00000001
C           0.66651925       -0.00000000        0.00000001
H          -1.11324669        0.95162225       -0.09308885
H          -1.11324670       -0.95162225        0.09308880
H           1.11324673        0.95162222        0.09308888
H           1.11324673       -0.95162223       -0.09308884
6
MD Time 2950.00
C          -0.65451480        0.00000000       -0.00000001
C           0.65451479       -0.00000000        0.00000001
H          -1.10607389        0.94973425       -0.07782127
H          -1.10607389       -0.94973425        0.07782123
H           1.10607393        0.94973422        0.07782131
H           1.10607392       -0.94973423       -0.07782128
6
MD Time 2960.00
C          -0.64254718        0.00000000       -0.00000001
C           0.64254718       -0.00000000        0.00000001
H          -1.09983974        0.94833205       -0.06241456
H          -1.09983975       -0.94833205        0.06241452
H           1.09983978        0.94833202        0.06241461
H           1.09983978       -0.94833203       -0.06241457
6
MD Time 2970.00
C          -0.63070489        0.00000000       -0.00000001
C           0.63070488       -0.00000000        0.00000001
H          -1.09455052        0.94740797       -0.04689182
H          -1.09455053       -0.94740797        0.04689178
H           1.09455056        0.94740795        0.04689187
H           1.09455056       -0.94740795       -0.04689183
6
MD Time 2980.00
C          -0.61908966        0.00000000       -0.00000001
C           0.61908965       -0.00000000        0.00000001
H          -1.09019976        0.94693374       -0.03127786
H          -1.09019977       -0.94693374        0.03127781
H           1.09019980        0.94693372        0.03127792
H           1.09019980       -0.94693372       -0.03127788
6
MD Time 2990.00
C          -0.60781635        0.00000000       -0.00000001
C           0.60781634       -0.00000000        0.00000001
H          -1.08676884        0.94686253       -0.01560009
H          -1.08676884       -0.94686253        0.01560004
H           1.08676887        0.94686251        0.01560015
H           1.08676887       -0.94686251       -0.01560011
