6
MD Time 0.00
C          -1.00424993        0.00000000        0.00000000
C           1.00424993        0.00000000        0.00000000
H          -1.57974221        0.85087473        0.35244385
H          -1.57974221       -0.85087473       -0.35244385
H           1.57974221        0.85087473       -0.35244385
H           1.57974221       -0.85087473        0.35244385
6
MD Time 10.00
C          -1.00412965       -0.00000000        0.00000000
C           1.00412965       -0.00000000       -0.00000000
H          -1.57961252        0.85102868        0.35240057
H          -1.57961252       -0.85102868       -0.35240057
H           1.57961252        0.85102868       -0.35240057
H           1.57961252       -0.85102868        0.35240057
6
MD Time 20.00
C          -1.00376886       -0.00000000        0.00000000
C           1.00376886       -0.00000000       -0.00000000
H          -1.57922265        0.85148860        0.35226979
H          -1.57922265       -0.85148860       -0.35226979
H           1.57922265        0.85148859       -0.35226979
H           1.57922265       -0.85148859        0.35226979
6
MD Time 30.00
C          -1.00316774       -0.00000000        0.00000000
C           1.00316774       -0.00000000       -0.00000000
H          -1.57857025        0.85224863        0.35204879
H          -1.57857025       -0.85224863       -0.35204879
H           1.57857025        0.85224863       -0.35204879
H           1.57857025       -0.85224863        0.35204879
6
MD Time 40.00
C          -1.00232654       -0.00000000        0.00000000
C           1.00232654       -0.00000000       -0.00000000
H          -1.57765148        0.85329921        0.35173307
H          -1.57765148       -0.85329921       -0.35173307
H           1.57765149        0.85329921       -0.35173307
H           1.57765149       -0.85329921        0.35173307
6
MD Time 50.00
C          -1.00124561       -0.00000000        0.00000000
C           1.00124561       -0.00000000       -0.00000000
H          -1.57646116        0.85462724        0.35131649
H          -1.57646116       -0.85462724       -0.35131649
H           1.57646116        0.85462724       -0.35131649
H           1.57646116       -0.85462724        0.35131649
6
MD Time 60.00
C          -0.99992533       -0.00000000        0.00000000
C           0.99992533       -0.00000000       -0.00000000
H          -1.57499291        0.85621636        0.35079140
H          -1.57499291       -0.85621636       -0.35079140
H           1.57499291        0.85621636       -0.35079140
H           1.57499291       -0.85621636        0.35079140
6
MD Time 70.00
C          -0.99836610       -0.00000000        0.00000000
C           0.99836610       -0.00000000       -0.00000000
H          -1.57323940        0.85804736        0.35014879
H          -1.57323940       -0.85804736       -0.35014879
H           1.57323940        0.85804735       -0.35014878
H           1.57323940       -0.85804735        0.35014878
6
MD Time 80.00
C          -0.99656829       -0.00000000        0.00000000
C           0.99656829       -0.00000000       -0.00000000
H          -1.57119257        0.86009850        0.34937849
H          -1.57119257       -0.86009850       -0.34937849
H           1.57119258        0.86009850       -0.34937848
H           1.57119258       -0.86009850        0.34937848
6
MD Time 90.00
C          -0.99453219       -0.00000000        0.00000000
C           0.99453219       -0.00000000       -0.00000000
H          -1.56884391        0.86234606        0.34846938
H          -1.56884391       -0.86234606       -0.34846938
H           1.56884392        0.86234605       -0.34846938
H           1.56884392       -0.86234605        0.34846938
6
MD Time 100.00
C          -0.99225798       -0.00000000        0.00000000
C           0.99225798       -0.00000000       -0.00000000
H          -1.56618471        0.86476472        0.34740964
H          -1.56618471       -0.86476472       -0.34740964
H           1.56618472        0.86476471       -0.34740963
H           1.56618472       -0.86476471        0.34740963
6
MD Time 110.00
C          -0.98974568       -0.00000000        0.00000000
C           0.98974568       -0.00000000       -0.00000000
H          -1.56320637        0.86732812        0.34618690
H          -1.56320637       -0.86732812       -0.34618690
H           1.56320638        0.86732811       -0.34618689
H           1.56320638       -0.86732811        0.34618689
6
MD Time 120.00
C          -0.98699508       -0.00000000        0.00000000
C           0.98699508       -0.00000000       -0.00000000
H          -1.55990064        0.87000930        0.34478853
H          -1.55990064       -0.87000930       -0.34478854
H           1.55990066        0.87000930       -0.34478853
H           1.55990066       -0.87000930        0.34478853
6
MD Time 130.00
C          -0.98400574       -0.00000000        0.00000000
C           0.98400574       -0.00000000       -0.00000000
H          -1.55625993        0.87278125        0.34320184
H          -1.55625993       -0.87278125       -0.34320184
H           1.55625996        0.87278124       -0.34320183
H           1.55625996       -0.87278124        0.34320183
6
MD Time 140.00
C          -0.98077692       -0.00000000        0.00000000
C           0.98077692       -0.00000000       -0.00000000
H          -1.55227752        0.87561728        0.34141423
H          -1.55227752       -0.87561728       -0.34141423
H           1.55227755        0.87561727       -0.34141422
H           1.55227755       -0.87561727        0.34141422
6
MD Time 150.00
C          -0.97730756       -0.00000000        0.00000000
C           0.97730755       -0.00000000       -0.00000000
H          -1.54794780        0.87849155        0.33941344
H          -1.54794780       -0.87849155       -0.33941344
H           1.54794783        0.87849154       -0.33941343
H           1.54794783       -0.87849154        0.33941343
6
MD Time 160.00
C          -0.97359622       -0.00000000        0.00000000
C           0.97359622       -0.00000000       -0.00000000
H          -1.54326647        0.88137941        0.33718770
H          -1.54326647       -0.88137941       -0.33718770
H           1.54326650        0.88137941       -0.33718768
H           1.54326650       -0.88137941        0.33718769
6
MD Time 170.00
C          -0.96964110       -0.00000000        0.00000000
C           0.96964110       -0.00000000       -0.00000000
H          -1.53823071        0.88425781        0.33472583
H          -1.53823071       -0.88425781       -0.33472583
H           1.53823074        0.88425780       -0.33472582
H           1.53823074       -0.88425780        0.33472582
6
MD Time 180.00
C          -0.96543999       -0.00000000        0.00000000
C           0.96543999       -0.00000000       -0.00000000
H          -1.53283933        0.88710558        0.33201741
H          -1.53283933       -0.88710558       -0.33201741
H           1.53283936        0.88710557       -0.33201740
H           1.53283936       -0.88710557        0.33201740
6
MD Time 190.00
C          -0.96099027       -0.00000000        0.00000000
C           0.96099026       -0.00000000       -0.00000000
H          -1.52709286        0.88990371        0.32905286
H          -1.52709286       -0.88990371       -0.32905286
H           1.52709289        0.88990370       -0.32905284
H           1.52709289       -0.88990370        0.32905285
6
MD Time 200.00
C          -0.95628889       -0.00000000        0.00000000
C           0.95628888       -0.00000000       -0.00000000
H          -1.52099365        0.89263561        0.32582349
H          -1.52099365       -0.89263561       -0.32582349
H           1.52099368        0.89263559       -0.32582347
H           1.52099368       -0.89263559        0.32582347
6
MD Time 210.00
C          -0.95133239       -0.00000000        0.00000000
C           0.95133239       -0.00000000       -0.00000000
H          -1.51454591        0.89528723        0.32232157
H          -1.51454591       -0.89528723       -0.32232157
H           1.51454594        0.89528721       -0.32232156
H           1.51454594       -0.89528721        0.32232156
6
MD Time 220.00
C          -0.94611690       -0.00000000        0.00000000
C           0.94611689       -0.00000000       -0.00000000
H          -1.50775571        0.89784722        0.31854036
H          -1.50775571       -0.89784722       -0.31854036
H           1.50775575        0.89784720       -0.31854034
H           1.50775575       -0.89784720        0.31854034
6
MD Time 230.00
C          -0.94063815       -0.00000000        0.00000000
C           0.94063814       -0.00000000       -0.00000000
H          -1.50063101        0.90030698        0.31447406
H          -1.50063101       -0.90030698       -0.31447406
H           1.50063104        0.90030697       -0.31447404
H           1.50063104       -0.90030697        0.31447404
6
MD Time 240.00
C          -0.93489150       -0.00000000        0.00000000
C           0.93489149       -0.00000000       -0.00000000
H          -1.49318156        0.90266069        0.31011787
H          -1.49318156       -0.90266069       -0.31011787
H           1.49318159        0.90266067       -0.31011785
H           1.49318159       -0.90266067        0.31011785
6
MD Time 250.00
C          -0.92887198       -0.00000000        0.00000000
C           0.92887198       -0.00000000       -0.00000000
H          -1.48541885        0.90490524        0.30546789
H          -1.48541885       -0.90490524       -0.30546789
H           1.48541889        0.90490522       -0.30546787
H           1.48541889       -0.90490522        0.30546787
6
MD Time 260.00
C          -0.92257433       -0.00000000        0.00000000
C           0.92257433       -0.00000000       -0.00000000
H          -1.47735605        0.90704018        0.30052106
H          -1.47735605       -0.90704018       -0.30052106
H           1.47735608        0.90704016       -0.30052104
H           1.47735608       -0.90704016        0.30052104
6
MD Time 270.00
C          -0.91599304       -0.00000000        0.00000000
C           0.91599303       -0.00000000       -0.00000000
H          -1.46900781        0.90906754        0.29527515
H          -1.46900781       -0.90906754       -0.29527515
H           1.46900785        0.90906752       -0.29527513
H           1.46900785       -0.90906752        0.29527513
6
MD Time 280.00
C          -0.90912242       -0.00000000        0.00000000
C           0.90912242       -0.00000000       -0.00000000
H          -1.46039019        0.91099165        0.28972861
H          -1.46039019       -0.91099165       -0.28972862
H           1.46039022        0.91099164       -0.28972859
H           1.46039022       -0.91099164        0.28972859
6
MD Time 290.00
C          -0.90195669       -0.00000000        0.00000000
C           0.90195668       -0.00000000       -0.00000000
H          -1.45152039        0.91281890        0.28388052
H          -1.45152039       -0.91281890       -0.28388052
H           1.45152042        0.91281889       -0.28388050
H           1.45152042       -0.91281888        0.28388050
6
MD Time 300.00
C          -0.89449004       -0.00000000        0.00000000
C           0.89449004       -0.00000000       -0.00000000
H          -1.44241667        0.91455740        0.27773047
H          -1.44241667       -0.91455740       -0.27773047
H           1.44241670        0.91455739       -0.27773045
H           1.44241670       -0.91455738        0.27773045
6
MD Time 310.00
C          -0.88671676       -0.00000000        0.00000000
C           0.88671676       -0.00000000       -0.00000000
H          -1.43309802        0.91621667        0.27127847
H          -1.43309802       -0.91621667       -0.27127847
H           1.43309805        0.91621666       -0.27127844
H           1.43309805       -0.91621666        0.27127844
6
MD Time 320.00
C          -0.87863135       -0.00000000        0.00000000
C           0.87863134       -0.00000000       -0.00000000
H          -1.42358401        0.91780724        0.26452485
H          -1.42358401       -0.91780724       -0.26452485
H           1.42358404        0.91780723       -0.26452482
H           1.42358404       -0.91780723        0.26452482
6
MD Time 330.00
C          -0.87022864       -0.00000000        0.00000000
C           0.87022863       -0.00000000       -0.00000000
H          -1.41389452        0.91934021        0.25747018
H          -1.41389452       -0.91934021       -0.25747018
H           1.41389454        0.91934020       -0.25747015
H           1.41389454       -0.91934020        0.25747015
6
MD Time 340.00
C          -0.86150396       -0.00000000        0.00000000
C           0.86150396       -0.00000000       -0.00000000
H          -1.40404945        0.92082681        0.25011517
H          -1.40404945       -0.92082681       -0.25011517
H           1.40404947        0.92082680       -0.25011514
H           1.40404947       -0.92082680        0.25011514
6
MD Time 350.00
C          -0.85245335       -0.00000000        0.00000000
C           0.85245334       -0.00000000       -0.00000000
H          -1.39406852        0.92227792        0.24246065
H          -1.39406852       -0.92227792       -0.24246065
H           1.39406855        0.92227791       -0.24246062
H           1.39406855       -0.92227791        0.24246062
6
MD Time 360.00
C          -0.84307367       -0.00000000        0.00000000
C           0.84307367       -0.00000000       -0.00000000
H          -1.38397099        0.92370358        0.23450748
H          -1.38397099       -0.92370358       -0.23450748
H           1.38397102        0.92370357       -0.23450745
H           1.38397102       -0.92370357        0.23450745
6
MD Time 370.00
C          -0.83336296       -0.00000000        0.00000000
C           0.83336295       -0.00000000       -0.00000000
H          -1.37377539        0.92511252        0.22625658
H          -1.37377539       -0.92511252       -0.22625658
H           1.37377542        0.92511251       -0.22625655
H           1.37377542       -0.92511251        0.22625655
6
MD Time 380.00
C          -0.82332057       -0.00000000        0.00000000
C           0.82332056       -0.00000000       -0.00000000
H          -1.36349932        0.92651170        0.21770893
H          -1.36349932       -0.92651170       -0.21770893
H           1.36349934        0.92651169       -0.21770891
H           1.36349934       -0.92651169        0.21770891
6
MD Time 390.00
C          -0.81294754       -0.00000000        0.00000000
C           0.81294754       -0.00000000       -0.00000000
H          -1.35315921        0.92790589        0.20886565
H          -1.35315921       -0.92790589       -0.20886565
H           1.35315923        0.92790588       -0.20886562
H           1.35315923       -0.92790588        0.20886562
6
MD Time 400.00
C          -0.80224691       -0.00000000        0.00000000
C           0.80224691       -0.00000000       -0.00000000
H          -1.34277016        0.92929728        0.19972802
H          -1.34277016       -0.92929728       -0.19972802
H           1.34277018        0.92929727       -0.19972799
H           1.34277018       -0.92929727        0.19972799
6
MD Time 410.00
C          -0.79122410       -0.00000000        0.00000000
C           0.79122410       -0.00000000       -0.00000000
H          -1.33234578        0.93068521        0.19029770
H          -1.33234578       -0.93068521       -0.19029770
H           1.33234579        0.93068521       -0.19029767
H           1.33234579       -0.93068521        0.19029767
6
MD Time 420.00
C          -0.77988731       -0.00000000        0.00000000
C           0.77988730       -0.00000000       -0.00000000
H          -1.32189809        0.93206594        0.18057682
H          -1.32189809       -0.93206594       -0.18057682
H           1.32189810        0.93206594       -0.18057679
H           1.32189810       -0.93206594        0.18057679
6
MD Time 430.00
C          -0.76824803       -0.00000000        0.00000000
C           0.76824803        0.00000000       -0.00000000
H          -1.31143747        0.93343250        0.17056819
H          -1.31143747       -0.93343250       -0.17056819
H           1.31143748        0.93343250       -0.17056817
H           1.31143748       -0.93343250        0.17056817
6
MD Time 440.00
C          -0.75632160       -0.00000000        0.00000000
C           0.75632160        0.00000000       -0.00000000
H          -1.30097267        0.93477471        0.16027555
H          -1.30097267       -0.93477471       -0.16027555
H           1.30097268        0.93477471       -0.16027553
H           1.30097268       -0.93477471        0.16027553
6
MD Time 450.00
C          -0.74412776       -0.00000000        0.00000000
C           0.74412776        0.00000000       -0.00000000
H          -1.29051088        0.93607925        0.14970377
H          -1.29051088       -0.93607925       -0.14970377
H           1.29051088        0.93607925       -0.14970374
H           1.29051088       -0.93607925        0.14970374
6
MD Time 460.00
C          -0.73169138       -0.00000000        0.00000000
C           0.73169138        0.00000000       -0.00000000
H          -1.28005784        0.93732987        0.13885911
H          -1.28005784       -0.93732987       -0.13885911
H           1.28005784        0.93732987       -0.13885909
H           1.28005784       -0.93732987        0.13885909
6
MD Time 470.00
C          -0.71904319       -0.00000000        0.00000000
C           0.71904319        0.00000000       -0.00000000
H          -1.26961807        0.93850774        0.12774952
H          -1.26961807       -0.93850774       -0.12774952
H           1.26961807        0.93850774       -0.12774949
H           1.26961807       -0.93850774        0.12774949
6
MD Time 480.00
C          -0.70622060       -0.00000000        0.00000000
C           0.70622060        0.00000000       -0.00000000
H          -1.25919515        0.93959187        0.11638481
H          -1.25919515       -0.93959187       -0.11638481
H           1.25919515        0.93959188       -0.11638479
H           1.25919515       -0.93959188        0.11638478
6
MD Time 490.00
C          -0.69326860       -0.00000000        0.00000000
C           0.69326860        0.00000000       -0.00000000
H          -1.24879203        0.94055969        0.10477698
H          -1.24879203       -0.94055969       -0.10477698
H           1.24879203        0.94055970       -0.10477695
H           1.24879203       -0.94055970        0.10477695
6
MD Time 500.00
C          -0.68024067       -0.00000000        0.00000000
C           0.68024067        0.00000000       -0.00000000
H          -1.23841150        0.94138764        0.09294035
H          -1.23841150       -0.94138764       -0.09294035
H           1.23841150        0.94138765       -0.09294032
H           1.23841150       -0.94138765        0.09294032
6
MD Time 510.00
C          -0.66719970       -0.00000000        0.00000000
C           0.66719970        0.00000000       -0.00000000
H          -1.22805665        0.94205195        0.08089175
H          -1.22805665       -0.94205195       -0.08089174
H           1.22805665        0.94205196       -0.08089172
H           1.22805665       -0.94205196        0.08089172
6
MD Time 520.00
C          -0.65421892       -0.00000000        0.00000000
C           0.65421892        0.00000000       -0.00000000
H          -1.21773146        0.94252940        0.06865065
H          -1.21773146       -0.94252940       -0.06865064
H           1.21773145        0.94252942       -0.06865062
H           1.21773145       -0.94252942        0.06865062
6
MD Time 530.00
C          -0.64138263       -0.00000000        0.00000000
C           0.64138263        0.00000000       -0.00000000
H          -1.20744138        0.94279819        0.05623921
H          -1.20744138       -0.94279819       -0.05623920
H           1.20744137        0.94279821       -0.05623918
H           1.20744137       -0.94279821        0.05623918
6
MD Time 540.00
C          -0.62878677       -0.00000000        0.00000000
C           0.62878678        0.00000000       -0.00000000
H          -1.19719409        0.94283881        0.04368228
H          -1.19719409       -0.94283881       -0.04368228
H           1.19719408        0.94283883       -0.04368225
H           1.19719408       -0.94283883        0.04368225
6
MD Time 550.00
C          -0.61653912       -0.00000000        0.00000000
C           0.61653912        0.00000000       -0.00000000
H          -1.18700016        0.94263494        0.03100734
H          -1.18700016       -0.94263494       -0.03100733
H           1.18700014        0.94263496       -0.03100731
H           1.18700014       -0.94263496        0.03100731
6
MD Time 560.00
C          -0.60475892       -0.00000000        0.00000000
C           0.60475893        0.00000000       -0.00000000
H          -1.17687381        0.94217439        0.01824432
H          -1.17687381       -0.94217439       -0.01824432
H           1.17687379        0.94217441       -0.01824430
H           1.17687379       -0.94217441        0.01824429
6
MD Time 570.00
C          -0.59357589       -0.00000000        0.00000000
C           0.59357590        0.00000000       -0.00000000
H          -1.16683372        0.94145003        0.00542544
H          -1.16683372       -0.94145003       -0.00542544
H           1.16683370        0.94145005       -0.00542541
H           1.16683370       -0.94145004        0.00542541
6
MD Time 580.00
C          -0.58312823       -0.00000000        0.00000000
C           0.58312823        0.00000000       -0.00000000
H          -1.15690372        0.94046063       -0.00741515
H          -1.15690372       -0.94046063        0.00741515
H           1.15690369        0.94046065        0.00741517
H           1.15690369       -0.94046065       -0.00741518
6
MD Time 590.00
C          -0.57355961       -0.00000000        0.00000000
C           0.57355962        0.00000000       -0.00000000
H          -1.14711351        0.93921183       -0.02024169
H          -1.14711351       -0.93921183        0.02024169
H           1.14711348        0.93921185        0.02024172
H           1.14711348       -0.93921185       -0.02024172
6
MD Time 600.00
C          -0.56501504       -0.00000000        0.00000000
C           0.56501505        0.00000000       -0.00000000
H          -1.13749928        0.93771692       -0.03301727
H          -1.13749928       -0.93771692        0.03301728
H           1.13749925        0.93771694        0.03301730
H           1.13749925       -0.93771694       -0.03301731
6
MD Time 610.00
C          -0.55763553       -0.00000000        0.00000000
C           0.55763553        0.00000000       -0.00000000
H          -1.12810418        0.93599764       -0.04570435
H          -1.12810418       -0.93599764        0.04570435
H           1.12810415        0.93599766        0.04570438
H           1.12810415       -0.93599766       -0.04570438
6
MD Time 620.00
C          -0.55155188       -0.00000000        0.00000000
C           0.55155188        0.00000000       -0.00000000
H          -1.11897866        0.93408489       -0.05826526
H          -1.11897866       -0.93408489        0.05826527
H           1.11897863        0.93408491        0.05826529
H           1.11897863       -0.93408491       -0.05826529
6
MD Time 630.00
C          -0.54687795       -0.00000000        0.00000000
C           0.54687795        0.00000000       -0.00000000
H          -1.11018060        0.93201925       -0.07066289
H          -1.11018060       -0.93201925        0.07066290
H           1.11018056        0.93201927        0.07066292
H           1.11018056       -0.93201927       -0.07066292
6
MD Time 640.00
C          -0.54370399       -0.00000000        0.00000000
C           0.54370399        0.00000000       -0.00000000
H          -1.10177512        0.92985135       -0.08286129
H          -1.10177512       -0.92985135        0.08286129
H           1.10177509        0.92985138        0.08286132
H           1.10177509       -0.92985138       -0.08286132
6
MD Time 650.00
C          -0.54209079       -0.00000000        0.00000000
C           0.54209080        0.00000000       -0.00000000
H          -1.09383423        0.92764196       -0.09482636
H          -1.09383423       -0.92764196        0.09482636
H           1.09383420        0.92764198        0.09482639
H           1.09383420       -0.92764198       -0.09482639
6
MD Time 660.00
C          -0.54206542       -0.00000000        0.00000000
C           0.54206543        0.00000000       -0.00000000
H          -1.08643597        0.92546160       -0.10652653
H          -1.08643597       -0.92546160        0.10652653
H           1.08643593        0.92546162        0.10652656
H           1.08643593       -0.92546162       -0.10652656
6
MD Time 670.00
C          -0.54361904       -0.00000000        0.00000000
C           0.54361904        0.00000000       -0.00000000
H          -1.07966326        0.92338976       -0.11793340
H          -1.07966326       -0.92338976        0.11793341
H           1.07966322        0.92338979        0.11793343
H           1.07966322       -0.92338978       -0.11793343
6
MD Time 680.00
C          -0.54670728       -0.00000000        0.00000000
C           0.54670728        0.00000000       -0.00000000
H          -1.07360237        0.92151347       -0.12902232
H          -1.07360237       -0.92151347        0.12902233
H           1.07360233        0.92151350        0.12902235
H           1.07360233       -0.92151350       -0.12902236
6
MD Time 690.00
C          -0.55125304       -0.00000000        0.00000000
C           0.55125304        0.00000000       -0.00000000
H          -1.06834085        0.91992513       -0.13977280
H          -1.06834085       -0.91992513        0.13977280
H           1.06834081        0.91992515        0.13977283
H           1.06834082       -0.91992515       -0.13977283
6
MD Time 700.00
C          -0.55715135       -0.00000000        0.00000000
C           0.55715136        0.00000000       -0.00000000
H          -1.06396523        0.91871966       -0.15016873
H          -1.06396523       -0.91871966        0.15016874
H           1.06396519        0.91871968        0.15016876
H           1.06396520       -0.91871968       -0.15016877
6
MD Time 710.00
C          -0.56427572       -0.00000000        0.00000000
C           0.56427573        0.00000000       -0.00000000
H          -1.06055830        0.91799093       -0.16019841
H          -1.06055830       -0.91799093        0.16019841
H           1.06055826        0.91799095        0.16019844
H           1.06055826       -0.91799095       -0.16019844
6
MD Time 720.00
C          -0.57248510       -0.00000000        0.00000000
C           0.57248510        0.00000000       -0.00000000
H          -1.05819630        0.91782769       -0.16985416
H          -1.05819630       -0.91782769        0.16985416
H           1.05819626        0.91782771        0.16985419
H           1.05819626       -0.91782771       -0.16985419
6
MD Time 730.00
C          -0.58163082       -0.00000000        0.00000000
C           0.58163082        0.00000000       -0.00000000
H          -1.05694610        0.91830900       -0.17913174
H          -1.05694610       -0.91830900        0.17913175
H           1.05694606        0.91830902        0.17913177
H           1.05694606       -0.91830902       -0.17913177
6
MD Time 740.00
C          -0.59156293       -0.00000000        0.00000000
C           0.59156293        0.00000000       -0.00000000
H          -1.05686261        0.91949981       -0.18802942
H          -1.05686261       -0.91949981        0.18802942
H           1.05686258        0.91949983        0.18802945
H           1.05686258       -0.91949983       -0.18802945
6
MD Time 750.00
C          -0.60213543       -0.00000000        0.00000000
C           0.60213544        0.00000000       -0.00000000
H          -1.05798664        0.92144671       -0.19654683
H          -1.05798664       -0.92144671        0.19654684
H           1.05798661        0.92144673        0.19654686
H           1.05798661       -0.92144673       -0.19654687
6
MD Time 760.00
C          -0.61321036       -0.00000000        0.00000000
C           0.61321036        0.00000000       -0.00000000
H          -1.06034332        0.92417449       -0.20468381
H          -1.06034332       -0.92417449        0.20468381
H           1.06034328        0.92417451        0.20468383
H           1.06034328       -0.92417451       -0.20468384
6
MD Time 770.00
C          -0.62466051       -0.00000000        0.00000000
C           0.62466051        0.00000000       -0.00000000
H          -1.06394129        0.92768368       -0.21243913
H          -1.06394129       -0.92768368        0.21243913
H           1.06394126        0.92768370        0.21243916
H           1.06394126       -0.92768369       -0.21243916
6
MD Time 780.00
C          -0.63637118       -0.00000000        0.00000000
C           0.63637118        0.00000000       -0.00000000
H          -1.06877267        0.93194938       -0.21980954
H          -1.06877267       -0.93194938        0.21980954
H           1.06877263        0.93194940        0.21980956
H           1.06877263       -0.93194939       -0.21980957
6
MD Time 790.00
C          -0.64824083       -0.00000000        0.00000000
C           0.64824083        0.00000000       -0.00000000
H          -1.07481368        0.93692148       -0.22678895
H          -1.07481368       -0.93692148        0.22678896
H           1.07481365        0.93692150        0.22678898
H           1.07481365       -0.93692150       -0.22678898
6
MD Time 800.00
C          -0.66018104       -0.00000000        0.00000000
C           0.66018105        0.00000000       -0.00000000
H          -1.08202601        0.94252621       -0.23336806
H          -1.08202601       -0.94252621        0.23336806
H           1.08202598        0.94252622        0.23336808
H           1.08202598       -0.94252622       -0.23336809
6
MD Time 810.00
C          -0.67211597       -0.00000000        0.00000000
C           0.67211597        0.00000000       -0.00000000
H          -1.09035851        0.94866879       -0.23953422
H          -1.09035851       -0.94866879        0.23953423
H           1.09035848        0.94866880        0.23953425
H           1.09035848       -0.94866880       -0.23953425
6
MD Time 820.00
C          -0.68398136       -0.00000000        0.00000000
C           0.68398137        0.00000000       -0.00000000
H          -1.09974928        0.95523709       -0.24527175
H          -1.09974928       -0.95523709        0.24527176
H           1.09974926        0.95523710        0.24527178
H           1.09974926       -0.95523709       -0.24527179
6
MD Time 830.00
C          -0.69572349       -0.00000000        0.00000000
C           0.69572349        0.00000000       -0.00000000
H          -1.11012784        0.96210569       -0.25056245
H          -1.11012784       -0.96210569        0.25056245
H           1.11012782        0.96210570        0.25056247
H           1.11012782       -0.96210570       -0.25056248
6
MD Time 840.00
C          -0.70729789       -0.00000000        0.00000000
C           0.70729789        0.00000000       -0.00000000
H          -1.12141726        0.96914029       -0.25538629
H          -1.12141726       -0.96914029        0.25538629
H           1.12141724        0.96914029        0.25538631
H           1.12141724       -0.96914029       -0.25538632
6
MD Time 850.00
C          -0.71866821       -0.00000000        0.00000000
C           0.71866821        0.00000000       -0.00000000
H          -1.13353618        0.97620191       -0.25972227
H          -1.13353618       -0.97620191        0.25972227
H           1.13353616        0.97620192        0.25972229
H           1.13353616       -0.97620192       -0.25972230
6
MD Time 860.00
C          -0.72980503       -0.00000000        0.00000000
C           0.72980504        0.00000000       -0.00000000
H          -1.14640060        0.98315095       -0.26354926
H          -1.14640060       -0.98315095        0.26354927
H           1.14640058        0.98315095        0.26354929
H           1.14640058       -0.98315095       -0.26354929
6
MD Time 870.00
C          -0.74068489       -0.00000000        0.00000000
C           0.74068489        0.00000000       -0.00000000
H          -1.15992541        0.98985056       -0.26684679
H          -1.15992541       -0.98985056        0.26684680
H           1.15992539        0.98985057        0.26684681
H           1.15992539       -0.98985057       -0.26684682
6
MD Time 880.00
C          -0.75128928       -0.00000000        0.00000000
C           0.75128929        0.00000000       -0.00000000
H          -1.17402566        0.99616971       -0.26959577
H          -1.17402566       -0.99616971        0.26959577
H           1.17402564        0.99616971        0.26959579
H           1.17402564       -0.99616971       -0.26959579
6
MD Time 890.00
C          -0.76160391       -0.00000000        0.00000000
C           0.76160391        0.00000000       -0.00000000
H          -1.18861760        1.00198543       -0.27177908
H          -1.18861760       -1.00198543        0.27177908
H           1.18861759        1.00198543        0.27177910
H           1.18861759       -1.00198543       -0.27177910
6
MD Time 900.00
C          -0.77161793       -0.00000000        0.00000000
C           0.77161794        0.00000000       -0.00000000
H          -1.20361947        1.00718474       -0.27338208
H          -1.20361947       -1.00718474        0.27338209
H           1.20361946        1.00718474        0.27338210
H           1.20361946       -1.00718473       -0.27338211
6
MD Time 910.00
C          -0.78132339       -0.00000000        0.00000000
C           0.78132339        0.00000000       -0.00000000
H          -1.21895209        1.01166587       -0.27439297
H          -1.21895209       -1.01166587        0.27439298
H           1.21895208        1.01166587        0.27439299
H           1.21895208       -1.01166587       -0.27439300
6
MD Time 920.00
C          -0.79071468       -0.00000000        0.00000000
C           0.79071468        0.00000000       -0.00000000
H          -1.23453932        1.01533929       -0.27480301
H          -1.23453932       -1.01533929        0.27480302
H           1.23453931        1.01533929        0.27480303
H           1.23453931       -1.01533928       -0.27480304
6
MD Time 930.00
C          -0.79978809       -0.00000000        0.00000000
C           0.79978809        0.00000000       -0.00000000
H          -1.25030837        1.01812818       -0.27460673
H          -1.25030836       -1.01812818        0.27460674
H           1.25030836        1.01812818        0.27460675
H           1.25030836       -1.01812818       -0.27460676
6
MD Time 940.00
C          -0.80854146       -0.00000000        0.00000000
C           0.80854146        0.00000000       -0.00000000
H          -1.26619003        1.01996887       -0.27380199
H          -1.26619003       -1.01996886        0.27380200
H           1.26619003        1.01996886        0.27380200
H           1.26619003       -1.01996886       -0.27380201
6
MD Time 950.00
C          -0.81697384       -0.00000000        0.00000000
C           0.81697384        0.00000000       -0.00000000
H          -1.28211887        1.02081091       -0.27239002
H          -1.28211887       -1.02081091        0.27239003
H           1.28211887        1.02081091        0.27239003
H           1.28211887       -1.02081091       -0.27239004
6
MD Time 960.00
C          -0.82508519       -0.00000000        0.00000000
C           0.82508519        0.00000000       -0.00000000
H          -1.29803331        1.02061722       -0.27037543
H          -1.29803331       -1.02061722        0.27037543
H           1.29803331        1.02061721        0.27037544
H           1.29803331       -1.02061721       -0.27037545
6
MD Time 970.00
C          -0.83287618       -0.00000000        0.00000000
C           0.83287618        0.00000000       -0.00000000
H          -1.31387578        1.01936396       -0.26776613
H          -1.31387578       -1.01936396        0.26776614
H           1.31387578        1.01936396        0.26776614
H           1.31387578       -1.01936395       -0.26776615
6
MD Time 980.00
C          -0.84034794       -0.00000000        0.00000000
C           0.84034794        0.00000000       -0.00000000
H          -1.32959282        1.01704058       -0.26457333
H          -1.32959282       -1.01704058        0.26457334
H           1.32959282        1.01704057        0.26457334
H           1.32959282       -1.01704057       -0.26457335
6
MD Time 990.00
C          -0.84750186       -0.00000000        0.00000000
C           0.84750186        0.00000000       -0.00000000
H          -1.34513519        1.01364971       -0.26081141
H          -1.34513519       -1.01364971        0.26081142
H           1.34513520        1.01364971        0.26081142
H           1.34513520       -1.01364970       -0.26081143
6
MD Time 1000.00
C          -0.85433946       -0.00000000        0.00000000
C           0.85433945        0.00000000       -0.00000000
H          -1.36045803        1.00920718       -0.25649785
H          -1.36045803       -1.00920718        0.25649786
H           1.36045804        1.00920717        0.25649785
H           1.36045804       -1.00920717       -0.25649786
6
MD Time 1010.00
C          -0.86086219       -0.00000000        0.00000000
C           0.86086219        0.00000000       -0.00000000
H          -1.37552099        1.00374193       -0.25165313
H          -1.37552098       -1.00374193        0.25165314
H           1.37552100        1.00374192        0.25165313
H           1.37552100       -1.00374192       -0.25165315
6
MD Time 1020.00
C          -0.86707132       -0.00000000        0.00000000
C           0.86707131        0.00000000       -0.00000000
H          -1.39028844        0.99729606       -0.24630061
H          -1.39028844       -0.99729606        0.24630062
H           1.39028845        0.99729605        0.24630061
H           1.39028845       -0.99729605       -0.24630062
6
MD Time 1030.00
C          -0.87296778       -0.00000000        0.00000000
C           0.87296777        0.00000000       -0.00000000
H          -1.40472967        0.98992474       -0.24046635
H          -1.40472967       -0.98992474        0.24046636
H           1.40472968        0.98992473        0.24046634
H           1.40472969       -0.98992473       -0.24046636
6
MD Time 1040.00
C          -0.87855205       -0.00000000        0.00000000
C           0.87855205        0.00000000       -0.00000000
H          -1.41881906        0.98169617       -0.23417896
H          -1.41881906       -0.98169617        0.23417897
H           1.41881908        0.98169616        0.23417896
H           1.41881908       -0.98169616       -0.23417897
6
MD Time 1050.00
C          -0.88382409       -0.00000000        0.00000000
C           0.88382408        0.00000000       -0.00000000
H          -1.43253631        0.97269137       -0.22746938
H          -1.43253631       -0.97269137        0.22746939
H           1.43253633        0.97269136        0.22746937
H           1.43253633       -0.97269136       -0.22746939
6
MD Time 1060.00
C          -0.88878318       -0.00000000        0.00000000
C           0.88878318        0.00000000       -0.00000000
H          -1.44586656        0.96300390       -0.22037056
H          -1.44586656       -0.96300390        0.22037057
H           1.44586658        0.96300390        0.22037055
H           1.44586658       -0.96300389       -0.22037056
6
MD Time 1070.00
C          -0.89342794       -0.00000000        0.00000000
C           0.89342793        0.00000000       -0.00000000
H          -1.45880047        0.95273936       -0.21291715
H          -1.45880047       -0.95273935        0.21291716
H           1.45880049        0.95273935        0.21291714
H           1.45880050       -0.95273935       -0.21291715
6
MD Time 1080.00
C          -0.89775621       -0.00000000        0.00000000
C           0.89775621        0.00000000       -0.00000000
H          -1.47133420        0.94201460       -0.20514507
H          -1.47133420       -0.94201460        0.20514508
H           1.47133423        0.94201459        0.20514505
H           1.47133423       -0.94201459       -0.20514506
6
MD Time 1090.00
C          -0.90176512       -0.00000000        0.00000000
C           0.90176512        0.00000000       -0.00000000
H          -1.48346924        0.93095671       -0.19709101
H          -1.48346924       -0.93095671        0.19709102
H           1.48346926        0.93095670        0.19709099
H           1.48346926       -0.93095670       -0.19709101
6
MD Time 1100.00
C          -0.90545109       -0.00000000        0.00000000
C           0.90545109        0.00000000       -0.00000000
H          -1.49521197        0.91970153       -0.18879188
H          -1.49521197       -0.91970153        0.18879190
H           1.49521200        0.91970152        0.18879186
H           1.49521200       -0.91970152       -0.18879188
6
MD Time 1110.00
C          -0.90880991       -0.00000000        0.00000000
C           0.90880990        0.00000000       -0.00000000
H          -1.50657312        0.90839182       -0.18028414
H          -1.50657312       -0.90839181        0.18028415
H           1.50657314        0.90839181        0.18028411
H           1.50657315       -0.90839180       -0.18028413
6
MD Time 1120.00
C          -0.91183689       -0.00000000        0.00000000
C           0.91183689        0.00000000       -0.00000000
H          -1.51756677        0.89717494       -0.17160308
H          -1.51756677       -0.89717494        0.17160309
H           1.51756680        0.89717493        0.17160305
H           1.51756680       -0.89717493       -0.17160307
6
MD Time 1130.00
C          -0.91452708       -0.00000000        0.00000000
C           0.91452708        0.00000000       -0.00000000
H          -1.52820922        0.88620017       -0.16278212
H          -1.52820922       -0.88620017        0.16278214
H           1.52820925        0.88620016        0.16278210
H           1.52820926       -0.88620016       -0.16278211
6
MD Time 1140.00
C          -0.91687548       -0.00000000        0.00000000
C           0.91687547        0.00000000       -0.00000000
H          -1.53851745        0.87561558       -0.15385208
H          -1.53851745       -0.87561558        0.15385210
H           1.53851748        0.87561557        0.15385205
H           1.53851748       -0.87561557       -0.15385207
6
MD Time 1150.00
C          -0.91887735       -0.00000000        0.00000000
C           0.91887735        0.00000000       -0.00000000
H          -1.54850734        0.86556466       -0.14484046
H          -1.54850734       -0.86556466        0.14484048
H           1.54850737        0.86556465        0.14484043
H           1.54850737       -0.86556465       -0.14484044
6
MD Time 1160.00
C          -0.92052859       -0.00000000        0.00000000
C           0.92052858        0.00000000       -0.00000000
H          -1.55819173        0.85618279       -0.13577088
H          -1.55819173       -0.85618278        0.13577089
H           1.55819176        0.85618278        0.13577085
H           1.55819176       -0.85618277       -0.13577086
6
MD Time 1170.00
C          -0.92182601       -0.00000000        0.00000000
C           0.92182601        0.00000000       -0.00000000
H          -1.56757838        0.84759372       -0.12666263
H          -1.56757838       -0.84759372        0.12666265
H           1.56757841        0.84759371        0.12666259
H           1.56757841       -0.84759371       -0.12666261
6
MD Time 1180.00
C          -0.92276777       -0.00000000        0.00000000
C           0.92276776        0.00000000       -0.00000000
H          -1.57666798        0.83990630       -0.11753043
H          -1.57666798       -0.83990630        0.11753044
H           1.57666801        0.83990630        0.11753039
H           1.57666801       -0.83990629       -0.11753040
6
MD Time 1190.00
C          -0.92335359       -0.00000000        0.00000000
C           0.92335359        0.00000000       -0.00000000
H          -1.58545238        0.83321163       -0.10838437
H          -1.58545238       -0.83321163        0.10838439
H           1.58545241        0.83321162        0.10838433
H           1.58545241       -0.83321162       -0.10838435
6
MD Time 1200.00
C          -0.92358509       -0.00000000        0.00000000
C           0.92358509        0.00000000       -0.00000000
H          -1.59391320        0.82758076       -0.09923017
H          -1.59391320       -0.82758075        0.09923019
H           1.59391323        0.82758075        0.09923013
H           1.59391323       -0.82758074       -0.09923014
6
MD Time 1210.00
C          -0.92346588       -0.00000000        0.00000000
C           0.92346587        0.00000000       -0.00000000
H          -1.60202095        0.82306321       -0.09006955
H          -1.60202095       -0.82306321        0.09006957
H           1.60202098        0.82306320        0.09006950
H           1.60202098       -0.82306320       -0.09006952
6
MD Time 1220.00
C          -0.92300162       -0.00000000        0.00000000
C           0.92300162        0.00000000       -0.00000000
H          -1.60973475        0.81968633       -0.08090089
H          -1.60973475       -0.81968633        0.08090090
H           1.60973477        0.81968632        0.08090084
H           1.60973478       -0.81968631       -0.08090085
6
MD Time 1230.00
C          -0.92220002       -0.00000000        0.00000000
C           0.92220001        0.00000000       -0.00000000
H          -1.61700270        0.81745538       -0.07171999
H          -1.61700270       -0.81745538        0.07172001
H           1.61700272        0.81745537        0.07171994
H           1.61700273       -0.81745537       -0.07171996
6
MD Time 1240.00
C          -0.92107059       -0.00000000        0.00000000
C           0.92107059        0.00000000       -0.00000000
H          -1.62376290        0.81635458       -0.06252097
H          -1.62376290       -0.81635458        0.06252099
H           1.62376292        0.81635457        0.06252092
H           1.62376292       -0.81635456       -0.06252093
6
MD Time 1250.00
C          -0.91962446       -0.00000000        0.00000000
C           0.91962446        0.00000000       -0.00000000
H          -1.62994496        0.81634863       -0.05329711
H          -1.62994496       -0.81634863        0.05329712
H           1.62994498        0.81634861        0.05329705
H           1.62994499       -0.81634861       -0.05329707
6
MD Time 1260.00
C          -0.91787399       -0.00000000        0.00000000
C           0.91787399        0.00000000       -0.00000000
H          -1.63547202        0.81738493       -0.04404174
H          -1.63547203       -0.81738493        0.04404175
H           1.63547204        0.81738492        0.04404168
H           1.63547204       -0.81738491       -0.04404169
6
MD Time 1270.00
C          -0.91583243       -0.00000000        0.00000000
C           0.91583243        0.00000000       -0.00000000
H          -1.64026293        0.81939603       -0.03474902
H          -1.64026293       -0.81939603        0.03474903
H           1.64026294        0.81939602        0.03474896
H           1.64026295       -0.81939602       -0.03474897
6
MD Time 1280.00
C          -0.91351348       -0.00000000        0.00000000
C           0.91351348        0.00000000       -0.00000000
H          -1.64423460        0.82230231       -0.02541458
H          -1.64423460       -0.82230231        0.02541460
H           1.64423461        0.82230230        0.02541452
H           1.64423462       -0.82230230       -0.02541453
6
MD Time 1290.00
C          -0.91093096       -0.00000000        0.00000000
C           0.91093096        0.00000000       -0.00000000
H          -1.64730433        0.82601467       -0.01603606
H          -1.64730433       -0.82601467        0.01603607
H           1.64730434        0.82601466        0.01603599
H           1.64730435       -0.82601466       -0.01603601
6
MD Time 1300.00
C          -0.90809839       -0.00000000        0.00000000
C           0.90809839        0.00000000       -0.00000000
H          -1.64939194        0.83043711       -0.00661344
H          -1.64939195       -0.83043711        0.00661345
H           1.64939195        0.83043710        0.00661337
H           1.64939196       -0.83043710       -0.00661339
6
MD Time 1310.00
C          -0.90502868       -0.00000000        0.00000000
C           0.90502868        0.00000000       -0.00000000
H          -1.65042170        0.83546918        0.00285069
H          -1.65042170       -0.83546918       -0.00285068
H           1.65042170        0.83546917       -0.00285076
H           1.65042171       -0.83546917        0.00285074
6
MD Time 1320.00
C          -0.90173387       -0.00000000        0.00000000
C           0.90173387        0.00000000       -0.00000000
H          -1.65032391        0.84100813        0.01235105
H          -1.65032392       -0.84100813       -0.01235104
H           1.65032392        0.84100812       -0.01235112
H           1.65032392       -0.84100811        0.01235111
6
MD Time 1330.00
C          -0.89822489       -0.00000000        0.00000000
C           0.89822489        0.00000000       -0.00000000
H          -1.64903630        0.84695080        0.02187969
H          -1.64903630       -0.84695080       -0.02187967
H           1.64903630        0.84695079       -0.02187976
H           1.64903630       -0.84695079        0.02187974
6
MD Time 1340.00
C          -0.89451141       -0.00000000        0.00000000
C           0.89451141        0.00000000       -0.00000000
H          -1.64650495        0.85319531        0.03142604
H          -1.64650495       -0.85319531       -0.03142603
H           1.64650495        0.85319530       -0.03142611
H           1.64650496       -0.85319530        0.03142610
6
MD Time 1350.00
C          -0.89060170       -0.00000000        0.00000000
C           0.89060170        0.00000000       -0.00000000
H          -1.64268512        0.85964244        0.04097715
H          -1.64268512       -0.85964243       -0.04097714
H           1.64268512        0.85964243       -0.04097722
H           1.64268512       -0.85964242        0.04097721
6
MD Time 1360.00
C          -0.88650257       -0.00000000        0.00000000
C           0.88650257        0.00000000       -0.00000000
H          -1.63754169        0.86619673        0.05051782
H          -1.63754170       -0.86619673       -0.05051781
H           1.63754169        0.86619673       -0.05051790
H           1.63754169       -0.86619672        0.05051789
6
MD Time 1370.00
C          -0.88221934       -0.00000000        0.00000000
C           0.88221934        0.00000000       -0.00000000
H          -1.63104954        0.87276757        0.06003093
H          -1.63104954       -0.87276757       -0.06003091
H           1.63104954        0.87276756       -0.06003100
H           1.63104954       -0.87276756        0.06003099
6
MD Time 1380.00
C          -0.87775580       -0.00000000        0.00000000
C           0.87775580        0.00000000       -0.00000000
H          -1.62319366        0.87926988        0.06949763
H          -1.62319366       -0.87926988       -0.06949761
H           1.62319365        0.87926987       -0.06949770
H           1.62319365       -0.87926987        0.06949769
6
MD Time 1390.00
C          -0.87311426       -0.00000000        0.00000000
C           0.87311427        0.00000000       -0.00000000
H          -1.61396922        0.88562490        0.07889768
H          -1.61396922       -0.88562490       -0.07889767
H           1.61396921        0.88562490       -0.07889776
H           1.61396921       -0.88562490        0.07889775
6
MD Time 1400.00
C          -0.86829558       -0.00000000        0.00000000
C           0.86829558        0.00000000       -0.00000000
H          -1.60338157        0.89176074        0.08820974
H          -1.60338157       -0.89176074       -0.08820972
H           1.60338156        0.89176073       -0.08820981
H           1.60338156       -0.89176073        0.08820980
6
MD Time 1410.00
C          -0.86329917       -0.00000000        0.00000000
C           0.86329917        0.00000000       -0.00000000
H          -1.59144614        0.89761289        0.09741160
H          -1.59144614       -0.89761289       -0.09741159
H           1.59144612        0.89761289       -0.09741168
H           1.59144613       -0.89761288        0.09741167
6
MD Time 1420.00
C          -0.85812312       -0.00000000        0.00000000
C           0.85812312        0.00000000       -0.00000000
H          -1.57818833        0.90312474        0.10648056
H          -1.57818833       -0.90312474       -0.10648054
H           1.57818832        0.90312474       -0.10648063
H           1.57818832       -0.90312474        0.10648062
6
MD Time 1430.00
C          -0.85276423       -0.00000000        0.00000000
C           0.85276424        0.00000000       -0.00000000
H          -1.56364342        0.90824802        0.11539362
H          -1.56364343       -0.90824802       -0.11539360
H           1.56364341        0.90824802       -0.11539369
H           1.56364341       -0.90824802        0.11539368
6
MD Time 1440.00
C          -0.84721811       -0.00000000        0.00000000
C           0.84721811        0.00000000       -0.00000000
H          -1.54785642        0.91294322        0.12412785
H          -1.54785642       -0.91294322       -0.12412784
H           1.54785640        0.91294322       -0.12412792
H           1.54785641       -0.91294322        0.12412792
6
MD Time 1450.00
C          -0.84147925       -0.00000000        0.00000000
C           0.84147925        0.00000000       -0.00000000
H          -1.53088189        0.91718004        0.13266063
H          -1.53088190       -0.91718004       -0.13266062
H           1.53088187        0.91718004       -0.13266071
H           1.53088188       -0.91718004        0.13266070
6
MD Time 1460.00
C          -0.83554114       -0.00000000        0.00000000
C           0.83554114        0.00000000       -0.00000000
H          -1.51278384        0.92093777        0.14096995
H          -1.51278385       -0.92093777       -0.14096994
H           1.51278382        0.92093778       -0.14097003
H           1.51278383       -0.92093777        0.14097002
6
MD Time 1470.00
C          -0.82939639       -0.00000000        0.00000000
C           0.82939640        0.00000000       -0.00000000
H          -1.49363547        0.92420570        0.14903468
H          -1.49363547       -0.92420570       -0.14903467
H           1.49363545        0.92420571       -0.14903475
H           1.49363546       -0.92420571        0.14903475
6
MD Time 1480.00
C          -0.82303690       -0.00000000        0.00000000
C           0.82303690        0.00000000       -0.00000000
H          -1.47351894        0.92698344        0.15683481
H          -1.47351894       -0.92698344       -0.15683480
H           1.47351892        0.92698345       -0.15683488
H           1.47351893       -0.92698345        0.15683488
6
MD Time 1490.00
C          -0.81645397       -0.00000000        0.00000000
C           0.81645397        0.00000000       -0.00000000
H          -1.45252505        0.92928118        0.16435175
H          -1.45252505       -0.92928118       -0.16435174
H           1.45252503        0.92928119       -0.16435183
H           1.45252503       -0.92928119        0.16435182
6
MD Time 1500.00
C          -0.80963856       -0.00000000        0.00000000
C           0.80963856        0.00000000       -0.00000000
H          -1.43075280        0.93111987        0.17156854
H          -1.43075280       -0.93111987       -0.17156853
H           1.43075277        0.93111988       -0.17156862
H           1.43075278       -0.93111987        0.17156861
6
MD Time 1510.00
C          -0.80258149       -0.00000000        0.00000000
C           0.80258150        0.00000000       -0.00000000
H          -1.40830886        0.93253118        0.17847003
H          -1.40830886       -0.93253118       -0.17847002
H           1.40830884        0.93253119       -0.17847010
H           1.40830884       -0.93253119        0.17847010
6
MD Time 1520.00
C          -0.79527377       -0.00000000        0.00000000
C           0.79527377        0.00000000       -0.00000000
H          -1.38530690        0.93355736        0.18504303
H          -1.38530690       -0.93355737       -0.18504303
H           1.38530687        0.93355737       -0.18504311
H           1.38530688       -0.93355737        0.18504310
6
MD Time 1530.00
C          -0.78770686       -0.00000000        0.00000000
C           0.78770686        0.00000000       -0.00000000
H          -1.36186669        0.93425078        0.19127643
H          -1.36186670       -0.93425078       -0.19127642
H           1.36186667        0.93425079       -0.19127650
H           1.36186668       -0.93425079        0.19127650
6
MD Time 1540.00
C          -0.77987311       -0.00000000        0.00000000
C           0.77987312        0.00000000       -0.00000000
H          -1.33811316        0.93467315        0.19716116
H          -1.33811316       -0.93467315       -0.19716115
H           1.33811313        0.93467316       -0.19716123
H           1.33811314       -0.93467315        0.19716123
6
MD Time 1550.00
C          -0.77176620       -0.00000000        0.00000000
C           0.77176620        0.00000000       -0.00000000
H          -1.31417510        0.93489444        0.20269013
H          -1.31417510       -0.93489444       -0.20269012
H           1.31417507        0.93489445       -0.20269020
H           1.31417508       -0.93489445        0.20269019
6
MD Time 1560.00
C          -0.76338159       -0.00000000        0.00000000
C           0.76338160        0.00000000       -0.00000000
H          -1.29018387        0.93499142        0.20785802
H          -1.29018387       -0.93499142       -0.20785802
H           1.29018385        0.93499143       -0.20785809
H           1.29018385       -0.93499143        0.20785809
6
MD Time 1570.00
C          -0.75471715       -0.00000000        0.00000000
C           0.75471715        0.00000000       -0.00000000
H          -1.26627187        0.93504573        0.21266100
H          -1.26627187       -0.93504573       -0.21266100
H           1.26627184        0.93504574       -0.21266107
H           1.26627184       -0.93504574        0.21266106
6
MD Time 1580.00
C          -0.74577368       -0.00000000        0.00000000
C           0.74577368        0.00000000       -0.00000000
H          -1.24257088        0.93514165        0.21709625
H          -1.24257089       -0.93514165       -0.21709624
H           1.24257086        0.93514166       -0.21709631
H           1.24257086       -0.93514165        0.21709631
6
MD Time 1590.00
C          -0.73655565       -0.00000000        0.00000000
C           0.73655565        0.00000000       -0.00000000
H          -1.21921048        0.93536345        0.22116144
H          -1.21921048       -0.93536345       -0.22116143
H           1.21921045        0.93536346       -0.22116150
H           1.21921045       -0.93536346        0.22116150
6
MD Time 1600.00
C          -0.72707184       -0.00000000        0.00000000
C           0.72707184        0.00000000       -0.00000000
H          -1.19631628        0.93579260        0.22485415
H          -1.19631628       -0.93579260       -0.22485414
H           1.19631626        0.93579261       -0.22485421
H           1.19631626       -0.93579260        0.22485420
6
MD Time 1610.00
C          -0.71733609       -0.00000000        0.00000000
C           0.71733609        0.00000000       -0.00000000
H          -1.17400845        0.93650473        0.22817114
H          -1.17400846       -0.93650473       -0.22817113
H           1.17400843        0.93650474       -0.22817119
H           1.17400843       -0.93650474        0.22817119
6
MD Time 1620.00
C          -0.70736802       -0.00000000        0.00000000
C           0.70736802        0.00000000       -0.00000000
H          -1.15240024        0.93756672        0.23110772
H          -1.15240024       -0.93756672       -0.23110772
H           1.15240021        0.93756673       -0.23110778
H           1.15240022       -0.93756673        0.23110777
6
MD Time 1630.00
C          -0.69719378       -0.00000000        0.00000000
C           0.69719379        0.00000000       -0.00000000
H          -1.13159676        0.93903394        0.23365714
H          -1.13159677       -0.93903394       -0.23365714
H           1.13159674        0.93903395       -0.23365720
H           1.13159674       -0.93903394        0.23365719
6
MD Time 1640.00
C          -0.68684676       -0.00000000        0.00000000
C           0.68684677        0.00000000       -0.00000000
H          -1.11169408        0.94094788        0.23581007
H          -1.11169408       -0.94094788       -0.23581006
H           1.11169405        0.94094788       -0.23581012
H           1.11169406       -0.94094788        0.23581012
6
MD Time 1650.00
C          -0.67636827       -0.00000000        0.00000000
C           0.67636828        0.00000000       -0.00000000
H          -1.09277851        0.94333433        0.23755425
H          -1.09277851       -0.94333433       -0.23755424
H           1.09277848        0.94333433       -0.23755430
H           1.09277849       -0.94333433        0.23755429
6
MD Time 1660.00
C          -0.66580817       -0.00000000        0.00000000
C           0.66580817        0.00000000       -0.00000000
H          -1.07492628        0.94620222        0.23887440
H          -1.07492628       -0.94620222       -0.23887440
H           1.07492625        0.94620222       -0.23887445
H           1.07492625       -0.94620222        0.23887445
6
MD Time 1670.00
C          -0.65522535       -0.00000000        0.00000000
C           0.65522535        0.00000000       -0.00000000
H          -1.05820342        0.94954321        0.23975233
H          -1.05820342       -0.94954321       -0.23975232
H           1.05820340        0.94954322       -0.23975237
H           1.05820340       -0.94954321        0.23975237
6
MD Time 1680.00
C          -0.64468817       -0.00000000        0.00000000
C           0.64468817        0.00000000       -0.00000000
H          -1.04266598        0.95333203        0.24016723
H          -1.04266598       -0.95333203       -0.24016723
H           1.04266596        0.95333203       -0.24016728
H           1.04266596       -0.95333203        0.24016727
6
MD Time 1690.00
C          -0.63427458       -0.00000000        0.00000000
C           0.63427459        0.00000000       -0.00000000
H          -1.02836035        0.95752751        0.24009631
H          -1.02836035       -0.95752751       -0.24009630
H           1.02836032        0.95752751       -0.24009635
H           1.02836033       -0.95752751        0.24009635
6
MD Time 1700.00
C          -0.62407208       -0.00000000        0.00000000
C           0.62407209        0.00000000       -0.00000000
H          -1.01532379        0.96207428        0.23951548
H          -1.01532379       -0.96207428       -0.23951547
H           1.01532377        0.96207428       -0.23951552
H           1.01532377       -0.96207428        0.23951551
6
MD Time 1710.00
C          -0.61417723       -0.00000000        0.00000000
C           0.61417724        0.00000000       -0.00000000
H          -1.00358511        0.96690494        0.23840027
H          -1.00358511       -0.96690494       -0.23840026
H           1.00358509        0.96690494       -0.23840030
H           1.00358509       -0.96690493        0.23840030
6
MD Time 1720.00
C          -0.60469477       -0.00000000        0.00000000
C           0.60469477        0.00000000       -0.00000000
H          -0.99316529        0.97194251        0.23672674
H          -0.99316529       -0.97194251       -0.23672674
H           0.99316527        0.97194250       -0.23672678
H           0.99316527       -0.97194250        0.23672677
6
MD Time 1730.00
C          -0.59573615       -0.00000000        0.00000000
C           0.59573616        0.00000000       -0.00000000
H          -0.98407822        0.97710315        0.23447247
H          -0.98407821       -0.97710315       -0.23447247
H           0.98407820        0.97710314       -0.23447250
H           0.98407820       -0.97710314        0.23447250
6
MD Time 1740.00
C          -0.58741748       -0.00000000        0.00000000
C           0.58741748        0.00000000       -0.00000000
H          -0.97633136        0.98229883        0.23161740
H          -0.97633136       -0.98229883       -0.23161740
H           0.97633134        0.98229882       -0.23161743
H           0.97633134       -0.98229882        0.23161743
6
MD Time 1750.00
C          -0.57985667       -0.00000000        0.00000000
C           0.57985668        0.00000000       -0.00000000
H          -0.96992639        0.98743995        0.22814467
H          -0.96992639       -0.98743995       -0.22814466
H           0.96992638        0.98743994       -0.22814469
H           0.96992638       -0.98743994        0.22814469
6
MD Time 1760.00
C          -0.57317008       -0.00000000        0.00000000
C           0.57317008        0.00000000       -0.00000000
H          -0.96485980        0.99243776        0.22404124
H          -0.96485980       -0.99243776       -0.22404123
H           0.96485979        0.99243775       -0.22404126
H           0.96485979       -0.99243775        0.22404126
6
MD Time 1770.00
C          -0.56746839       -0.00000000        0.00000000
C           0.56746839        0.00000000       -0.00000000
H          -0.96112340        0.99720650        0.21929844
H          -0.96112339       -0.99720650       -0.21929844
H           0.96112338        0.99720650       -0.21929847
H           0.96112338       -0.99720650        0.21929846
6
MD Time 1780.00
C          -0.56285223       -0.00000000        0.00000000
C           0.56285223        0.00000000       -0.00000000
H          -0.95870477        1.00166534        0.21391233
H          -0.95870477       -1.00166535       -0.21391232
H           0.95870476        1.00166534       -0.21391235
H           0.95870476       -1.00166534        0.21391234
6
MD Time 1790.00
C          -0.55940762       -0.00000000        0.00000000
C           0.55940763        0.00000000       -0.00000000
H          -0.95758774        1.00573991        0.20788384
H          -0.95758773       -1.00573991       -0.20788383
H           0.95758772        1.00573991       -0.20788386
H           0.95758772       -1.00573990        0.20788386
6
MD Time 1800.00
C          -0.55720177       -0.00000000        0.00000000
C           0.55720177        0.00000000       -0.00000000
H          -0.95775268        1.00936361        0.20121893
H          -0.95775268       -1.00936361       -0.20121892
H           0.95775267        1.00936361       -0.20121895
H           0.95775267       -1.00936360        0.20121894
6
MD Time 1810.00
C          -0.55627946       -0.00000000        0.00000000
C           0.55627947        0.00000000       -0.00000001
H          -0.95917694        1.01247864        0.19392849
H          -0.95917694       -1.01247864       -0.19392848
H           0.95917693        1.01247864       -0.19392851
H           0.95917693       -1.01247864        0.19392850
6
MD Time 1820.00
C          -0.55666065       -0.00000000        0.00000001
C           0.55666065        0.00000000       -0.00000001
H          -0.96183511        1.01503679        0.18602824
H          -0.96183511       -1.01503679       -0.18602823
H           0.96183510        1.01503678       -0.18602825
H           0.96183510       -1.01503678        0.18602824
6
MD Time 1830.00
C          -0.55833930       -0.00000000        0.00000001
C           0.55833930        0.00000000       -0.00000001
H          -0.96569943        1.01699994        0.17753851
H          -0.96569942       -1.01699994       -0.17753850
H           0.96569942        1.01699993       -0.17753852
H           0.96569942       -1.01699993        0.17753851
6
MD Time 1840.00
C          -0.56128382       -0.00000000        0.00000001
C           0.56128382        0.00000000       -0.00000001
H          -0.97074008        1.01834048        0.16848400
H          -0.97074008       -1.01834048       -0.16848399
H           0.97074008        1.01834048       -0.16848401
H           0.97074008       -1.01834048        0.16848400
6
MD Time 1850.00
C          -0.56543885       -0.00000000        0.00000001
C           0.56543885        0.00000000       -0.00000001
H          -0.97692560        1.01904146        0.15889345
H          -0.97692560       -1.01904146       -0.15889344
H           0.97692560        1.01904146       -0.15889346
H           0.97692560       -1.01904146        0.15889345
6
MD Time 1860.00
C          -0.57072841       -0.00000000        0.00000001
C           0.57072841        0.00000000       -0.00000001
H          -0.98422318        1.01909658        0.14879925
H          -0.98422317       -1.01909658       -0.14879924
H           0.98422318        1.01909658       -0.14879926
H           0.98422318       -1.01909658        0.14879925
6
MD Time 1870.00
C          -0.57705979       -0.00000000        0.00000001
C           0.57705979        0.00000000       -0.00000001
H          -0.99259902        1.01851004        0.13823706
H          -0.99259902       -1.01851005       -0.13823705
H           0.99259902        1.01851005       -0.13823707
H           0.99259902       -1.01851005        0.13823706
6
MD Time 1880.00
C          -0.58432795       -0.00000000        0.00000001
C           0.58432795        0.00000000       -0.00000001
H          -1.00201865        1.01729624        0.12724530
H          -1.00201864       -1.01729624       -0.12724529
H           1.00201865        1.01729624       -0.12724530
H           1.00201865       -1.01729624        0.12724529
6
MD Time 1890.00
C          -0.59242008       -0.00000000        0.00000001
C           0.59242008        0.00000000       -0.00000001
H          -1.01244711        1.01547921        0.11586461
H          -1.01244711       -1.01547921       -0.11586459
H           1.01244711        1.01547921       -0.11586461
H           1.01244711       -1.01547921        0.11586459
6
MD Time 1900.00
C          -0.60121972       -0.00000000        0.00000001
C           0.60121972        0.00000000       -0.00000001
H          -1.02384919        1.01309196        0.10413728
H          -1.02384919       -1.01309196       -0.10413727
H           1.02384919        1.01309196       -0.10413728
H           1.02384919       -1.01309196        0.10413727
6
MD Time 1910.00
C          -0.61061053       -0.00000000        0.00000001
C           0.61061052        0.00000000       -0.00000001
H          -1.03618944        1.01017556        0.09210666
H          -1.03618943       -1.01017556       -0.09210664
H           1.03618944        1.01017556       -0.09210665
H           1.03618944       -1.01017556        0.09210664
6
MD Time 1920.00
C          -0.62047925       -0.00000000        0.00000001
C           0.62047924        0.00000000       -0.00000001
H          -1.04943218        1.00677806        0.07981644
H          -1.04943218       -1.00677806       -0.07981642
H           1.04943219        1.00677806       -0.07981643
H           1.04943219       -1.00677806        0.07981642
6
MD Time 1930.00
C          -0.63071812       -0.00000000        0.00000001
C           0.63071811        0.00000000       -0.00000001
H          -1.06354136        1.00295316        0.06731009
H          -1.06354136       -1.00295316       -0.06731007
H           1.06354137        1.00295317       -0.06731008
H           1.06354137       -1.00295317        0.06731006
6
MD Time 1940.00
C          -0.64122651       -0.00000000        0.00000001
C           0.64122651        0.00000000       -0.00000001
H          -1.07848030        0.99875877        0.05463019
H          -1.07848030       -0.99875877       -0.05463017
H           1.07848031        0.99875877       -0.05463018
H           1.07848031       -0.99875877        0.05463016
6
MD Time 1950.00
C          -0.65191205       -0.00000000        0.00000001
C           0.65191205        0.00000000       -0.00000001
H          -1.09421131        0.99425529        0.04181789
H          -1.09421130       -0.99425529       -0.04181787
H           1.09421132        0.99425529       -0.04181788
H           1.09421132       -0.99425529        0.04181786
6
MD Time 1960.00
C          -0.66269114       -0.00000000        0.00000001
C           0.66269114        0.00000000       -0.00000001
H          -1.11069525        0.98950389        0.02891241
H          -1.11069525       -0.98950389       -0.02891239
H           1.11069526        0.98950390       -0.02891240
H           1.11069526       -0.98950390        0.02891238
6
MD Time 1970.00
C          -0.67348925       -0.00000000        0.00000001
C           0.67348925        0.00000000       -0.00000001
H          -1.12789097        0.98456465        0.01595066
H          -1.12789097       -0.98456466       -0.01595064
H           1.12789098        0.98456466       -0.01595065
H           1.12789098       -0.98456466        0.01595063
6
MD Time 1980.00
C          -0.68424077       -0.00000000        0.00000001
C           0.68424077        0.00000000       -0.00000001
H          -1.14575469        0.97949473        0.00296695
H          -1.14575469       -0.97949473       -0.00296693
H           1.14575470        0.97949474       -0.00296693
H           1.14575470       -0.97949474        0.00296691
6
MD Time 1990.00
C          -0.69488876       -0.00000000        0.00000001
C           0.69488876        0.00000000       -0.00000001
H          -1.16423934        0.97434660       -0.01000717
H          -1.16423934       -0.97434660        0.01000719
H           1.16423935        0.97434661        0.01000718
H           1.16423935       -0.97434661       -0.01000721
6
MD Time 2000.00
C          -0.70538450       -0.00000000        0.00000001
C           0.70538450        0.00000000       -0.00000001
H          -1.18329394        0.96916651       -0.02294287
H          -1.18329394       -0.96916651        0.02294290
H           1.18329395        0.96916652        0.02294289
H           1.18329395       -0.96916651       -0.02294292
6
MD Time 2010.00
C          -0.71568703       -0.00000000        0.00000001
C           0.71568703        0.00000000       -0.00000001
H          -1.20286298        0.96399316       -0.03581404
H          -1.20286298       -0.96399316        0.03581406
H           1.20286299        0.96399316        0.03581406
H           1.20286299       -0.96399316       -0.03581408
6
MD Time 2020.00
C          -0.72576258       -0.00000000        0.00000001
C           0.72576258        0.00000000       -0.00000001
H          -1.22288595        0.95885674       -0.04859698
H          -1.22288595       -0.95885674        0.04859700
H           1.22288596        0.95885674        0.04859700
H           1.22288596       -0.95885674       -0.04859702
6
MD Time 2030.00
C          -0.73558399       -0.00000000        0.00000001
C           0.73558399        0.00000000       -0.00000001
H          -1.24329700        0.95377835       -0.06127019
H          -1.24329699       -0.95377836        0.06127022
H           1.24329700        0.95377836        0.06127022
H           1.24329700       -0.95377836       -0.06127024
6
MD Time 2040.00
C          -0.74513017       -0.00000000        0.00000001
C           0.74513017        0.00000000       -0.00000001
H          -1.26402472        0.94876988       -0.07381404
H          -1.26402472       -0.94876988        0.07381407
H           1.26402473        0.94876988        0.07381407
H           1.26402473       -0.94876988       -0.07381410
6
MD Time 2050.00
C          -0.75438551       -0.00000000        0.00000001
C           0.75438551        0.00000000       -0.00000001
H          -1.28499226        0.94383424       -0.08621039
H          -1.28499226       -0.94383424        0.08621041
H           1.28499227        0.94383424        0.08621041
H           1.28499226       -0.94383424       -0.08621044
6
MD Time 2060.00
C          -0.76333928       -0.00000000        0.00000001
C           0.76333927        0.00000000       -0.00000001
H          -1.30611753        0.93896608       -0.09844226
H          -1.30611753       -0.93896608        0.09844228
H           1.30611754        0.93896608        0.09844228
H           1.30611754       -0.93896608       -0.09844231
6
MD Time 2070.00
C          -0.77198511       -0.00000000        0.00000001
C           0.77198511        0.00000000       -0.00000001
H          -1.32731375        0.93415281       -0.11049357
H          -1.32731375       -0.93415281        0.11049359
H           1.32731376        0.93415281        0.11049359
H           1.32731376       -0.93415281       -0.11049363
6
MD Time 2080.00
C          -0.78032042       -0.00000000        0.00000001
C           0.78032042        0.00000000       -0.00000001
H          -1.34849013        0.92937589       -0.12234888
H          -1.34849012       -0.92937590        0.12234891
H           1.34849013        0.92937589        0.12234891
H           1.34849013       -0.92937589       -0.12234894
6
MD Time 2090.00
C          -0.78834591       -0.00000000        0.00000001
C           0.78834591        0.00000000       -0.00000001
H          -1.36955273        0.92461230       -0.13399325
H          -1.36955273       -0.92461231        0.13399328
H           1.36955273        0.92461230        0.13399328
H           1.36955273       -0.92461230       -0.13399331
6
MD Time 2100.00
C          -0.79606499       -0.00000000        0.00000001
C           0.79606499        0.00000000       -0.00000001
H          -1.39040556        0.91983609       -0.14541213
H          -1.39040556       -0.91983610        0.14541216
H           1.39040556        0.91983609        0.14541217
H           1.39040556       -0.91983609       -0.14541220
6
MD Time 2110.00
C          -0.80348332       -0.00000000        0.00000001
C           0.80348332        0.00000000       -0.00000001
H          -1.41095162        0.91501996       -0.15659140
H          -1.41095161       -0.91501996        0.15659143
H           1.41095162        0.91501996        0.15659143
H           1.41095161       -0.91501995       -0.15659147
6
MD Time 2120.00
C          -0.81060838       -0.00000000        0.00000001
C           0.81060838        0.00000000       -0.00000001
H          -1.43109408        0.91013673       -0.16751736
H          -1.43109407       -0.91013673        0.16751739
H           1.43109407        0.91013672        0.16751739
H           1.43109407       -0.91013672       -0.16751743
6
MD Time 2130.00
C          -0.81744894       -0.00000000        0.00000001
C           0.81744895        0.00000000       -0.00000001
H          -1.45073745        0.90516067       -0.17817690
H          -1.45073744       -0.90516067        0.17817694
H           1.45073745        0.90516066        0.17817694
H           1.45073744       -0.90516066       -0.17817698
6
MD Time 2140.00
C          -0.82401478       -0.00000000        0.00000001
C           0.82401478        0.00000000       -0.00000001
H          -1.46978868        0.90006872       -0.18855765
H          -1.46978867       -0.90006873        0.18855768
H           1.46978867        0.90006872        0.18855768
H           1.46978867       -0.90006871       -0.18855772
6
MD Time 2150.00
C          -0.83031624       -0.00000000        0.00000001
C           0.83031624        0.00000000       -0.00000001
H          -1.48815817        0.89484143       -0.19864809
H          -1.48815817       -0.89484143        0.19864813
H           1.48815817        0.89484142        0.19864813
H           1.48815816       -0.89484141       -0.19864817
6
MD Time 2160.00
C          -0.83636394       -0.00000000        0.00000001
C           0.83636394        0.00000000       -0.00000001
H          -1.50576076        0.88946372       -0.20843783
H          -1.50576075       -0.88946372        0.20843786
H           1.50576075        0.88946371        0.20843787
H           1.50576075       -0.88946370       -0.20843791
6
MD Time 2170.00
C          -0.84216850       -0.00000000        0.00000001
C           0.84216850        0.00000000       -0.00000001
H          -1.52251647        0.88392547       -0.21791772
H          -1.52251647       -0.88392548        0.21791776
H           1.52251646        0.88392546        0.21791776
H           1.52251646       -0.88392546       -0.21791780
6
MD Time 2180.00
C          -0.84774029       -0.00000000        0.00000001
C           0.84774029        0.00000000       -0.00000001
H          -1.53835131        0.87822195       -0.22708011
H          -1.53835130       -0.87822195        0.22708014
H           1.53835130        0.87822194        0.22708015
H           1.53835130       -0.87822193       -0.22708019
6
MD Time 2190.00
C          -0.85308922       -0.00000000        0.00000001
C           0.85308922        0.00000000       -0.00000001
H          -1.55319780        0.87235399       -0.23591894
H          -1.55319779       -0.87235399        0.23591898
H           1.55319778        0.87235398        0.23591898
H           1.55319778       -0.87235397       -0.23591902
6
MD Time 2200.00
C          -0.85822457       -0.00000000        0.00000001
C           0.85822457        0.00000000       -0.00000001
H          -1.56699550        0.86632814       -0.24442997
H          -1.56699550       -0.86632814        0.24443001
H           1.56699549        0.86632812        0.24443001
H           1.56699549       -0.86632812       -0.24443006
6
MD Time 2210.00
C          -0.86315482       -0.00000000        0.00000001
C           0.86315482        0.00000000       -0.00000001
H          -1.57969144        0.86015664       -0.25261089
H          -1.57969143       -0.86015664        0.25261093
H           1.57969142        0.86015663        0.25261093
H           1.57969142       -0.86015662       -0.25261098
6
MD Time 2220.00
C          -0.86788755       -0.00000000        0.00000001
C           0.86788755        0.00000000       -0.00000001
H          -1.59124039        0.85385737       -0.26046143
H          -1.59124039       -0.85385737        0.26046147
H           1.59124038        0.85385736        0.26046147
H           1.59124038       -0.85385735       -0.26046151
6
MD Time 2230.00
C          -0.87242933       -0.00000000        0.00000001
C           0.87242933        0.00000000       -0.00000001
H          -1.60160520        0.84745370       -0.26798348
H          -1.60160519       -0.84745370        0.26798352
H           1.60160518        0.84745368        0.26798353
H           1.60160518       -0.84745368       -0.26798357
6
MD Time 2240.00
C          -0.87678561       -0.00000000        0.00000001
C           0.87678561        0.00000000       -0.00000001
H          -1.61075694        0.84097427       -0.27518119
H          -1.61075693       -0.84097427        0.27518124
H           1.61075693        0.84097426        0.27518124
H           1.61075692       -0.84097425       -0.27518128
6
MD Time 2250.00
C          -0.88096066       -0.00000000        0.00000001
C           0.88096066        0.00000000       -0.00000001
H          -1.61867514        0.83445285       -0.28206102
H          -1.61867513       -0.83445285        0.28206106
H           1.61867512        0.83445284        0.28206107
H           1.61867512       -0.83445283       -0.28206111
6
MD Time 2260.00
C          -0.88495753       -0.00000000        0.00000001
C           0.88495753        0.00000000       -0.00000001
H          -1.62534787        0.82792802       -0.28863179
H          -1.62534786       -0.82792802        0.28863184
H           1.62534785        0.82792801        0.28863184
H           1.62534785       -0.82792800       -0.28863189
6
MD Time 2270.00
C          -0.88877794       -0.00000000        0.00000001
C           0.88877794        0.00000000       -0.00000001
H          -1.63077187        0.82144294       -0.29490475
H          -1.63077187       -0.82144294        0.29490479
H           1.63077186        0.82144293        0.29490480
H           1.63077186       -0.82144292       -0.29490484
6
MD Time 2280.00
C          -0.89242232       -0.00000000        0.00000001
C           0.89242232        0.00000000       -0.00000001
H          -1.63495261        0.81504509       -0.30089354
H          -1.63495260       -0.81504509        0.30089358
H           1.63495260        0.81504508        0.30089359
H           1.63495259       -0.81504507       -0.30089363
6
MD Time 2290.00
C          -0.89588973       -0.00000000        0.00000001
C           0.89588973        0.00000000       -0.00000001
H          -1.63790427        0.80878591       -0.30661422
H          -1.63790426       -0.80878591        0.30661426
H           1.63790426        0.80878590        0.30661427
H           1.63790425       -0.80878589       -0.30661431
6
MD Time 2300.00
C          -0.89917786       -0.00000000        0.00000001
C           0.89917786        0.00000000       -0.00000001
H          -1.63964972        0.80272046       -0.31208520
H          -1.63964972       -0.80272046        0.31208524
H           1.63964971        0.80272044        0.31208525
H           1.63964971       -0.80272044       -0.31208529
6
MD Time 2310.00
C          -0.90228304       -0.00000000        0.00000001
C           0.90228304        0.00000000       -0.00000001
H          -1.64022040        0.79690699       -0.31732716
H          -1.64022039       -0.79690699        0.31732720
H           1.64022039        0.79690698        0.31732721
H           1.64022038       -0.79690697       -0.31732725
6
MD Time 2320.00
C          -0.90520027       -0.00000000        0.00000001
C           0.90520027        0.00000000       -0.00000001
H          -1.63965602        0.79140650       -0.32236289
H          -1.63965602       -0.79140650        0.32236293
H           1.63965601        0.79140649        0.32236294
H           1.63965601       -0.79140649       -0.32236298
6
MD Time 2330.00
C          -0.90792327       -0.00000000        0.00000001
C           0.90792327        0.00000000       -0.00000001
H          -1.63800430        0.78628211       -0.32721709
H          -1.63800430       -0.78628211        0.32721714
H           1.63800429        0.78628210        0.32721714
H           1.63800429       -0.78628209       -0.32721719
6
MD Time 2340.00
C          -0.91044452       -0.00000000        0.00000001
C           0.91044452        0.00000000       -0.00000001
H          -1.63532037        0.78159836       -0.33191611
H          -1.63532036       -0.78159836        0.33191615
H           1.63532036        0.78159835        0.33191616
H           1.63532036       -0.78159834       -0.33191620
6
MD Time 2350.00
C          -0.91275545       -0.00000000        0.00000001
C           0.91275545        0.00000000       -0.00000001
H          -1.63166609        0.77742041       -0.33648752
H          -1.63166609       -0.77742041        0.33648756
H           1.63166608        0.77742040        0.33648757
H           1.63166608       -0.77742039       -0.33648761
6
MD Time 2360.00
C          -0.91484649       -0.00000000        0.00000001
C           0.91484649        0.00000000       -0.00000001
H          -1.62710920        0.77381302       -0.34095967
H          -1.62710920       -0.77381302        0.34095971
H           1.62710919        0.77381301        0.34095972
H           1.62710919       -0.77381300       -0.34095976
6
MD Time 2370.00
C          -0.91670732       -0.00000000        0.00000001
C           0.91670732        0.00000000       -0.00000001
H          -1.62172216        0.77083940       -0.34536108
H          -1.62172215       -0.77083940        0.34536113
H           1.62172215        0.77083940        0.34536113
H           1.62172215       -0.77083939       -0.34536117
6
MD Time 2380.00
C          -0.91832708       -0.00000000        0.00000001
C           0.91832708        0.00000000       -0.00000001
H          -1.61558085        0.76855991       -0.34971976
H          -1.61558084       -0.76855991        0.34971981
H           1.61558084        0.76855990        0.34971981
H           1.61558084       -0.76855989       -0.34971985
6
MD Time 2390.00
C          -0.91969457       -0.00000000        0.00000001
C           0.91969457        0.00000000       -0.00000001
H          -1.60876306        0.76703051       -0.35406235
H          -1.60876305       -0.76703051        0.35406239
H           1.60876305        0.76703050        0.35406239
H           1.60876305       -0.76703049       -0.35406243
6
MD Time 2400.00
C          -0.92079861       -0.00000000        0.00000001
C           0.92079861        0.00000000       -0.00000001
H          -1.60134683        0.76630124       -0.35841322
H          -1.60134682       -0.76630123        0.35841326
H           1.60134682        0.76630123        0.35841326
H           1.60134682       -0.76630122       -0.35841330
6
MD Time 2410.00
C          -0.92162826       -0.00000000        0.00000001
C           0.92162826        0.00000000       -0.00000001
H          -1.59340871        0.76641445       -0.36279350
H          -1.59340870       -0.76641445        0.36279354
H           1.59340870        0.76641444        0.36279354
H           1.59340870       -0.76641443       -0.36279358
6
MD Time 2420.00
C          -0.92217314       -0.00000000        0.00000001
C           0.92217314        0.00000000       -0.00000001
H          -1.58502196        0.76740318       -0.36722005
H          -1.58502196       -0.76740318        0.36722009
H           1.58502196        0.76740318        0.36722009
H           1.58502196       -0.76740317       -0.36722013
6
MD Time 2430.00
C          -0.92242374       -0.00000000        0.00000001
C           0.92242374        0.00000000       -0.00000001
H          -1.57625493        0.76928950       -0.37170448
H          -1.57625492       -0.76928950        0.37170452
H           1.57625493        0.76928949        0.37170451
H           1.57625493       -0.76928948       -0.37170455
6
MD Time 2440.00
C          -0.92237160       -0.00000000        0.00000001
C           0.92237160        0.00000000       -0.00000001
H          -1.56716951        0.77208307       -0.37625220
H          -1.56716951       -0.77208307        0.37625224
H           1.56716951        0.77208307        0.37625223
H           1.56716951       -0.77208306       -0.37625227
6
MD Time 2450.00
C          -0.92200959       -0.00000000        0.00000001
C           0.92200959        0.00000000       -0.00000001
H          -1.55781997        0.77578004       -0.38086170
H          -1.55781997       -0.77578004        0.38086174
H           1.55781997        0.77578003        0.38086173
H           1.55781997       -0.77578002       -0.38086177
6
MD Time 2460.00
C          -0.92133198       -0.00000000        0.00000001
C           0.92133198        0.00000000       -0.00000001
H          -1.54825208        0.78036220       -0.38552395
H          -1.54825208       -0.78036220        0.38552399
H           1.54825208        0.78036219        0.38552399
H           1.54825208       -0.78036219       -0.38552402
6
MD Time 2470.00
C          -0.92033456       -0.00000000        0.00000001
C           0.92033456        0.00000000       -0.00000001
H          -1.53850271        0.78579675       -0.39022215
H          -1.53850270       -0.78579675        0.39022219
H           1.53850271        0.78579674        0.39022218
H           1.53850271       -0.78579673       -0.39022221
6
MD Time 2480.00
C          -0.91901458       -0.00000000        0.00000001
C           0.91901458        0.00000000       -0.00000001
H          -1.52859983        0.79203643       -0.39493165
H          -1.52859982       -0.79203643        0.39493168
H           1.52859982        0.79203643        0.39493167
H           1.52859982       -0.79203642       -0.39493171
6
MD Time 2490.00
C          -0.91737073       -0.00000000        0.00000001
C           0.91737073        0.00000000       -0.00000001
H          -1.51856295        0.79902028       -0.39962031
H          -1.51856295       -0.79902027        0.39962035
H           1.51856295        0.79902027        0.39962033
H           1.51856295       -0.79902026       -0.39962036
6
MD Time 2500.00
C          -0.91540294       -0.00000000        0.00000001
C           0.91540294        0.00000000       -0.00000001
H          -1.50840396        0.80667478       -0.40424908
H          -1.50840396       -0.80667478        0.40424911
H           1.50840396        0.80667477        0.40424910
H           1.50840396       -0.80667476       -0.40424913
6
MD Time 2510.00
C          -0.91311224       -0.00000000        0.00000001
C           0.91311224        0.00000000       -0.00000001
H          -1.49812817        0.81491556       -0.40877284
H          -1.49812817       -0.81491556        0.40877288
H           1.49812817        0.81491555        0.40877286
H           1.49812817       -0.81491554       -0.40877289
6
MD Time 2520.00
C          -0.91050050       -0.00000000        0.00000001
C           0.91050050        0.00000000       -0.00000001
H          -1.48773567        0.82364930       -0.41314150
H          -1.48773566       -0.82364930        0.41314153
H           1.48773566        0.82364929        0.41314151
H           1.48773567       -0.82364928       -0.41314154
6
MD Time 2530.00
C          -0.90757025       -0.00000000        0.00000001
C           0.90757025        0.00000000       -0.00000001
H          -1.47722265        0.83277593       -0.41730114
H          -1.47722265       -0.83277592        0.41730117
H           1.47722265        0.83277592        0.41730115
H           1.47722265       -0.83277591       -0.41730118
6
MD Time 2540.00
C          -0.90432437       -0.00000000        0.00000001
C           0.90432437        0.00000000       -0.00000001
H          -1.46658289        0.84219092       -0.42119535
H          -1.46658289       -0.84219092        0.42119539
H           1.46658289        0.84219091        0.42119536
H           1.46658289       -0.84219090       -0.42119539
6
MD Time 2550.00
C          -0.90076594       -0.00000000        0.00000001
C           0.90076594        0.00000000       -0.00000001
H          -1.45580898        0.85178756       -0.42476648
H          -1.45580898       -0.85178756        0.42476652
H           1.45580898        0.85178755        0.42476649
H           1.45580899       -0.85178754       -0.42476652
6
MD Time 2560.00
C          -0.89689803       -0.00000000        0.00000001
C           0.89689803        0.00000000       -0.00000001
H          -1.44489359        0.86145912       -0.42795685
H          -1.44489358       -0.86145912        0.42795689
H           1.44489358        0.86145911        0.42795686
H           1.44489359       -0.86145910       -0.42795689
6
MD Time 2570.00
C          -0.89272352       -0.00000000        0.00000001
C           0.89272352        0.00000000       -0.00000001
H          -1.43383039        0.87110085       -0.43070989
H          -1.43383039       -0.87110085        0.43070992
H           1.43383039        0.87110085        0.43070989
H           1.43383039       -0.87110084       -0.43070992
6
MD Time 2580.00
C          -0.88824501       -0.00000000        0.00000001
C           0.88824501        0.00000000       -0.00000001
H          -1.42261497        0.88061177       -0.43297109
H          -1.42261497       -0.88061177        0.43297113
H           1.42261497        0.88061177        0.43297109
H           1.42261498       -0.88061176       -0.43297112
6
MD Time 2590.00
C          -0.88346472       -0.00000000        0.00000001
C           0.88346471        0.00000000       -0.00000001
H          -1.41124542        0.88989615       -0.43468890
H          -1.41124541       -0.88989615        0.43468893
H           1.41124542        0.88989614        0.43468889
H           1.41124542       -0.88989614       -0.43468892
6
MD Time 2600.00
C          -0.87838442       -0.00000000        0.00000001
C           0.87838442        0.00000000       -0.00000001
H          -1.39972278        0.89886478       -0.43581531
H          -1.39972277       -0.89886478        0.43581535
H           1.39972278        0.89886477        0.43581531
H           1.39972278       -0.89886477       -0.43581533
6
MD Time 2610.00
C          -0.87300548       -0.00000000        0.00000001
C           0.87300548        0.00000000       -0.00000001
H          -1.38805138        0.90743598       -0.43630648
H          -1.38805138       -0.90743598        0.43630652
H           1.38805138        0.90743598        0.43630647
H           1.38805139       -0.90743598       -0.43630650
6
MD Time 2620.00
C          -0.86732880       -0.00000000        0.00000001
C           0.86732880        0.00000000       -0.00000001
H          -1.37623902        0.91553640       -0.43612304
H          -1.37623901       -0.91553640        0.43612308
H           1.37623902        0.91553640        0.43612303
H           1.37623902       -0.91553640       -0.43612305
6
MD Time 2630.00
C          -0.86135490       -0.00000000        0.00000001
C           0.86135490        0.00000000       -0.00000001
H          -1.36429701        0.92310156       -0.43523039
H          -1.36429701       -0.92310156        0.43523042
H           1.36429701        0.92310156        0.43523037
H           1.36429702       -0.92310156       -0.43523040
6
MD Time 2640.00
C          -0.85508394       -0.00000000        0.00000001
C           0.85508394        0.00000000       -0.00000001
H          -1.35224022        0.93007631       -0.43359884
H          -1.35224022       -0.93007630        0.43359887
H           1.35224023        0.93007631        0.43359882
H           1.35224023       -0.93007630       -0.43359884
6
MD Time 2650.00
C          -0.84851584       -0.00000000        0.00000001
C           0.84851584        0.00000000       -0.00000001
H          -1.34008700        0.93641507       -0.43120369
H          -1.34008700       -0.93641507        0.43120373
H           1.34008701        0.93641507        0.43120367
H           1.34008701       -0.93641506       -0.43120369
6
MD Time 2660.00
C          -0.84165032       -0.00000000        0.00000001
C           0.84165032        0.00000000       -0.00000001
H          -1.32785909        0.94208207       -0.42802523
H          -1.32785909       -0.94208207        0.42802527
H           1.32785910        0.94208207        0.42802521
H           1.32785910       -0.94208207       -0.42802523
6
MD Time 2670.00
C          -0.83448706       -0.00000000        0.00000001
C           0.83448706        0.00000000       -0.00000001
H          -1.31558152        0.94705141       -0.42404867
H          -1.31558152       -0.94705141        0.42404870
H           1.31558153        0.94705142        0.42404864
H           1.31558153       -0.94705142       -0.42404866
6
MD Time 2680.00
C          -0.82702578       -0.00000000        0.00000001
C           0.82702578        0.00000000       -0.00000001
H          -1.30328248        0.95130713       -0.41926404
H          -1.30328248       -0.95130713        0.41926407
H           1.30328249        0.95130713        0.41926401
H           1.30328249       -0.95130713       -0.41926403
6
MD Time 2690.00
C          -0.81926641       -0.00000000        0.00000001
C           0.81926641        0.00000000       -0.00000001
H          -1.29099320        0.95484313       -0.41366606
H          -1.29099320       -0.95484313        0.41366609
H           1.29099321        0.95484314        0.41366602
H           1.29099322       -0.95484314       -0.41366605
6
MD Time 2700.00
C          -0.81120923       -0.00000000        0.00000001
C           0.81120923        0.00000000       -0.00000001
H          -1.27874781        0.95766322       -0.40725396
H          -1.27874781       -0.95766322        0.40725399
H           1.27874782        0.95766323        0.40725392
H           1.27874782       -0.95766323       -0.40725395
6
MD Time 2710.00
C          -0.80285508       -0.00000000        0.00000001
C           0.80285508        0.00000000       -0.00000001
H          -1.26658317        0.95978090       -0.40003130
H          -1.26658317       -0.95978090        0.40003134
H           1.26658318        0.95978091        0.40003126
H           1.26658319       -0.95978091       -0.40003129
6
MD Time 2720.00
C          -0.79420555       -0.00000000        0.00000001
C           0.79420555        0.00000000       -0.00000001
H          -1.25453877        0.96121925       -0.39200573
H          -1.25453877       -0.96121925        0.39200576
H           1.25453878        0.96121927        0.39200569
H           1.25453879       -0.96121926       -0.39200571
6
MD Time 2730.00
C          -0.78526325       -0.00000000        0.00000001
C           0.78526325        0.00000000       -0.00000001
H          -1.24265649        0.96201067       -0.38318870
H          -1.24265649       -0.96201067        0.38318874
H           1.24265650        0.96201069        0.38318866
H           1.24265651       -0.96201068       -0.38318868
6
MD Time 2740.00
C          -0.77603205       -0.00000000        0.00000001
C           0.77603205        0.00000000       -0.00000001
H          -1.23098042        0.96219649       -0.37359523
H          -1.23098042       -0.96219649        0.37359527
H           1.23098044        0.96219651        0.37359518
H           1.23098044       -0.96219650       -0.37359521
6
MD Time 2750.00
C          -0.76651746       -0.00000000        0.00000001
C           0.76651746        0.00000000       -0.00000001
H          -1.21955662        0.96182650       -0.36324351
H          -1.21955662       -0.96182650        0.36324354
H           1.21955663        0.96182652        0.36324346
H           1.21955664       -0.96182652       -0.36324348
6
MD Time 2760.00
C          -0.75672699       -0.00000000        0.00000001
C           0.75672699        0.00000000       -0.00000001
H          -1.20843275        0.96095828       -0.35215455
H          -1.20843275       -0.96095828        0.35215458
H           1.20843277        0.96095830        0.35215449
H           1.20843277       -0.96095830       -0.35215452
6
MD Time 2770.00
C          -0.74667059       -0.00000000        0.00000001
C           0.74667059        0.00000000       -0.00000001
H          -1.19765773        0.95965632       -0.34035177
H          -1.19765773       -0.95965632        0.34035180
H           1.19765774        0.95965634        0.34035171
H           1.19765775       -0.95965633       -0.34035173
6
MD Time 2780.00
C          -0.73636118       -0.00000000        0.00000001
C           0.73636118        0.00000000       -0.00000001
H          -1.18728119        0.95799091       -0.32786052
H          -1.18728119       -0.95799091        0.32786055
H           1.18728120        0.95799094        0.32786046
H           1.18728121       -0.95799094       -0.32786048
6
MD Time 2790.00
C          -0.72581525       -0.00000000        0.00000001
C           0.72581525        0.00000000       -0.00000001
H          -1.17735291        0.95603682       -0.31470763
H          -1.17735291       -0.95603682        0.31470767
H           1.17735293        0.95603685        0.31470757
H           1.17735293       -0.95603684       -0.31470759
6
MD Time 2800.00
C          -0.71505352       -0.00000000        0.00000001
C           0.71505352        0.00000000       -0.00000001
H          -1.16792209        0.95387158       -0.30092091
H          -1.16792209       -0.95387158        0.30092095
H           1.16792211        0.95387160        0.30092085
H           1.16792211       -0.95387160       -0.30092087
6
MD Time 2810.00
C          -0.70410172       -0.00000000        0.00000001
C           0.70410172        0.00000000       -0.00000001
H          -1.15903647        0.95157363       -0.28652866
H          -1.15903647       -0.95157363        0.28652870
H           1.15903649        0.95157366        0.28652859
H           1.15903649       -0.95157365       -0.28652862
6
MD Time 2820.00
C          -0.69299142       -0.00000000        0.00000001
C           0.69299142        0.00000000       -0.00000001
H          -1.15074140        0.94922019       -0.27155928
H          -1.15074140       -0.94922019        0.27155932
H           1.15074141        0.94922022        0.27155921
H           1.15074142       -0.94922021       -0.27155923
6
MD Time 2830.00
C          -0.68176095       -0.00000000        0.00000001
C           0.68176095        0.00000000       -0.00000001
H          -1.14307873        0.94688493       -0.25604091
H          -1.14307873       -0.94688493        0.25604095
H           1.14307874        0.94688496        0.25604083
H           1.14307875       -0.94688495       -0.25604086
6
MD Time 2840.00
C          -0.67045632       -0.00000000        0.00000001
C           0.67045632        0.00000000       -0.00000001
H          -1.13608571        0.94463562       -0.24000125
H          -1.13608571       -0.94463562        0.24000128
H           1.13608572        0.94463565        0.24000117
H           1.13608573       -0.94463564       -0.24000119
6
MD Time 2850.00
C          -0.65913218       -0.00000000        0.00000001
C           0.65913218        0.00000000       -0.00000001
H          -1.12979383        0.94253180       -0.22346749
H          -1.12979383       -0.94253180        0.22346752
H           1.12979384        0.94253184        0.22346741
H           1.12979384       -0.94253183       -0.22346743
6
MD Time 2860.00
C          -0.64785270       -0.00000000        0.00000001
C           0.64785270        0.00000000       -0.00000001
H          -1.12422768        0.94062272       -0.20646648
H          -1.12422768       -0.94062272        0.20646652
H           1.12422769        0.94062275        0.20646639
H           1.12422770       -0.94062275       -0.20646642
6
MD Time 2870.00
C          -0.63669230       -0.00000000        0.00000001
C           0.63669230        0.00000000       -0.00000001
H          -1.11940407        0.93894553       -0.18902506
H          -1.11940407       -0.93894553        0.18902510
H           1.11940407        0.93894556        0.18902497
H           1.11940408       -0.93894555       -0.18902500
6
MD Time 2880.00
C          -0.62573615       -0.00000000        0.00000001
C           0.62573615        0.00000000       -0.00000001
H          -1.11533119        0.93752410       -0.17117060
H          -1.11533118       -0.93752410        0.17117064
H           1.11533119        0.93752413        0.17117051
H           1.11533119       -0.93752412       -0.17117053
6
MD Time 2890.00
C          -0.61508024       -0.00000000        0.00000001
C           0.61508024        0.00000000       -0.00000001
H          -1.11200822        0.93636839       -0.15293165
H          -1.11200822       -0.93636839        0.15293169
H           1.11200822        0.93636842        0.15293156
H           1.11200823       -0.93636841       -0.15293158
6
MD Time 2900.00
C          -0.60483106       -0.00000000        0.00000001
C           0.60483106        0.00000000       -0.00000001
H          -1.10942527        0.93547462       -0.13433874
H          -1.10942527       -0.93547462        0.13433878
H           1.10942527        0.93547465        0.13433864
H           1.10942527       -0.93547464       -0.13433867
6
MD Time 2910.00
C          -0.59510445       -0.00000000        0.00000001
C           0.59510445        0.00000000       -0.00000001
H          -1.10756366        0.93482605       -0.11542511
H          -1.10756366       -0.93482604        0.11542515
H           1.10756366        0.93482607        0.11542501
H           1.10756366       -0.93482606       -0.11542504
6
MD Time 2920.00
C          -0.58602378       -0.00000000        0.00000001
C           0.58602378        0.00000000       -0.00000001
H          -1.10639671        0.93439454       -0.09622743
H          -1.10639671       -0.93439453        0.09622747
H           1.10639670        0.93439456        0.09622732
H           1.10639670       -0.93439455       -0.09622735
6
MD Time 2930.00
C          -0.57771720       -0.00000000        0.00000001
C           0.57771720        0.00000000       -0.00000001
H          -1.10589085        0.93414262       -0.07678628
H          -1.10589085       -0.93414262        0.07678632
H           1.10589084        0.93414264        0.07678617
H           1.10589085       -0.93414263       -0.07678620
6
MD Time 2940.00
C          -0.57031392       -0.00000000        0.00000001
C           0.57031392        0.00000000       -0.00000001
H          -1.10600709        0.93402598       -0.05714650
H          -1.10600709       -0.93402597        0.05714654
H           1.10600708        0.93402600        0.05714639
H           1.10600708       -0.93402599       -0.05714642
6
MD Time 2950.00
C          -0.56393972       -0.00000000        0.00000001
C           0.56393972        0.00000000       -0.00000001
H          -1.10670263        0.93399613       -0.03735716
H          -1.10670263       -0.93399613        0.03735720
H           1.10670262        0.93399615        0.03735705
H           1.10670262       -0.93399614       -0.03735708
6
MD Time 2960.00
C          -0.55871171       -0.00000000        0.00000001
C           0.55871171        0.00000000       -0.00000001
H          -1.10793267        0.93400314       -0.01747135
H          -1.10793267       -0.93400314        0.01747139
H           1.10793266        0.93400316        0.01747123
H           1.10793266       -0.93400315       -0.01747127
6
MD Time 2970.00
C          -0.55473288       -0.00000000        0.00000001
C           0.55473289        0.00000000       -0.00000001
H          -1.10965209        0.93399817        0.00245436
H          -1.10965209       -0.93399817       -0.00245432
H           1.10965207        0.93399818       -0.00245448
H           1.10965207       -0.93399817        0.00245445
6
MD Time 2980.00
C          -0.55208671       -0.00000000        0.00000001
C           0.55208671        0.00000000       -0.00000001
H          -1.11181708        0.93393566        0.02236061
H          -1.11181708       -0.93393566       -0.02236058
H           1.11181706        0.93393568       -0.02236074
H           1.11181706       -0.93393567        0.02236071
6
MD Time 2990.00
C          -0.55083248       -0.00000000        0.00000001
C           0.55083248        0.00000000       -0.00000001
H          -1.11438654        0.93377525        0.04218618
H          -1.11438654       -0.93377525       -0.04218614
H           1.11438652        0.93377526       -0.04218631
H           1.11438652       -0.93377525        0.04218627
