6
MD Time 0.00
C          -1.00424993        0.00000000        0.00000000
C           1.00424993        0.00000000        0.00000000
H          -1.57974221        0.85087473        0.35244385
H          -1.57974221       -0.85087473       -0.35244385
H           1.57974221        0.85087473       -0.35244385
H           1.57974221       -0.85087473        0.35244385
6
MD Time 10.00
C          -1.00413270       -0.00000000        0.00000000
C           1.00413270       -0.00000000       -0.00000000
H          -1.57960226        0.85102223        0.35240085
H          -1.57960226       -0.85102223       -0.35240085
H           1.57960226        0.85102223       -0.35240085
H           1.57960226       -0.85102223        0.35240085
6
MD Time 20.00
C          -1.00378105       -0.00000000        0.00000000
C           1.00378105       -0.00000000       -0.00000000
H          -1.57918181        0.85146301        0.35227097
H          -1.57918181       -0.85146301       -0.35227097
H           1.57918181        0.85146301       -0.35227097
H           1.57918181       -0.85146301        0.35227097
6
MD Time 30.00
C          -1.00319503       -0.00000000        0.00000000
C           1.00319503       -0.00000000       -0.00000000
H          -1.57847912        0.85219188        0.35205163
H          -1.57847912       -0.85219188       -0.35205163
H           1.57847912        0.85219188       -0.35205163
H           1.57847912       -0.85219188        0.35205163
6
MD Time 40.00
C          -1.00237472       -0.00000000        0.00000000
C           1.00237472       -0.00000000       -0.00000000
H          -1.57749132        0.85320034        0.35173854
H          -1.57749132       -0.85320034       -0.35173854
H           1.57749133        0.85320034       -0.35173854
H           1.57749133       -0.85320034        0.35173854
6
MD Time 50.00
C          -1.00132023       -0.00000000        0.00000000
C           1.00132023       -0.00000000       -0.00000000
H          -1.57621459        0.85447671        0.35132587
H          -1.57621459       -0.85447671       -0.35132587
H           1.57621459        0.85447671       -0.35132587
H           1.57621459       -0.85447671        0.35132587
6
MD Time 60.00
C          -1.00003165       -0.00000000        0.00000000
C           1.00003165       -0.00000000       -0.00000000
H          -1.57464422        0.85600645        0.35080630
H          -1.57464422       -0.85600645       -0.35080630
H           1.57464422        0.85600645       -0.35080629
H           1.57464422       -0.85600645        0.35080629
6
MD Time 70.00
C          -0.99850901       -0.00000000        0.00000000
C           0.99850901       -0.00000000       -0.00000000
H          -1.57277483        0.85777237        0.35017119
H          -1.57277483       -0.85777237       -0.35017119
H           1.57277484        0.85777237       -0.35017119
H           1.57277484       -0.85777237        0.35017119
6
MD Time 80.00
C          -0.99675230       -0.00000000        0.00000000
C           0.99675230       -0.00000000       -0.00000000
H          -1.57060058        0.85975506        0.34941077
H          -1.57060058       -0.85975506       -0.34941077
H           1.57060059        0.85975506       -0.34941076
H           1.57060059       -0.85975506        0.34941077
6
MD Time 90.00
C          -0.99476137       -0.00000000        0.00000000
C           0.99476137       -0.00000000       -0.00000000
H          -1.56811534        0.86193323        0.34851429
H          -1.56811534       -0.86193322       -0.34851429
H           1.56811535        0.86193322       -0.34851428
H           1.56811535       -0.86193322        0.34851428
6
MD Time 100.00
C          -0.99253596       -0.00000000        0.00000000
C           0.99253595       -0.00000000       -0.00000000
H          -1.56531294        0.86428410        0.34747022
H          -1.56531294       -0.86428410       -0.34747022
H           1.56531295        0.86428410       -0.34747021
H           1.56531295       -0.86428410        0.34747021
6
MD Time 110.00
C          -0.99007560       -0.00000000        0.00000000
C           0.99007560       -0.00000000       -0.00000000
H          -1.56218741        0.86678390        0.34626646
H          -1.56218741       -0.86678390       -0.34626646
H           1.56218742        0.86678390       -0.34626646
H           1.56218742       -0.86678390        0.34626646
6
MD Time 120.00
C          -0.98737963       -0.00000000        0.00000000
C           0.98737963       -0.00000000       -0.00000000
H          -1.55873317        0.86940822        0.34489056
H          -1.55873317       -0.86940822       -0.34489056
H           1.55873319        0.86940821       -0.34489055
H           1.55873319       -0.86940821        0.34489055
6
MD Time 130.00
C          -0.98444712       -0.00000000        0.00000000
C           0.98444712       -0.00000000       -0.00000000
H          -1.55494529        0.87213246        0.34332986
H          -1.55494529       -0.87213246       -0.34332986
H           1.55494531        0.87213245       -0.34332985
H           1.55494531       -0.87213245        0.34332985
6
MD Time 140.00
C          -0.98127688       -0.00000000        0.00000000
C           0.98127688       -0.00000000       -0.00000000
H          -1.55081966        0.87493225        0.34157171
H          -1.55081966       -0.87493225       -0.34157171
H           1.55081968        0.87493224       -0.34157170
H           1.55081968       -0.87493224        0.34157170
6
MD Time 150.00
C          -0.97786739       -0.00000000        0.00000000
C           0.97786739       -0.00000000       -0.00000000
H          -1.54635318        0.87778383        0.33960364
H          -1.54635318       -0.87778383       -0.33960364
H           1.54635320        0.87778383       -0.33960363
H           1.54635320       -0.87778383        0.33960363
6
MD Time 160.00
C          -0.97421682       -0.00000000        0.00000000
C           0.97421681       -0.00000000       -0.00000000
H          -1.54154395        0.88066441        0.33741351
H          -1.54154395       -0.88066441       -0.33741351
H           1.54154397        0.88066440       -0.33741350
H           1.54154397       -0.88066440        0.33741350
6
MD Time 170.00
C          -0.97032296       -0.00000000        0.00000000
C           0.97032296       -0.00000000       -0.00000000
H          -1.53639136        0.88355248        0.33498965
H          -1.53639136       -0.88355248       -0.33498965
H           1.53639138        0.88355247       -0.33498963
H           1.53639138       -0.88355247        0.33498964
6
MD Time 180.00
C          -0.96618327       -0.00000000        0.00000000
C           0.96618326       -0.00000000       -0.00000000
H          -1.53089625        0.88642811        0.33232098
H          -1.53089625       -0.88642811       -0.33232098
H           1.53089628        0.88642810       -0.33232096
H           1.53089628       -0.88642810        0.33232096
6
MD Time 190.00
C          -0.96179481       -0.00000000        0.00000000
C           0.96179480       -0.00000000       -0.00000000
H          -1.52506098        0.88927321        0.32939708
H          -1.52506098       -0.88927321       -0.32939708
H           1.52506101        0.88927320       -0.32939706
H           1.52506101       -0.88927320        0.32939706
6
MD Time 200.00
C          -0.95715427       -0.00000000        0.00000000
C           0.95715427       -0.00000000       -0.00000000
H          -1.51888947        0.89207170        0.32620832
H          -1.51888947       -0.89207170       -0.32620832
H           1.51888950        0.89207169       -0.32620830
H           1.51888950       -0.89207169        0.32620830
6
MD Time 210.00
C          -0.95225800       -0.00000000        0.00000000
C           0.95225799       -0.00000000       -0.00000000
H          -1.51238725        0.89480969        0.32274587
H          -1.51238725       -0.89480969       -0.32274587
H           1.51238727        0.89480968       -0.32274585
H           1.51238727       -0.89480968        0.32274585
6
MD Time 220.00
C          -0.94710194       -0.00000000        0.00000000
C           0.94710193       -0.00000000       -0.00000000
H          -1.50556146        0.89747559        0.31900175
H          -1.50556146       -0.89747559       -0.31900175
H           1.50556149        0.89747558       -0.31900173
H           1.50556149       -0.89747558        0.31900173
6
MD Time 230.00
C          -0.94168171       -0.00000000        0.00000000
C           0.94168171       -0.00000000       -0.00000000
H          -1.49842083        0.90006018        0.31496886
H          -1.49842083       -0.90006018       -0.31496886
H           1.49842086        0.90006017       -0.31496883
H           1.49842086       -0.90006017        0.31496883
6
MD Time 240.00
C          -0.93599264       -0.00000000        0.00000000
C           0.93599263       -0.00000000       -0.00000000
H          -1.49097564        0.90255661        0.31064093
H          -1.49097564       -0.90255661       -0.31064093
H           1.49097567        0.90255660       -0.31064090
H           1.49097567       -0.90255660        0.31064091
6
MD Time 250.00
C          -0.93002972       -0.00000000        0.00000000
C           0.93002971       -0.00000000       -0.00000000
H          -1.48323762        0.90496036        0.30601259
H          -1.48323762       -0.90496036       -0.30601259
H           1.48323765        0.90496035       -0.30601256
H           1.48323765       -0.90496035        0.30601256
6
MD Time 260.00
C          -0.92378774       -0.00000000        0.00000000
C           0.92378773       -0.00000000       -0.00000000
H          -1.47521989        0.90726921        0.30107924
H          -1.47521989       -0.90726921       -0.30107924
H           1.47521991        0.90726920       -0.30107920
H           1.47521992       -0.90726920        0.30107921
6
MD Time 270.00
C          -0.91726126       -0.00000000        0.00000000
C           0.91726126       -0.00000000       -0.00000000
H          -1.46693679        0.90948306        0.29583706
H          -1.46693679       -0.90948306       -0.29583707
H           1.46693682        0.90948305       -0.29583703
H           1.46693682       -0.90948305        0.29583703
6
MD Time 280.00
C          -0.91044475       -0.00000000        0.00000000
C           0.91044474       -0.00000000       -0.00000000
H          -1.45840380        0.91160378        0.29028298
H          -1.45840380       -0.91160378       -0.29028298
H           1.45840383        0.91160377       -0.29028295
H           1.45840383       -0.91160377        0.29028295
6
MD Time 290.00
C          -0.90333255       -0.00000000        0.00000000
C           0.90333255       -0.00000000       -0.00000000
H          -1.44963736        0.91363498        0.28441454
H          -1.44963736       -0.91363498       -0.28441454
H           1.44963739        0.91363497       -0.28441450
H           1.44963739       -0.91363497        0.28441451
6
MD Time 300.00
C          -0.89591909       -0.00000000        0.00000000
C           0.89591908       -0.00000000       -0.00000000
H          -1.44065465        0.91558176        0.27822989
H          -1.44065465       -0.91558176       -0.27822989
H           1.44065468        0.91558175       -0.27822985
H           1.44065468       -0.91558175        0.27822986
6
MD Time 310.00
C          -0.88819884       -0.00000000        0.00000000
C           0.88819884       -0.00000000       -0.00000000
H          -1.43147346        0.91745042        0.27172771
H          -1.43147346       -0.91745042       -0.27172771
H           1.43147349        0.91745041       -0.27172767
H           1.43147349       -0.91745041        0.27172767
6
MD Time 320.00
C          -0.88016655       -0.00000000        0.00000000
C           0.88016655       -0.00000000       -0.00000000
H          -1.42211195        0.91924808        0.26490712
H          -1.42211195       -0.91924808       -0.26490713
H           1.42211197        0.91924807       -0.26490709
H           1.42211197       -0.91924807        0.26490709
6
MD Time 330.00
C          -0.87181730       -0.00000000        0.00000000
C           0.87181729       -0.00000000       -0.00000000
H          -1.41258843        0.92098235        0.25776768
H          -1.41258843       -0.92098235       -0.25776769
H           1.41258846        0.92098234       -0.25776765
H           1.41258846       -0.92098234        0.25776765
6
MD Time 340.00
C          -0.86314663       -0.00000000        0.00000000
C           0.86314663       -0.00000000       -0.00000000
H          -1.40292118        0.92266093        0.25030929
H          -1.40292118       -0.92266093       -0.25030929
H           1.40292120        0.92266092       -0.25030925
H           1.40292120       -0.92266092        0.25030925
6
MD Time 350.00
C          -0.85415080       -0.00000000        0.00000000
C           0.85415079        0.00000000       -0.00000000
H          -1.39312817        0.92429119        0.24253218
H          -1.39312817       -0.92429119       -0.24253218
H           1.39312819        0.92429118       -0.24253214
H           1.39312819       -0.92429118        0.24253214
6
MD Time 360.00
C          -0.84482686       -0.00000000        0.00000000
C           0.84482685        0.00000000       -0.00000000
H          -1.38322688        0.92587980        0.23443691
H          -1.38322688       -0.92587980       -0.23443691
H           1.38322690        0.92587979       -0.23443687
H           1.38322690       -0.92587979        0.23443687
6
MD Time 370.00
C          -0.83517295       -0.00000000        0.00000000
C           0.83517295        0.00000000       -0.00000000
H          -1.37323408        0.92743227        0.22602436
H          -1.37323408       -0.92743227       -0.22602436
H           1.37323410        0.92743227       -0.22602432
H           1.37323411       -0.92743227        0.22602432
6
MD Time 380.00
C          -0.82518852       -0.00000000        0.00000000
C           0.82518852        0.00000000       -0.00000000
H          -1.36316566        0.92895264        0.21729581
H          -1.36316566       -0.92895264       -0.21729581
H           1.36316567        0.92895263       -0.21729576
H           1.36316567       -0.92895263        0.21729576
6
MD Time 390.00
C          -0.81487459       -0.00000000        0.00000000
C           0.81487459        0.00000000       -0.00000000
H          -1.35303638        0.93044305        0.20825293
H          -1.35303638       -0.93044305       -0.20825293
H           1.35303640        0.93044305       -0.20825288
H           1.35303640       -0.93044305        0.20825289
6
MD Time 400.00
C          -0.80423407       -0.00000000        0.00000000
C           0.80423407        0.00000000       -0.00000000
H          -1.34285982        0.93190351        0.19889794
H          -1.34285982       -0.93190351       -0.19889794
H           1.34285983        0.93190351       -0.19889790
H           1.34285983       -0.93190351        0.19889790
6
MD Time 410.00
C          -0.79327215       -0.00000000        0.00000000
C           0.79327215        0.00000000       -0.00000000
H          -1.33264820        0.93333161        0.18923370
H          -1.33264819       -0.93333161       -0.18923370
H           1.33264821        0.93333161       -0.18923366
H           1.33264821       -0.93333161        0.18923366
6
MD Time 420.00
C          -0.78199668       -0.00000000        0.00000000
C           0.78199667        0.00000000       -0.00000000
H          -1.32241232        0.93472238        0.17926387
H          -1.32241232       -0.93472238       -0.17926387
H           1.32241233        0.93472238       -0.17926383
H           1.32241233       -0.93472238        0.17926383
6
MD Time 430.00
C          -0.77041861       -0.00000000        0.00000000
C           0.77041860        0.00000000       -0.00000000
H          -1.31216155        0.93606814        0.16899304
H          -1.31216155       -0.93606814       -0.16899304
H           1.31216156        0.93606814       -0.16899300
H           1.31216156       -0.93606814        0.16899300
6
MD Time 440.00
C          -0.75855256       -0.00000000        0.00000000
C           0.75855256        0.00000000       -0.00000000
H          -1.30190384        0.93735859        0.15842698
H          -1.30190384       -0.93735860       -0.15842698
H           1.30190385        0.93735860       -0.15842693
H           1.30190385       -0.93735860        0.15842693
6
MD Time 450.00
C          -0.74641740       -0.00000000        0.00000000
C           0.74641740        0.00000000       -0.00000000
H          -1.29164579        0.93858085        0.14757280
H          -1.29164579       -0.93858085       -0.14757280
H           1.29164580        0.93858085       -0.14757275
H           1.29164580       -0.93858085        0.14757275
6
MD Time 460.00
C          -0.73403688       -0.00000000        0.00000000
C           0.73403688        0.00000000       -0.00000000
H          -1.28139281        0.93971964        0.13643918
H          -1.28139281       -0.93971964       -0.13643918
H           1.28139281        0.93971964       -0.13643914
H           1.28139281       -0.93971964        0.13643914
6
MD Time 470.00
C          -0.72144037       -0.00000000        0.00000000
C           0.72144037        0.00000000       -0.00000000
H          -1.27114928        0.94075765        0.12503660
H          -1.27114928       -0.94075765       -0.12503660
H           1.27114928        0.94075765       -0.12503655
H           1.27114928       -0.94075765        0.12503655
6
MD Time 480.00
C          -0.70866370       -0.00000000        0.00000000
C           0.70866370        0.00000000       -0.00000000
H          -1.26091887        0.94167588        0.11337749
H          -1.26091887       -0.94167588       -0.11337749
H           1.26091887        0.94167589       -0.11337744
H           1.26091887       -0.94167589        0.11337744
6
MD Time 490.00
C          -0.69574999       -0.00000000        0.00000000
C           0.69574999        0.00000000       -0.00000000
H          -1.25070485        0.94245416        0.10147647
H          -1.25070485       -0.94245416       -0.10147647
H           1.25070484        0.94245417       -0.10147642
H           1.25070484       -0.94245417        0.10147642
6
MD Time 500.00
C          -0.68275060       -0.00000000        0.00000000
C           0.68275060        0.00000000       -0.00000000
H          -1.24051045        0.94307172        0.08935048
H          -1.24051045       -0.94307172       -0.08935048
H           1.24051044        0.94307173       -0.08935043
H           1.24051044       -0.94307173        0.08935043
6
MD Time 510.00
C          -0.66972603       -0.00000000        0.00000000
C           0.66972603        0.00000000       -0.00000000
H          -1.23033938        0.94350782        0.07701891
H          -1.23033938       -0.94350782       -0.07701891
H           1.23033937        0.94350783       -0.07701887
H           1.23033938       -0.94350783        0.07701886
6
MD Time 520.00
C          -0.65674686       -0.00000000        0.00000000
C           0.65674686        0.00000000       -0.00000000
H          -1.22019632        0.94374250        0.06450367
H          -1.22019632       -0.94374250       -0.06450367
H           1.22019631        0.94374251       -0.06450363
H           1.22019631       -0.94374251        0.06450363
6
MD Time 530.00
C          -0.64389455       -0.00000000        0.00000000
C           0.64389455        0.00000000       -0.00000000
H          -1.21008750        0.94375730        0.05182924
H          -1.21008750       -0.94375730       -0.05182923
H           1.21008749        0.94375731       -0.05182919
H           1.21008749       -0.94375731        0.05182919
6
MD Time 540.00
C          -0.63126202       -0.00000000        0.00000000
C           0.63126203        0.00000000       -0.00000000
H          -1.20002130        0.94353606        0.03902257
H          -1.20002130       -0.94353606       -0.03902257
H           1.20002129        0.94353608       -0.03902253
H           1.20002129       -0.94353608        0.03902253
6
MD Time 550.00
C          -0.61895399       -0.00000000        0.00000000
C           0.61895400        0.00000000       -0.00000000
H          -1.19000894        0.94306577        0.02611307
H          -1.19000894       -0.94306577       -0.02611307
H           1.19000893        0.94306579       -0.02611303
H           1.19000893       -0.94306579        0.02611302
6
MD Time 560.00
C          -0.60708674       -0.00000000        0.00000000
C           0.60708674        0.00000000       -0.00000000
H          -1.18006514        0.94233735        0.01313237
H          -1.18006514       -0.94233735       -0.01313237
H           1.18006512        0.94233737       -0.01313233
H           1.18006512       -0.94233737        0.01313232
6
MD Time 570.00
C          -0.59578725       -0.00000000        0.00000000
C           0.59578725        0.00000000       -0.00000000
H          -1.17020874        0.94134649        0.00011412
H          -1.17020874       -0.94134649       -0.00011411
H           1.17020872        0.94134650       -0.00011407
H           1.17020872       -0.94134650        0.00011407
6
MD Time 580.00
C          -0.58519151       -0.00000000        0.00000000
C           0.58519152        0.00000000       -0.00000000
H          -1.16046341        0.94009445       -0.01290635
H          -1.16046341       -0.94009445        0.01290635
H           1.16046339        0.94009446        0.01290639
H           1.16046339       -0.94009446       -0.01290639
6
MD Time 590.00
C          -0.57544179       -0.00000000        0.00000000
C           0.57544179        0.00000000       -0.00000000
H          -1.15085818        0.93858886       -0.02589234
H          -1.15085818       -0.93858886        0.02589234
H           1.15085816        0.93858888        0.02589238
H           1.15085816       -0.93858888       -0.02589239
6
MD Time 600.00
C          -0.56668271       -0.00000000        0.00000000
C           0.56668272        0.00000000       -0.00000000
H          -1.14142797        0.93684447       -0.03880631
H          -1.14142797       -0.93684447        0.03880631
H           1.14142795        0.93684449        0.03880635
H           1.14142795       -0.93684449       -0.03880635
6
MD Time 610.00
C          -0.55905629       -0.00000000        0.00000000
C           0.55905629        0.00000000       -0.00000000
H          -1.13221394        0.93488383       -0.05161030
H          -1.13221394       -0.93488383        0.05161030
H           1.13221391        0.93488384        0.05161034
H           1.13221391       -0.93488384       -0.05161034
6
MD Time 620.00
C          -0.55269591       -0.00000000        0.00000000
C           0.55269591        0.00000000       -0.00000000
H          -1.12326373        0.93273788       -0.06426651
H          -1.12326373       -0.93273788        0.06426651
H           1.12326370        0.93273790        0.06426655
H           1.12326370       -0.93273790       -0.06426655
6
MD Time 630.00
C          -0.54771973       -0.00000000        0.00000000
C           0.54771974        0.00000000       -0.00000000
H          -1.11463151        0.93044650       -0.07673789
H          -1.11463151       -0.93044650        0.07673790
H           1.11463148        0.93044652        0.07673793
H           1.11463148       -0.93044652       -0.07673794
6
MD Time 640.00
C          -0.54422402       -0.00000000        0.00000000
C           0.54422402        0.00000000       -0.00000000
H          -1.10637779        0.92805880       -0.08898877
H          -1.10637779       -0.92805880        0.08898878
H           1.10637776        0.92805881        0.08898881
H           1.10637776       -0.92805881       -0.08898882
6
MD Time 650.00
C          -0.54227705       -0.00000000        0.00000000
C           0.54227705        0.00000000       -0.00000000
H          -1.09856896        0.92563316       -0.10098548
H          -1.09856896       -0.92563316        0.10098548
H           1.09856893        0.92563318        0.10098552
H           1.09856893       -0.92563318       -0.10098552
6
MD Time 660.00
C          -0.54191448       -0.00000000        0.00000000
C           0.54191449        0.00000000       -0.00000000
H          -1.09127662        0.92323704       -0.11269701
H          -1.09127662       -0.92323704        0.11269701
H           1.09127659        0.92323706        0.11269705
H           1.09127659       -0.92323706       -0.11269705
6
MD Time 670.00
C          -0.54313668       -0.00000000        0.00000000
C           0.54313668        0.00000000       -0.00000000
H          -1.08457650        0.92094622       -0.12409562
H          -1.08457650       -0.92094622        0.12409562
H           1.08457646        0.92094624        0.12409566
H           1.08457646       -0.92094624       -0.12409566
6
MD Time 680.00
C          -0.54590845       -0.00000000        0.00000000
C           0.54590846        0.00000000       -0.00000000
H          -1.07854709        0.91884362       -0.13515738
H          -1.07854709       -0.91884362        0.13515738
H           1.07854706        0.91884364        0.13515742
H           1.07854706       -0.91884364       -0.13515742
6
MD Time 690.00
C          -0.55016129       -0.00000000        0.00000000
C           0.55016129        0.00000000       -0.00000000
H          -1.07326798        0.91701740       -0.14586261
H          -1.07326798       -0.91701740        0.14586261
H           1.07326794        0.91701741        0.14586264
H           1.07326794       -0.91701741       -0.14586265
6
MD Time 700.00
C          -0.55579772       -0.00000000        0.00000000
C           0.55579773        0.00000000       -0.00000000
H          -1.06881776        0.91555851       -0.15619607
H          -1.06881776       -0.91555851        0.15619608
H           1.06881773        0.91555852        0.15619611
H           1.06881773       -0.91555852       -0.15619612
6
MD Time 710.00
C          -0.56269729       -0.00000000        0.00000000
C           0.56269730        0.00000000       -0.00000000
H          -1.06527180        0.91455751       -0.16614704
H          -1.06527180       -0.91455751        0.16614705
H           1.06527176        0.91455752        0.16614708
H           1.06527176       -0.91455752       -0.16614708
6
MD Time 720.00
C          -0.57072335       -0.00000000        0.00000000
C           0.57072336        0.00000000       -0.00000000
H          -1.06269977        0.91410089       -0.17570896
H          -1.06269977       -0.91410089        0.17570897
H           1.06269973        0.91410090        0.17570900
H           1.06269973       -0.91410090       -0.17570900
6
MD Time 730.00
C          -0.57972999       -0.00000000        0.00000000
C           0.57973000        0.00000000       -0.00000000
H          -1.06116319        0.91426698       -0.18487888
H          -1.06116319       -0.91426698        0.18487889
H           1.06116316        0.91426699        0.18487892
H           1.06116316       -0.91426699       -0.18487892
6
MD Time 740.00
C          -0.58956842       -0.00000000        0.00000000
C           0.58956843        0.00000000       -0.00000000
H          -1.06071317        0.91512177       -0.19365660
H          -1.06071317       -0.91512177        0.19365661
H           1.06071314        0.91512178        0.19365663
H           1.06071314       -0.91512178       -0.19365664
6
MD Time 750.00
C          -0.60009246       -0.00000000        0.00000000
C           0.60009246        0.00000000       -0.00000000
H          -1.06138841        0.91671490       -0.20204354
H          -1.06138841       -0.91671490        0.20204354
H           1.06138838        0.91671492        0.20204357
H           1.06138838       -0.91671492       -0.20204358
6
MD Time 760.00
C          -0.61116279       -0.00000000        0.00000000
C           0.61116280        0.00000000       -0.00000000
H          -1.06321374        0.91907624       -0.21004155
H          -1.06321374       -0.91907624        0.21004156
H           1.06321371        0.91907625        0.21004158
H           1.06321371       -0.91907625       -0.21004159
6
MD Time 770.00
C          -0.62265008       -0.00000000        0.00000000
C           0.62265008        0.00000000       -0.00000000
H          -1.06619930        0.92221324       -0.21765168
H          -1.06619930       -0.92221324        0.21765168
H           1.06619927        0.92221325        0.21765171
H           1.06619927       -0.92221325       -0.21765172
6
MD Time 780.00
C          -0.63443683       -0.00000000        0.00000000
C           0.63443683        0.00000000       -0.00000000
H          -1.07034034        0.92610950       -0.22487305
H          -1.07034034       -0.92610950        0.22487306
H           1.07034031        0.92610951        0.22487309
H           1.07034031       -0.92610951       -0.22487309
6
MD Time 790.00
C          -0.64641836       -0.00000000        0.00000000
C           0.64641837        0.00000000       -0.00000000
H          -1.07561772        0.93072451       -0.23170205
H          -1.07561772       -0.93072451        0.23170205
H           1.07561769        0.93072452        0.23170208
H           1.07561769       -0.93072452       -0.23170209
6
MD Time 800.00
C          -0.65850296       -0.00000000        0.00000000
C           0.65850296        0.00000000       -0.00000000
H          -1.08199894        0.93599466       -0.23813172
H          -1.08199894       -0.93599466        0.23813173
H           1.08199892        0.93599467        0.23813175
H           1.08199892       -0.93599467       -0.23813176
6
MD Time 810.00
C          -0.67061142       -0.00000000        0.00000000
C           0.67061142        0.00000000       -0.00000000
H          -1.08943972        0.94183541       -0.24415163
H          -1.08943972       -0.94183541        0.24415163
H           1.08943970        0.94183542        0.24415166
H           1.08943970       -0.94183541       -0.24415166
6
MD Time 820.00
C          -0.68267626       -0.00000000        0.00000000
C           0.68267626        0.00000000       -0.00000000
H          -1.09788575        0.94814439       -0.24974797
H          -1.09788575       -0.94814439        0.24974798
H           1.09788573        0.94814439        0.24974801
H           1.09788573       -0.94814439       -0.24974801
6
MD Time 830.00
C          -0.69464064       -0.00000000        0.00000000
C           0.69464064        0.00000000       -0.00000000
H          -1.10727471        0.95480509       -0.25490406
H          -1.10727471       -0.95480509        0.25490407
H           1.10727468        0.95480510        0.25490409
H           1.10727468       -0.95480510       -0.25490410
6
MD Time 840.00
C          -0.70645724       -0.00000000        0.00000000
C           0.70645725        0.00000000       -0.00000000
H          -1.11753818        0.96169095       -0.25960095
H          -1.11753818       -0.96169095        0.25960095
H           1.11753816        0.96169095        0.25960098
H           1.11753816       -0.96169095       -0.25960098
6
MD Time 850.00
C          -0.71808708       -0.00000000        0.00000000
C           0.71808708        0.00000000       -0.00000000
H          -1.12860357        0.96866938       -0.26381825
H          -1.12860357       -0.96866938        0.26381826
H           1.12860355        0.96866938        0.26381828
H           1.12860355       -0.96866938       -0.26381829
6
MD Time 860.00
C          -0.72949835       -0.00000000        0.00000000
C           0.72949835        0.00000000       -0.00000000
H          -1.14039574        0.97560569       -0.26753500
H          -1.14039574       -0.97560569        0.26753501
H           1.14039572        0.97560569        0.26753503
H           1.14039572       -0.97560569       -0.26753504
6
MD Time 870.00
C          -0.74066544       -0.00000000        0.00000000
C           0.74066544        0.00000000       -0.00000000
H          -1.15283847        0.98236659       -0.27073046
H          -1.15283847       -0.98236659        0.27073047
H           1.15283845        0.98236659        0.27073049
H           1.15283845       -0.98236659       -0.27073050
6
MD Time 880.00
C          -0.75156794       -0.00000000        0.00000000
C           0.75156794        0.00000000       -0.00000000
H          -1.16585564        0.98882318       -0.27338491
H          -1.16585564       -0.98882318        0.27338491
H           1.16585563        0.98882317        0.27338494
H           1.16585563       -0.98882317       -0.27338494
6
MD Time 890.00
C          -0.76218986       -0.00000000        0.00000000
C           0.76218987        0.00000000       -0.00000000
H          -1.17937223        0.99485344       -0.27548028
H          -1.17937223       -0.99485344        0.27548029
H           1.17937222        0.99485344        0.27548031
H           1.17937222       -0.99485343       -0.27548032
6
MD Time 900.00
C          -0.77251888       -0.00000000        0.00000000
C           0.77251888        0.00000000       -0.00000000
H          -1.19331502        1.00034421       -0.27700073
H          -1.19331502       -1.00034421        0.27700073
H           1.19331501        1.00034421        0.27700076
H           1.19331501       -1.00034421       -0.27700076
6
MD Time 910.00
C          -0.78254573       -0.00000000        0.00000000
C           0.78254573        0.00000000       -0.00000000
H          -1.20761316        1.00519265       -0.27793302
H          -1.20761316       -1.00519265        0.27793303
H           1.20761315        1.00519264        0.27793305
H           1.20761315       -1.00519264       -0.27793306
6
MD Time 920.00
C          -0.79226367       -0.00000000        0.00000000
C           0.79226367        0.00000000       -0.00000000
H          -1.22219858        1.00930728       -0.27826687
H          -1.22219858       -1.00930728        0.27826688
H           1.22219858        1.00930727        0.27826690
H           1.22219858       -1.00930727       -0.27826691
6
MD Time 930.00
C          -0.80166804       -0.00000000        0.00000000
C           0.80166804        0.00000000       -0.00000000
H          -1.23700629        1.01260872       -0.27799514
H          -1.23700629       -1.01260872        0.27799514
H           1.23700629        1.01260871        0.27799517
H           1.23700629       -1.01260871       -0.27799517
6
MD Time 940.00
C          -0.81075586       -0.00000000        0.00000000
C           0.81075586        0.00000000       -0.00000000
H          -1.25197452        1.01503012       -0.27711395
H          -1.25197452       -1.01503012        0.27711396
H           1.25197452        1.01503011        0.27711398
H           1.25197452       -1.01503011       -0.27711398
6
MD Time 950.00
C          -0.81952550       -0.00000000        0.00000000
C           0.81952550        0.00000000       -0.00000000
H          -1.26704492        1.01651740       -0.27562278
H          -1.26704492       -1.01651740        0.27562278
H           1.26704493        1.01651739        0.27562280
H           1.26704493       -1.01651739       -0.27562281
6
MD Time 960.00
C          -0.82797641       -0.00000000        0.00000000
C           0.82797641        0.00000000       -0.00000000
H          -1.28216262        1.01702938       -0.27352443
H          -1.28216262       -1.01702938        0.27352444
H           1.28216263        1.01702937        0.27352446
H           1.28216263       -1.01702936       -0.27352447
6
MD Time 970.00
C          -0.83610885       -0.00000000        0.00000000
C           0.83610885        0.00000000       -0.00000000
H          -1.29727633        1.01653778       -0.27082508
H          -1.29727633       -1.01653778        0.27082508
H           1.29727633        1.01653777        0.27082510
H           1.29727633       -1.01653777       -0.27082511
6
MD Time 980.00
C          -0.84392367       -0.00000000        0.00000000
C           0.84392366        0.00000000       -0.00000000
H          -1.31233841        1.01502725       -0.26753413
H          -1.31233841       -1.01502725        0.26753414
H           1.31233841        1.01502724        0.26753415
H           1.31233841       -1.01502724       -0.26753416
6
MD Time 990.00
C          -0.85142214       -0.00000000        0.00000000
C           0.85142214        0.00000000       -0.00000000
H          -1.32730498        1.01249528       -0.26366424
H          -1.32730498       -1.01249528        0.26366424
H           1.32730499        1.01249527        0.26366426
H           1.32730499       -1.01249527       -0.26366427
6
MD Time 1000.00
C          -0.85860577       -0.00000000        0.00000000
C           0.85860577        0.00000000       -0.00000000
H          -1.34213603        1.00895221       -0.25923117
H          -1.34213603       -1.00895221        0.25923118
H           1.34213604        1.00895219        0.25923119
H           1.34213605       -1.00895219       -0.25923120
6
MD Time 1010.00
C          -0.86547614       -0.00000000        0.00000000
C           0.86547613        0.00000000       -0.00000000
H          -1.35679555        1.00442115       -0.25425373
H          -1.35679555       -1.00442115        0.25425374
H           1.35679557        1.00442114        0.25425375
H           1.35679557       -1.00442114       -0.25425376
6
MD Time 1020.00
C          -0.87203476       -0.00000000        0.00000000
C           0.87203476        0.00000000       -0.00000000
H          -1.37125168        0.99893801       -0.24875361
H          -1.37125168       -0.99893801        0.24875361
H           1.37125169        0.99893799        0.24875362
H           1.37125169       -0.99893799       -0.24875363
6
MD Time 1030.00
C          -0.87828297       -0.00000000        0.00000000
C           0.87828297        0.00000000       -0.00000000
H          -1.38547686        0.99255135       -0.24275526
H          -1.38547686       -0.99255135        0.24275527
H           1.38547688        0.99255133        0.24275528
H           1.38547688       -0.99255133       -0.24275529
6
MD Time 1040.00
C          -0.88422179       -0.00000000        0.00000000
C           0.88422179        0.00000000       -0.00000000
H          -1.39944805        0.98532233       -0.23628575
H          -1.39944805       -0.98532233        0.23628576
H           1.39944807        0.98532232        0.23628576
H           1.39944807       -0.98532232       -0.23628577
6
MD Time 1050.00
C          -0.88985182       -0.00000000        0.00000000
C           0.88985182        0.00000000       -0.00000000
H          -1.41314684        0.97732450       -0.22937447
H          -1.41314684       -0.97732450        0.22937447
H           1.41314686        0.97732449        0.22937448
H           1.41314686       -0.97732449       -0.22937449
6
MD Time 1060.00
C          -0.89517318       -0.00000000        0.00000000
C           0.89517318        0.00000000       -0.00000000
H          -1.42655960        0.96864344       -0.22205292
H          -1.42655960       -0.96864344        0.22205293
H           1.42655962        0.96864342        0.22205293
H           1.42655963       -0.96864342       -0.22205294
6
MD Time 1070.00
C          -0.90018541       -0.00000000        0.00000000
C           0.90018541        0.00000000       -0.00000000
H          -1.43967752        0.95937623       -0.21435440
H          -1.43967752       -0.95937623        0.21435440
H           1.43967754        0.95937621        0.21435441
H           1.43967754       -0.95937621       -0.21435442
6
MD Time 1080.00
C          -0.90488747       -0.00000000        0.00000000
C           0.90488746        0.00000000       -0.00000000
H          -1.45249656        0.94963073       -0.20631355
H          -1.45249656       -0.94963073        0.20631356
H           1.45249659        0.94963071        0.20631356
H           1.45249659       -0.94963071       -0.20631357
6
MD Time 1090.00
C          -0.90927767       -0.00000000        0.00000000
C           0.90927767        0.00000000       -0.00000000
H          -1.46501730        0.93952448       -0.19796596
H          -1.46501730       -0.93952448        0.19796596
H           1.46501733        0.93952446        0.19796596
H           1.46501733       -0.93952446       -0.19796597
6
MD Time 1100.00
C          -0.91335377       -0.00000000        0.00000000
C           0.91335377        0.00000000       -0.00000000
H          -1.47724452        0.92918330       -0.18934758
H          -1.47724452       -0.92918330        0.18934759
H           1.47724455        0.92918329        0.18934759
H           1.47724455       -0.92918328       -0.18934760
6
MD Time 1110.00
C          -0.91711301       -0.00000000        0.00000000
C           0.91711300        0.00000000       -0.00000000
H          -1.48918666        0.91873949       -0.18049419
H          -1.48918666       -0.91873949        0.18049420
H           1.48918669        0.91873948        0.18049420
H           1.48918669       -0.91873947       -0.18049421
6
MD Time 1120.00
C          -0.92055220       -0.00000000        0.00000000
C           0.92055220        0.00000000       -0.00000000
H          -1.50085495        0.90832962       -0.17144068
H          -1.50085495       -0.90832962        0.17144069
H           1.50085499        0.90832961        0.17144068
H           1.50085499       -0.90832960       -0.17144070
6
MD Time 1130.00
C          -0.92366796       -0.00000000        0.00000000
C           0.92366796        0.00000000       -0.00000000
H          -1.51226232        0.89809196       -0.16222045
H          -1.51226232       -0.89809196        0.16222046
H           1.51226235        0.89809194        0.16222044
H           1.51226235       -0.89809194       -0.16222046
6
MD Time 1140.00
C          -0.92645687       -0.00000000        0.00000000
C           0.92645687        0.00000000       -0.00000000
H          -1.52342198        0.88816354       -0.15286469
H          -1.52342198       -0.88816354        0.15286470
H           1.52342201        0.88816352        0.15286469
H           1.52342201       -0.88816352       -0.15286470
6
MD Time 1150.00
C          -0.92891577       -0.00000000        0.00000000
C           0.92891577        0.00000000       -0.00000000
H          -1.53434585        0.87867699       -0.14340184
H          -1.53434585       -0.87867699        0.14340185
H           1.53434588        0.87867698        0.14340183
H           1.53434589       -0.87867697       -0.14340185
6
MD Time 1160.00
C          -0.93104204       -0.00000000        0.00000000
C           0.93104203        0.00000000       -0.00000000
H          -1.54504277        0.86975726       -0.13385702
H          -1.54504277       -0.86975726        0.13385703
H           1.54504280        0.86975725        0.13385701
H           1.54504280       -0.86975725       -0.13385702
6
MD Time 1170.00
C          -0.93283389       -0.00000000        0.00000000
C           0.93283389        0.00000000       -0.00000000
H          -1.55551662        0.86151839       -0.12425166
H          -1.55551662       -0.86151839        0.12425167
H           1.55551665        0.86151838        0.12425165
H           1.55551665       -0.86151838       -0.12425166
6
MD Time 1180.00
C          -0.93429070       -0.00000000        0.00000000
C           0.93429069        0.00000000       -0.00000000
H          -1.56576454        0.85406049       -0.11460329
H          -1.56576454       -0.85406049        0.11460330
H           1.56576458        0.85406048        0.11460327
H           1.56576458       -0.85406048       -0.11460329
6
MD Time 1190.00
C          -0.93541323       -0.00000000        0.00000000
C           0.93541322        0.00000000       -0.00000000
H          -1.57577535        0.84746720       -0.10492552
H          -1.57577535       -0.84746720        0.10492553
H           1.57577538        0.84746719        0.10492550
H           1.57577538       -0.84746719       -0.10492552
6
MD Time 1200.00
C          -0.93620389       -0.00000000        0.00000000
C           0.93620389        0.00000000       -0.00000000
H          -1.58552823        0.84180367       -0.09522823
H          -1.58552823       -0.84180367        0.09522824
H           1.58552827        0.84180366        0.09522821
H           1.58552827       -0.84180365       -0.09522823
6
MD Time 1210.00
C          -0.93666685       -0.00000000        0.00000000
C           0.93666684        0.00000000       -0.00000000
H          -1.59499200        0.83711530       -0.08551793
H          -1.59499200       -0.83711530        0.08551794
H           1.59499204        0.83711528        0.08551791
H           1.59499204       -0.83711528       -0.08551792
6
MD Time 1220.00
C          -0.93680805       -0.00000000        0.00000000
C           0.93680804        0.00000000       -0.00000000
H          -1.60412481        0.83342723       -0.07579830
H          -1.60412481       -0.83342723        0.07579831
H           1.60412484        0.83342722        0.07579828
H           1.60412484       -0.83342721       -0.07579829
6
MD Time 1230.00
C          -0.93663520       -0.00000000        0.00000000
C           0.93663520        0.00000000       -0.00000000
H          -1.61287451        0.83074464       -0.06607085
H          -1.61287451       -0.83074464        0.06607087
H           1.61287454        0.83074462        0.06607083
H           1.61287455       -0.83074462       -0.06607084
6
MD Time 1240.00
C          -0.93615761       -0.00000000        0.00000000
C           0.93615761        0.00000000       -0.00000000
H          -1.62117957        0.82905370       -0.05633564
H          -1.62117957       -0.82905370        0.05633566
H           1.62117961        0.82905369        0.05633561
H           1.62117961       -0.82905368       -0.05633563
6
MD Time 1250.00
C          -0.93538594       -0.00000000        0.00000000
C           0.93538594        0.00000000       -0.00000000
H          -1.62897049        0.82832323       -0.04659199
H          -1.62897049       -0.82832323        0.04659201
H           1.62897052        0.82832322        0.04659196
H           1.62897053       -0.82832321       -0.04659198
6
MD Time 1260.00
C          -0.93433191       -0.00000000        0.00000000
C           0.93433191        0.00000000       -0.00000000
H          -1.63617158        0.82850671       -0.03683919
H          -1.63617159       -0.82850671        0.03683920
H           1.63617161        0.82850669        0.03683915
H           1.63617162       -0.82850669       -0.03683917
6
MD Time 1270.00
C          -0.93300797       -0.00000000        0.00000000
C           0.93300796        0.00000000       -0.00000000
H          -1.64270304        0.82954463       -0.02707709
H          -1.64270304       -0.82954463        0.02707711
H           1.64270307        0.82954462        0.02707705
H           1.64270307       -0.82954461       -0.02707707
6
MD Time 1280.00
C          -0.93142692       -0.00000000        0.00000000
C           0.93142692        0.00000000       -0.00000000
H          -1.64848308        0.83136703       -0.01730664
H          -1.64848308       -0.83136703        0.01730665
H           1.64848311        0.83136701        0.01730660
H           1.64848311       -0.83136701       -0.01730661
6
MD Time 1290.00
C          -0.92960159       -0.00000000        0.00000000
C           0.92960159        0.00000000       -0.00000000
H          -1.65343009        0.83389590       -0.00753022
H          -1.65343009       -0.83389590        0.00753024
H           1.65343011        0.83389588        0.00753018
H           1.65343011       -0.83389588       -0.00753019
6
MD Time 1300.00
C          -0.92754448       -0.00000000        0.00000000
C           0.92754448        0.00000000       -0.00000000
H          -1.65746460        0.83704760        0.00224804
H          -1.65746460       -0.83704760       -0.00224803
H           1.65746462        0.83704758       -0.00224809
H           1.65746462       -0.83704758        0.00224807
6
MD Time 1310.00
C          -0.92526748       -0.00000000        0.00000000
C           0.92526748        0.00000000       -0.00000000
H          -1.66051110        0.84073501        0.01202216
H          -1.66051110       -0.84073501       -0.01202214
H           1.66051112        0.84073499       -0.01202221
H           1.66051112       -0.84073498        0.01202219
6
MD Time 1320.00
C          -0.92278162       -0.00000000        0.00000000
C           0.92278161        0.00000000       -0.00000000
H          -1.66249953        0.84486946        0.02178422
H          -1.66249953       -0.84486946       -0.02178420
H           1.66249955        0.84486944       -0.02178427
H           1.66249955       -0.84486944        0.02178425
6
MD Time 1330.00
C          -0.92009685       -0.00000000        0.00000000
C           0.92009685        0.00000000       -0.00000000
H          -1.66336655        0.84936242        0.03152443
H          -1.66336655       -0.84936242       -0.03152441
H           1.66336657        0.84936240       -0.03152448
H           1.66336657       -0.84936240        0.03152447
6
MD Time 1340.00
C          -0.91722194       -0.00000000        0.00000000
C           0.91722193        0.00000000       -0.00000000
H          -1.66305648        0.85412690        0.04123122
H          -1.66305648       -0.85412690       -0.04123120
H           1.66305649        0.85412688       -0.04123127
H           1.66305650       -0.85412688        0.04123126
6
MD Time 1350.00
C          -0.91416428       -0.00000000        0.00000000
C           0.91416428        0.00000000       -0.00000000
H          -1.66152204        0.85907864        0.05089137
H          -1.66152204       -0.85907863       -0.05089135
H           1.66152205        0.85907862       -0.05089143
H           1.66152205       -0.85907862        0.05089141
6
MD Time 1360.00
C          -0.91092991       -0.00000000        0.00000000
C           0.91092991        0.00000000       -0.00000000
H          -1.65872481        0.86413708        0.06049024
H          -1.65872481       -0.86413708       -0.06049022
H           1.65872482        0.86413706       -0.06049030
H           1.65872482       -0.86413706        0.06049029
6
MD Time 1370.00
C          -0.90752339       -0.00000000        0.00000000
C           0.90752339        0.00000000       -0.00000000
H          -1.65463558        0.86922617        0.07001193
H          -1.65463558       -0.86922617       -0.07001192
H           1.65463559        0.86922616       -0.07001200
H           1.65463559       -0.86922616        0.07001198
6
MD Time 1380.00
C          -0.90394783       -0.00000000        0.00000000
C           0.90394782        0.00000000       -0.00000000
H          -1.64923449        0.87427502        0.07943955
H          -1.64923449       -0.87427502       -0.07943953
H           1.64923449        0.87427501       -0.07943962
H           1.64923450       -0.87427501        0.07943960
6
MD Time 1390.00
C          -0.90020488       -0.00000000        0.00000000
C           0.90020488        0.00000000       -0.00000000
H          -1.64251109        0.87921844        0.08875539
H          -1.64251110       -0.87921844       -0.08875538
H           1.64251109        0.87921842       -0.08875547
H           1.64251110       -0.87921842        0.08875545
6
MD Time 1400.00
C          -0.89629478       -0.00000000        0.00000000
C           0.89629478        0.00000000       -0.00000000
H          -1.63446436        0.88399740        0.09794123
H          -1.63446436       -0.88399740       -0.09794122
H           1.63446436        0.88399738       -0.09794131
H           1.63446436       -0.88399738        0.09794129
6
MD Time 1410.00
C          -0.89221633       -0.00000000        0.00000000
C           0.89221633        0.00000000       -0.00000000
H          -1.62510259        0.88855946        0.10697852
H          -1.62510259       -0.88855946       -0.10697850
H           1.62510258        0.88855945       -0.10697859
H           1.62510259       -0.88855945        0.10697858
6
MD Time 1420.00
C          -0.88796697       -0.00000000        0.00000000
C           0.88796697        0.00000000       -0.00000000
H          -1.61444334        0.89285915        0.11584860
H          -1.61444334       -0.89285915       -0.11584859
H           1.61444333        0.89285914       -0.11584868
H           1.61444334       -0.89285914        0.11584867
6
MD Time 1430.00
C          -0.88354281       -0.00000000        0.00000000
C           0.88354281        0.00000000       -0.00000000
H          -1.60251329        0.89685831        0.12453302
H          -1.60251329       -0.89685831       -0.12453300
H           1.60251328        0.89685830       -0.12453310
H           1.60251329       -0.89685829        0.12453308
6
MD Time 1440.00
C          -0.87893870       -0.00000000        0.00000000
C           0.87893870        0.00000000       -0.00000000
H          -1.58934814        0.90052640        0.13301366
H          -1.58934814       -0.90052640       -0.13301365
H           1.58934813        0.90052639       -0.13301375
H           1.58934813       -0.90052639        0.13301374
6
MD Time 1450.00
C          -0.87414824       -0.00000000        0.00000000
C           0.87414825        0.00000000       -0.00000000
H          -1.57499246        0.90384091        0.14127307
H          -1.57499246       -0.90384091       -0.14127305
H           1.57499245        0.90384090       -0.14127316
H           1.57499245       -0.90384090        0.14127315
6
MD Time 1460.00
C          -0.86916391       -0.00000000        0.00000000
C           0.86916391        0.00000000       -0.00000000
H          -1.55949952        0.90678760        0.14929461
H          -1.55949952       -0.90678760       -0.14929459
H           1.55949951        0.90678760       -0.14929470
H           1.55949951       -0.90678759        0.14929468
6
MD Time 1470.00
C          -0.86397708       -0.00000000        0.00000000
C           0.86397708        0.00000000       -0.00000000
H          -1.54293114        0.90936084        0.15706270
H          -1.54293114       -0.90936084       -0.15706269
H           1.54293112        0.90936084       -0.15706280
H           1.54293113       -0.90936084        0.15706278
6
MD Time 1480.00
C          -0.85857813       -0.00000000        0.00000000
C           0.85857814        0.00000000       -0.00000000
H          -1.52535741        0.91156385        0.16456308
H          -1.52535741       -0.91156385       -0.16456306
H           1.52535739        0.91156384       -0.16456318
H           1.52535739       -0.91156384        0.16456316
6
MD Time 1490.00
C          -0.85295659       -0.00000000        0.00000000
C           0.85295660        0.00000000       -0.00000000
H          -1.50685640        0.91340887        0.17178292
H          -1.50685641       -0.91340887       -0.17178290
H           1.50685638        0.91340887       -0.17178302
H           1.50685639       -0.91340886        0.17178301
6
MD Time 1500.00
C          -0.84710122       -0.00000000        0.00000000
C           0.84710123        0.00000000       -0.00000000
H          -1.48751381        0.91491728        0.17871105
H          -1.48751382       -0.91491728       -0.17871104
H           1.48751379        0.91491728       -0.17871116
H           1.48751380       -0.91491728        0.17871114
6
MD Time 1510.00
C          -0.84100021       -0.00000000        0.00000000
C           0.84100021        0.00000000       -0.00000000
H          -1.46742242        0.91611954        0.18533809
H          -1.46742242       -0.91611954       -0.18533807
H           1.46742240        0.91611954       -0.18533819
H           1.46742240       -0.91611954        0.18533818
6
MD Time 1520.00
C          -0.83464134       -0.00000000        0.00000000
C           0.83464134        0.00000000       -0.00000000
H          -1.44668146        0.91705496        0.19165649
H          -1.44668146       -0.91705496       -0.19165648
H           1.44668143        0.91705497       -0.19165660
H           1.44668144       -0.91705496        0.19165658
6
MD Time 1530.00
C          -0.82801228       -0.00000000        0.00000000
C           0.82801228        0.00000000       -0.00000000
H          -1.42539584        0.91777127        0.19766061
H          -1.42539585       -0.91777127       -0.19766059
H           1.42539582        0.91777127       -0.19766072
H           1.42539583       -0.91777127        0.19766070
6
MD Time 1540.00
C          -0.82110079       -0.00000000        0.00000000
C           0.82110079        0.00000000       -0.00000000
H          -1.40367523        0.91832385        0.20334662
H          -1.40367523       -0.91832386       -0.20334661
H           1.40367521        0.91832386       -0.20334673
H           1.40367521       -0.91832386        0.20334672
6
MD Time 1550.00
C          -0.81389511       -0.00000000        0.00000000
C           0.81389512        0.00000000       -0.00000000
H          -1.38163287        0.91877479        0.20871238
H          -1.38163287       -0.91877479       -0.20871237
H           1.38163284        0.91877479       -0.20871249
H           1.38163285       -0.91877479        0.20871248
6
MD Time 1560.00
C          -0.80638431       -0.00000000        0.00000000
C           0.80638431        0.00000000       -0.00000000
H          -1.35938436        0.91919142        0.21375716
H          -1.35938436       -0.91919142       -0.21375715
H           1.35938433        0.91919142       -0.21375728
H           1.35938434       -0.91919142        0.21375726
6
MD Time 1570.00
C          -0.79855867       -0.00000000        0.00000000
C           0.79855868        0.00000000       -0.00000000
H          -1.33704623        0.91964466        0.21848131
H          -1.33704623       -0.91964467       -0.21848129
H           1.33704620        0.91964467       -0.21848142
H           1.33704620       -0.91964467        0.21848141
6
MD Time 1580.00
C          -0.79041023       -0.00000000        0.00000000
C           0.79041024        0.00000000       -0.00000000
H          -1.31473442        0.92020699        0.22288573
H          -1.31473442       -0.92020699       -0.22288572
H           1.31473439        0.92020699       -0.22288584
H           1.31473440       -0.92020699        0.22288583
6
MD Time 1590.00
C          -0.78193320       -0.00000000        0.00000000
C           0.78193320        0.00000000       -0.00000000
H          -1.29256277        0.92095004        0.22697136
H          -1.29256277       -0.92095004       -0.22697134
H           1.29256274        0.92095004       -0.22697147
H           1.29256274       -0.92095004        0.22697146
6
MD Time 1600.00
C          -0.77312453       -0.00000000        0.00000000
C           0.77312453        0.00000000       -0.00000000
H          -1.27064144        0.92194213        0.23073848
H          -1.27064145       -0.92194213       -0.23073847
H           1.27064141        0.92194214       -0.23073860
H           1.27064142       -0.92194214        0.23073859
6
MD Time 1610.00
C          -0.76398448       -0.00000000        0.00000000
C           0.76398448        0.00000000       -0.00000000
H          -1.24907552        0.92324562        0.23418607
H          -1.24907552       -0.92324562       -0.23418606
H           1.24907548        0.92324562       -0.23418619
H           1.24907549       -0.92324562        0.23418618
6
MD Time 1620.00
C          -0.75451716       -0.00000000        0.00000000
C           0.75451716        0.00000000       -0.00000000
H          -1.22796367        0.92491429        0.23731108
H          -1.22796367       -0.92491429       -0.23731107
H           1.22796363        0.92491429       -0.23731120
H           1.22796364       -0.92491429        0.23731119
6
MD Time 1630.00
C          -0.74473113       -0.00000000        0.00000000
C           0.74473114        0.00000000       -0.00000000
H          -1.20739712        0.92699101        0.24010784
H          -1.20739713       -0.92699101       -0.24010783
H           1.20739709        0.92699101       -0.24010795
H           1.20739709       -0.92699101        0.24010794
6
MD Time 1640.00
C          -0.73463998       -0.00000000        0.00000000
C           0.73463999        0.00000000       -0.00000000
H          -1.18745887        0.92950569        0.24256750
H          -1.18745887       -0.92950569       -0.24256749
H           1.18745884        0.92950569       -0.24256761
H           1.18745884       -0.92950569        0.24256760
6
MD Time 1650.00
C          -0.72426291       -0.00000000        0.00000000
C           0.72426292        0.00000000       -0.00000000
H          -1.16822315        0.93247374        0.24467773
H          -1.16822315       -0.93247374       -0.24467772
H           1.16822311        0.93247374       -0.24467785
H           1.16822312       -0.93247374        0.24467784
6
MD Time 1660.00
C          -0.71362532       -0.00000000        0.00000000
C           0.71362532        0.00000000       -0.00000000
H          -1.14975526        0.93589516        0.24642256
H          -1.14975526       -0.93589516       -0.24642255
H           1.14975522        0.93589516       -0.24642267
H           1.14975523       -0.93589516        0.24642266
6
MD Time 1670.00
C          -0.70275937       -0.00000000        0.00000000
C           0.70275938        0.00000000       -0.00000000
H          -1.13211168        0.93975428        0.24778240
H          -1.13211168       -0.93975428       -0.24778239
H           1.13211164        0.93975428       -0.24778251
H           1.13211164       -0.93975428        0.24778251
6
MD Time 1680.00
C          -0.69170463       -0.00000000        0.00000000
C           0.69170464        0.00000000       -0.00000000
H          -1.11534040        0.94402017        0.24873442
H          -1.11534040       -0.94402017       -0.24873441
H           1.11534036        0.94402016       -0.24873453
H           1.11534036       -0.94402016        0.24873452
6
MD Time 1690.00
C          -0.68050858       -0.00000000        0.00000000
C           0.68050858        0.00000000       -0.00000000
H          -1.09948149        0.94864766        0.24925303
H          -1.09948149       -0.94864766       -0.24925302
H           1.09948146        0.94864765       -0.24925314
H           1.09948146       -0.94864765        0.24925313
6
MD Time 1700.00
C          -0.66922717       -0.00000000        0.00000000
C           0.66922718        0.00000000       -0.00000000
H          -1.08456783        0.95357900        0.24931060
H          -1.08456783       -0.95357900       -0.24931059
H           1.08456779        0.95357899       -0.24931072
H           1.08456780       -0.95357899        0.24931071
6
MD Time 1710.00
C          -0.65792538       -0.00000000        0.00000000
C           0.65792538        0.00000000       -0.00000000
H          -1.07062585        0.95874580        0.24887832
H          -1.07062585       -0.95874580       -0.24887831
H           1.07062581        0.95874579       -0.24887843
H           1.07062581       -0.95874578        0.24887842
6
MD Time 1720.00
C          -0.64667754       -0.00000000        0.00000000
C           0.64667754        0.00000000       -0.00000000
H          -1.05767641        0.96407136        0.24792711
H          -1.05767641       -0.96407136       -0.24792710
H           1.05767638        0.96407135       -0.24792722
H           1.05767638       -0.96407135        0.24792721
6
MD Time 1730.00
C          -0.63556762       -0.00000000        0.00000000
C           0.63556763        0.00000000       -0.00000000
H          -1.04573562        0.96947312        0.24642860
H          -1.04573563       -0.96947312       -0.24642859
H           1.04573559        0.96947310       -0.24642871
H           1.04573559       -0.96947310        0.24642870
6
MD Time 1740.00
C          -0.62468923       -0.00000000        0.00000000
C           0.62468924        0.00000000       -0.00000000
H          -1.03481561        0.97486508        0.24435607
H          -1.03481561       -0.97486508       -0.24435607
H           1.03481558        0.97486506       -0.24435618
H           1.03481558       -0.97486506        0.24435618
6
MD Time 1750.00
C          -0.61414524       -0.00000000        0.00000000
C           0.61414525        0.00000000       -0.00000000
H          -1.02492523        0.98016018        0.24168535
H          -1.02492523       -0.98016018       -0.24168534
H           1.02492520        0.98016017       -0.24168546
H           1.02492520       -0.98016016        0.24168545
6
MD Time 1760.00
C          -0.60404697       -0.00000000        0.00000000
C           0.60404698        0.00000000       -0.00000000
H          -1.01607072        0.98527252        0.23839553
H          -1.01607072       -0.98527252       -0.23839552
H           1.01607069        0.98527250       -0.23839564
H           1.01607069       -0.98527250        0.23839563
6
MD Time 1770.00
C          -0.59451278       -0.00000000        0.00000000
C           0.59451278        0.00000000       -0.00000000
H          -1.00825624        0.99011925        0.23446968
H          -1.00825624       -0.99011925       -0.23446968
H           1.00825621        0.99011923       -0.23446979
H           1.00825621       -0.99011923        0.23446978
6
MD Time 1780.00
C          -0.58566593       -0.00000000        0.00000000
C           0.58566593        0.00000000       -0.00000000
H          -1.00148429        0.99462237        0.22989533
H          -1.00148429       -0.99462237       -0.22989532
H           1.00148426        0.99462235       -0.22989543
H           1.00148426       -0.99462234        0.22989543
6
MD Time 1790.00
C          -0.57763168       -0.00000000        0.00000000
C           0.57763168        0.00000000       -0.00000000
H          -0.99575611        0.99871012        0.22466481
H          -0.99575611       -0.99871012       -0.22466481
H           0.99575608        0.99871010       -0.22466492
H           0.99575609       -0.99871010        0.22466491
6
MD Time 1800.00
C          -0.57053360       -0.00000000        0.00000000
C           0.57053360        0.00000000       -0.00000000
H          -0.99107194        1.00231827        0.21877553
H          -0.99107194       -1.00231827       -0.21877553
H           0.99107191        1.00231825       -0.21877563
H           0.99107192       -1.00231825        0.21877563
6
MD Time 1810.00
C          -0.56448917       -0.00000000        0.00000000
C           0.56448917        0.00000000       -0.00000000
H          -0.98743120        1.00539111        0.21223004
H          -0.98743120       -1.00539112       -0.21223003
H           0.98743117        1.00539110       -0.21223014
H           0.98743117       -1.00539109        0.21223013
6
MD Time 1820.00
C          -0.55960492       -0.00000000        0.00000000
C           0.55960492        0.00000000       -0.00000000
H          -0.98483262        1.00788228        0.20503602
H          -0.98483262       -1.00788228       -0.20503602
H           0.98483260        1.00788227       -0.20503612
H           0.98483260       -1.00788226        0.20503612
6
MD Time 1830.00
C          -0.55597141       -0.00000000        0.00000000
C           0.55597142        0.00000000       -0.00000000
H          -0.98327437        1.00975547        0.19720622
H          -0.98327437       -1.00975547       -0.19720621
H           0.98327435        1.00975545       -0.19720632
H           0.98327435       -1.00975545        0.19720631
6
MD Time 1840.00
C          -0.55365852       -0.00000000        0.00000000
C           0.55365852        0.00000000       -0.00000000
H          -0.98275404        1.01098495        0.18875821
H          -0.98275404       -1.01098495       -0.18875821
H           0.98275402        1.01098494       -0.18875831
H           0.98275402       -1.01098493        0.18875830
6
MD Time 1850.00
C          -0.55271145       -0.00000000        0.00000000
C           0.55271145        0.00000000       -0.00000000
H          -0.98326873        1.01155609        0.17971422
H          -0.98326873       -1.01155609       -0.17971422
H           0.98326872        1.01155608       -0.17971432
H           0.98326872       -1.01155607        0.17971431
6
MD Time 1860.00
C          -0.55314809       -0.00000000        0.00000000
C           0.55314809        0.00000000       -0.00000000
H          -0.98481507        1.01146564        0.17010080
H          -0.98481507       -1.01146565       -0.17010080
H           0.98481506        1.01146563       -0.17010090
H           0.98481506       -1.01146563        0.17010089
6
MD Time 1870.00
C          -0.55495778       -0.00000000        0.00000000
C           0.55495778        0.00000000       -0.00000000
H          -0.98738927        1.01072202        0.15994850
H          -0.98738926       -1.01072202       -0.15994850
H           0.98738926        1.01072201       -0.15994859
H           0.98738926       -1.01072201        0.15994859
6
MD Time 1880.00
C          -0.55810197       -0.00000000        0.00000000
C           0.55810198        0.00000000       -0.00000000
H          -0.99098715        1.00934539        0.14929148
H          -0.99098715       -1.00934539       -0.14929147
H           0.99098714        1.00934538       -0.14929157
H           0.99098714       -1.00934538        0.14929156
6
MD Time 1890.00
C          -0.56251638       -0.00000000        0.00000000
C           0.56251638        0.00000000       -0.00000000
H          -0.99560423        1.00736762        0.13816706
H          -0.99560423       -1.00736762       -0.13816706
H           0.99560423        1.00736761       -0.13816715
H           0.99560423       -1.00736761        0.13816714
6
MD Time 1900.00
C          -0.56811461       -0.00000000        0.00000000
C           0.56811461        0.00000000       -0.00000000
H          -1.00123572        1.00483201        0.12661523
H          -1.00123571       -1.00483201       -0.12661522
H           1.00123572        1.00483200       -0.12661531
H           1.00123572       -1.00483200        0.12661531
6
MD Time 1910.00
C          -0.57479269       -0.00000000        0.00000000
C           0.57479269        0.00000000       -0.00000000
H          -1.00787648        1.00179271        0.11467801
H          -1.00787648       -1.00179271       -0.11467800
H           1.00787649        1.00179270       -0.11467809
H           1.00787649       -1.00179270        0.11467808
6
MD Time 1920.00
C          -0.58243410       -0.00000000        0.00000000
C           0.58243410        0.00000000       -0.00000000
H          -1.01552096        0.99831390        0.10239884
H          -1.01552096       -0.99831390       -0.10239884
H           1.01552096        0.99831390       -0.10239892
H           1.01552096       -0.99831390        0.10239892
6
MD Time 1930.00
C          -0.59091480       -0.00000000        0.00000000
C           0.59091479        0.00000000       -0.00000000
H          -1.02416290        0.99446853        0.08982186
H          -1.02416290       -0.99446853       -0.08982186
H           1.02416291        0.99446853       -0.08982194
H           1.02416291       -0.99446853        0.08982194
6
MD Time 1940.00
C          -0.60010785       -0.00000000        0.00000000
C           0.60010785        0.00000000       -0.00000000
H          -1.03379503        0.99033664        0.07699113
H          -1.03379503       -0.99033664       -0.07699113
H           1.03379504        0.99033664       -0.07699121
H           1.03379504       -0.99033664        0.07699120
6
MD Time 1950.00
C          -0.60988751       -0.00000000        0.00000000
C           0.60988751        0.00000000       -0.00000000
H          -1.04440855        0.98600334        0.06394992
H          -1.04440854       -0.98600335       -0.06394991
H           1.04440856        0.98600335       -0.06394999
H           1.04440856       -0.98600335        0.06394998
6
MD Time 1960.00
C          -0.62013249       -0.00000000        0.00000000
C           0.62013249        0.00000000       -0.00000000
H          -1.05599244        0.98155633        0.05073998
H          -1.05599244       -0.98155633       -0.05073997
H           1.05599246        0.98155633       -0.05074005
H           1.05599246       -0.98155633        0.05074004
6
MD Time 1970.00
C          -0.63072843       -0.00000000        0.00000000
C           0.63072842        0.00000000       -0.00000000
H          -1.06853273        0.97708307        0.03740099
H          -1.06853272       -0.97708307       -0.03740098
H           1.06853274        0.97708307       -0.03740105
H           1.06853274       -0.97708307        0.03740105
6
MD Time 1980.00
C          -0.64156964       -0.00000000        0.00000000
C           0.64156964        0.00000000       -0.00000000
H          -1.08201150        0.97266775        0.02397003
H          -1.08201150       -0.97266776       -0.02397003
H           1.08201152        0.97266776       -0.02397010
H           1.08201152       -0.97266776        0.02397009
6
MD Time 1990.00
C          -0.65256026       -0.00000000        0.00000000
C           0.65256026        0.00000000       -0.00000000
H          -1.09640599        0.96838819        0.01048137
H          -1.09640599       -0.96838820       -0.01048136
H           1.09640601        0.96838820       -0.01048143
H           1.09640601       -0.96838820        0.01048142
6
MD Time 2000.00
C          -0.66361477       -0.00000000        0.00000001
C           0.66361476        0.00000000       -0.00000001
H          -1.11168753        0.96431273       -0.00303371
H          -1.11168752       -0.96431273        0.00303372
H           1.11168755        0.96431274        0.00303365
H           1.11168755       -0.96431274       -0.00303366
6
MD Time 2010.00
C          -0.67465814       -0.00000000        0.00000001
C           0.67465813        0.00000000       -0.00000001
H          -1.12782059        0.96049745       -0.01654671
H          -1.12782059       -0.96049745        0.01654672
H           1.12782061        0.96049745        0.01654666
H           1.12782061       -0.96049745       -0.01654666
6
MD Time 2020.00
C          -0.68562568       -0.00000000        0.00000001
C           0.68562568        0.00000000       -0.00000001
H          -1.14476196        0.95698389       -0.03003167
H          -1.14476195       -0.95698389        0.03003167
H           1.14476198        0.95698389        0.03003161
H           1.14476197       -0.95698389       -0.03003162
6
MD Time 2030.00
C          -0.69646264       -0.00000000        0.00000001
C           0.69646264        0.00000000       -0.00000001
H          -1.16246005        0.95379736       -0.04346464
H          -1.16246004       -0.95379737        0.04346465
H           1.16246007        0.95379737        0.04346459
H           1.16246007       -0.95379737       -0.04346460
6
MD Time 2040.00
C          -0.70712360       -0.00000000        0.00000001
C           0.70712360        0.00000000       -0.00000001
H          -1.18085454        0.95094609       -0.05682318
H          -1.18085453       -0.95094609        0.05682319
H           1.18085456        0.95094609        0.05682314
H           1.18085456       -0.95094609       -0.05682315
6
MD Time 2050.00
C          -0.71757184       -0.00000000        0.00000001
C           0.71757183        0.00000000       -0.00000001
H          -1.19987623        0.94842112       -0.07008569
H          -1.19987623       -0.94842113        0.07008570
H           1.19987625        0.94842113        0.07008565
H           1.19987625       -0.94842113       -0.07008566
6
MD Time 2060.00
C          -0.72777853       -0.00000000        0.00000001
C           0.72777853        0.00000000       -0.00000001
H          -1.21944733        0.94619720       -0.08323085
H          -1.21944732       -0.94619721        0.08323086
H           1.21944735        0.94619721        0.08323081
H           1.21944735       -0.94619721       -0.08323082
6
MD Time 2070.00
C          -0.73772201       -0.00000000        0.00000001
C           0.73772201        0.00000000       -0.00000001
H          -1.23948199        0.94423428       -0.09623708
H          -1.23948198       -0.94423429        0.09623709
H           1.23948201        0.94423429        0.09623704
H           1.23948201       -0.94423429       -0.09623705
6
MD Time 2080.00
C          -0.74738689       -0.00000000        0.00000001
C           0.74738689        0.00000000       -0.00000001
H          -1.25988723        0.94247973       -0.10908220
H          -1.25988722       -0.94247974        0.10908221
H           1.25988725        0.94247974        0.10908217
H           1.25988724       -0.94247974       -0.10908218
6
MD Time 2090.00
C          -0.75676330       -0.00000000        0.00000001
C           0.75676330        0.00000000       -0.00000001
H          -1.28056409        0.94087100       -0.12174317
H          -1.28056409       -0.94087101        0.12174318
H           1.28056411        0.94087100        0.12174314
H           1.28056411       -0.94087100       -0.12174315
6
MD Time 2100.00
C          -0.76584608       -0.00000000        0.00000001
C           0.76584608        0.00000000       -0.00000001
H          -1.30140902        0.93933849       -0.13419603
H          -1.30140902       -0.93933849        0.13419605
H           1.30140904        0.93933849        0.13419601
H           1.30140904       -0.93933849       -0.13419602
6
MD Time 2110.00
C          -0.77463401       -0.00000000        0.00000001
C           0.77463400        0.00000000       -0.00000001
H          -1.32231535        0.93780850       -0.14641599
H          -1.32231535       -0.93780851        0.14641601
H           1.32231537        0.93780850        0.14641597
H           1.32231537       -0.93780850       -0.14641598
6
MD Time 2120.00
C          -0.78312909       -0.00000000        0.00000001
C           0.78312909        0.00000000       -0.00000001
H          -1.34317486        0.93620610       -0.15837764
H          -1.34317485       -0.93620611        0.15837765
H           1.34317487        0.93620610        0.15837762
H           1.34317487       -0.93620610       -0.15837763
6
MD Time 2130.00
C          -0.79133593       -0.00000000        0.00000001
C           0.79133593        0.00000000       -0.00000001
H          -1.36387926        0.93445768       -0.17005525
H          -1.36387926       -0.93445769        0.17005526
H           1.36387927        0.93445768        0.17005523
H           1.36387927       -0.93445768       -0.17005525
6
MD Time 2140.00
C          -0.79926110       -0.00000000        0.00000001
C           0.79926110        0.00000000       -0.00000001
H          -1.38432170        0.93249323       -0.18142319
H          -1.38432170       -0.93249324        0.18142320
H           1.38432171        0.93249323        0.18142317
H           1.38432171       -0.93249323       -0.18142319
6
MD Time 2150.00
C          -0.80691264       -0.00000000        0.00000001
C           0.80691264        0.00000000       -0.00000001
H          -1.40439802        0.93024823       -0.19245630
H          -1.40439802       -0.93024823        0.19245632
H           1.40439803        0.93024822        0.19245629
H           1.40439803       -0.93024822       -0.19245631
6
MD Time 2160.00
C          -0.81429957       -0.00000000        0.00000001
C           0.81429957        0.00000000       -0.00000001
H          -1.42400792        0.92766508       -0.20313036
H          -1.42400792       -0.92766508        0.20313037
H           1.42400793        0.92766507        0.20313035
H           1.42400793       -0.92766507       -0.20313037
6
MD Time 2170.00
C          -0.82143155       -0.00000000        0.00000001
C           0.82143154        0.00000000       -0.00000001
H          -1.44305595        0.92469428       -0.21342243
H          -1.44305595       -0.92469428        0.21342245
H           1.44305596        0.92469427        0.21342243
H           1.44305596       -0.92469427       -0.21342245
6
MD Time 2180.00
C          -0.82831845       -0.00000000        0.00000001
C           0.82831845        0.00000000       -0.00000001
H          -1.46145229        0.92129515       -0.22331129
H          -1.46145229       -0.92129515        0.22331131
H           1.46145230        0.92129514        0.22331129
H           1.46145230       -0.92129514       -0.22331131
6
MD Time 2190.00
C          -0.83497016       -0.00000000        0.00000001
C           0.83497016        0.00000000       -0.00000001
H          -1.47911345        0.91743634       -0.23277772
H          -1.47911345       -0.91743634        0.23277774
H           1.47911346        0.91743633        0.23277773
H           1.47911345       -0.91743633       -0.23277774
6
MD Time 2200.00
C          -0.84139631       -0.00000000        0.00000001
C           0.84139631        0.00000000       -0.00000001
H          -1.49596273        0.91309606       -0.24180484
H          -1.49596273       -0.91309607        0.24180485
H           1.49596274        0.91309605        0.24180484
H           1.49596273       -0.91309605       -0.24180486
6
MD Time 2210.00
C          -0.84760607       -0.00000000        0.00000001
C           0.84760607        0.00000000       -0.00000001
H          -1.51193066        0.90826221       -0.25037831
H          -1.51193066       -0.90826221        0.25037833
H           1.51193066        0.90826220        0.25037832
H           1.51193066       -0.90826220       -0.25037834
6
MD Time 2220.00
C          -0.85360801       -0.00000000        0.00000001
C           0.85360801        0.00000000       -0.00000001
H          -1.52695528        0.90293226       -0.25848662
H          -1.52695527       -0.90293227        0.25848664
H           1.52695527        0.90293225        0.25848663
H           1.52695527       -0.90293225       -0.25848665
6
MD Time 2230.00
C          -0.85940994       -0.00000000        0.00000001
C           0.85940995        0.00000000       -0.00000001
H          -1.54098237        0.89711318       -0.26612121
H          -1.54098236       -0.89711318        0.26612123
H           1.54098237        0.89711317        0.26612123
H           1.54098237       -0.89711317       -0.26612125
6
MD Time 2240.00
C          -0.86501883       -0.00000000        0.00000001
C           0.86501883        0.00000000       -0.00000001
H          -1.55396569        0.89082121       -0.27327669
H          -1.55396569       -0.89082121        0.27327671
H           1.55396569        0.89082119        0.27327671
H           1.55396569       -0.89082119       -0.27327673
6
MD Time 2250.00
C          -0.87044067       -0.00000000        0.00000001
C           0.87044067        0.00000000       -0.00000001
H          -1.56586711        0.88408166       -0.27995095
H          -1.56586710       -0.88408166        0.27995097
H           1.56586710        0.88408165        0.27995097
H           1.56586710       -0.88408165       -0.27995099
6
MD Time 2260.00
C          -0.87568041       -0.00000000        0.00000001
C           0.87568041        0.00000000       -0.00000001
H          -1.57665677        0.87692872       -0.28614531
H          -1.57665677       -0.87692872        0.28614533
H           1.57665677        0.87692871        0.28614533
H           1.57665676       -0.87692870       -0.28614535
6
MD Time 2270.00
C          -0.88074185       -0.00000000        0.00000001
C           0.88074185        0.00000000       -0.00000001
H          -1.58631328        0.86940519       -0.29186463
H          -1.58631327       -0.86940519        0.29186466
H           1.58631327        0.86940517        0.29186466
H           1.58631327       -0.86940517       -0.29186468
6
MD Time 2280.00
C          -0.88562762       -0.00000000        0.00000001
C           0.88562762        0.00000000       -0.00000001
H          -1.59482383        0.86156230       -0.29711747
H          -1.59482382       -0.86156230        0.29711749
H           1.59482382        0.86156229        0.29711750
H           1.59482382       -0.86156228       -0.29711752
6
MD Time 2290.00
C          -0.89033906       -0.00000000        0.00000001
C           0.89033906        0.00000000       -0.00000001
H          -1.60218440        0.85345948       -0.30191612
H          -1.60218439       -0.85345948        0.30191614
H           1.60218439        0.85345947        0.30191615
H           1.60218439       -0.85345947       -0.30191617
6
MD Time 2300.00
C          -0.89487617       -0.00000000        0.00000001
C           0.89487617        0.00000000       -0.00000001
H          -1.60839989        0.84516413       -0.30627671
H          -1.60839989       -0.84516413        0.30627673
H           1.60839989        0.84516412        0.30627674
H           1.60839988       -0.84516412       -0.30627677
6
MD Time 2310.00
C          -0.89923758       -0.00000000        0.00000001
C           0.89923758        0.00000000       -0.00000001
H          -1.61348431        0.83675133       -0.31021929
H          -1.61348431       -0.83675133        0.31021932
H           1.61348430        0.83675132        0.31021933
H           1.61348430       -0.83675132       -0.31021935
6
MD Time 2320.00
C          -0.90342048       -0.00000000        0.00000001
C           0.90342048        0.00000000       -0.00000001
H          -1.61746080        0.82830351       -0.31376781
H          -1.61746079       -0.82830352        0.31376784
H           1.61746079        0.82830351        0.31376785
H           1.61746078       -0.82830350       -0.31376788
6
MD Time 2330.00
C          -0.90742060       -0.00000000        0.00000001
C           0.90742061        0.00000000       -0.00000001
H          -1.62036169        0.81991003       -0.31695011
H          -1.62036168       -0.81991003        0.31695013
H           1.62036168        0.81991002        0.31695015
H           1.62036168       -0.81991002       -0.31695018
6
MD Time 2340.00
C          -0.91123223       -0.00000000        0.00000001
C           0.91123223        0.00000000       -0.00000001
H          -1.62222841        0.81166655       -0.31979776
H          -1.62222840       -0.81166655        0.31979779
H           1.62222840        0.81166655        0.31979781
H           1.62222840       -0.81166654       -0.31979783
6
MD Time 2350.00
C          -0.91484819       -0.00000000        0.00000001
C           0.91484819        0.00000000       -0.00000001
H          -1.62311121        0.80367435       -0.32234593
H          -1.62311120       -0.80367435        0.32234596
H           1.62311120        0.80367435        0.32234597
H           1.62311120       -0.80367434       -0.32234600
6
MD Time 2360.00
C          -0.91825996       -0.00000000        0.00000001
C           0.91825996        0.00000000       -0.00000001
H          -1.62306869        0.79603929       -0.32463298
H          -1.62306869       -0.79603929        0.32463301
H           1.62306868        0.79603929        0.32463302
H           1.62306868       -0.79603928       -0.32463305
6
MD Time 2370.00
C          -0.92145774       -0.00000000        0.00000001
C           0.92145775        0.00000000       -0.00000001
H          -1.62216710        0.78887057       -0.32670002
H          -1.62216710       -0.78887057        0.32670005
H           1.62216710        0.78887057        0.32670007
H           1.62216709       -0.78887057       -0.32670010
6
MD Time 2380.00
C          -0.92443063       -0.00000000        0.00000001
C           0.92443063        0.00000000       -0.00000001
H          -1.62047928        0.78227917       -0.32859029
H          -1.62047928       -0.78227917        0.32859032
H           1.62047927        0.78227917        0.32859034
H           1.62047927       -0.78227916       -0.32859037
6
MD Time 2390.00
C          -0.92716684       -0.00000000        0.00000001
C           0.92716685        0.00000000       -0.00000001
H          -1.61808329        0.77637591       -0.33034827
H          -1.61808329       -0.77637591        0.33034830
H           1.61808328        0.77637591        0.33034832
H           1.61808328       -0.77637590       -0.33034835
6
MD Time 2400.00
C          -0.92965398       -0.00000000        0.00000001
C           0.92965398        0.00000000       -0.00000001
H          -1.61506072        0.77126925       -0.33201869
H          -1.61506071       -0.77126925        0.33201872
H           1.61506071        0.77126925        0.33201874
H           1.61506071       -0.77126924       -0.33201877
6
MD Time 2410.00
C          -0.93187937       -0.00000000        0.00000001
C           0.93187937        0.00000000       -0.00000001
H          -1.61149460        0.76706267       -0.33364532
H          -1.61149460       -0.76706267        0.33364535
H           1.61149459        0.76706267        0.33364537
H           1.61149459       -0.76706266       -0.33364540
6
MD Time 2420.00
C          -0.93383047       -0.00000000        0.00000001
C           0.93383047        0.00000000       -0.00000001
H          -1.60746712        0.76385184       -0.33526954
H          -1.60746711       -0.76385184        0.33526957
H           1.60746711        0.76385184        0.33526959
H           1.60746711       -0.76385183       -0.33526963
6
MD Time 2430.00
C          -0.93549525       -0.00000000        0.00000001
C           0.93549525        0.00000000       -0.00000001
H          -1.60305706        0.76172159       -0.33692890
H          -1.60305705       -0.76172159        0.33692894
H           1.60305705        0.76172159        0.33692896
H           1.60305705       -0.76172158       -0.33692899
6
MD Time 2440.00
C          -0.93686263       -0.00000000        0.00000001
C           0.93686263        0.00000000       -0.00000001
H          -1.59833727        0.76074290       -0.33865555
H          -1.59833726       -0.76074290        0.33865559
H           1.59833726        0.76074290        0.33865560
H           1.59833726       -0.76074289       -0.33865564
6
MD Time 2450.00
C          -0.93792291       -0.00000000        0.00000001
C           0.93792291        0.00000000       -0.00000001
H          -1.59337218        0.76096995       -0.34047474
H          -1.59337218       -0.76096995        0.34047477
H           1.59337218        0.76096995        0.34047479
H           1.59337218       -0.76096994       -0.34047483
6
MD Time 2460.00
C          -0.93866808       -0.00000000        0.00000001
C           0.93866808        0.00000000       -0.00000001
H          -1.58821568        0.76243758       -0.34240349
H          -1.58821567       -0.76243757        0.34240352
H           1.58821567        0.76243757        0.34240354
H           1.58821567       -0.76243756       -0.34240357
6
MD Time 2470.00
C          -0.93909215       -0.00000000        0.00000001
C           0.93909215        0.00000000       -0.00000001
H          -1.58290939        0.76515921       -0.34444950
H          -1.58290939       -0.76515921        0.34444953
H           1.58290939        0.76515921        0.34444955
H           1.58290939       -0.76515920       -0.34444959
6
MD Time 2480.00
C          -0.93919128       -0.00000000        0.00000001
C           0.93919128        0.00000000       -0.00000001
H          -1.57748165        0.76912561       -0.34661045
H          -1.57748164       -0.76912561        0.34661049
H           1.57748165        0.76912560        0.34661050
H           1.57748164       -0.76912559       -0.34661054
6
MD Time 2490.00
C          -0.93896386       -0.00000000        0.00000001
C           0.93896386        0.00000000       -0.00000001
H          -1.57194711        0.77430433       -0.34887368
H          -1.57194710       -0.77430432        0.34887372
H           1.57194711        0.77430432        0.34887373
H           1.57194710       -0.77430431       -0.34887377
6
MD Time 2500.00
C          -0.93841046       -0.00000000        0.00000001
C           0.93841046        0.00000000       -0.00000001
H          -1.56630716        0.78064019       -0.35121638
H          -1.56630716       -0.78064019        0.35121642
H           1.56630716        0.78064018        0.35121643
H           1.56630716       -0.78064017       -0.35121647
6
MD Time 2510.00
C          -0.93753357       -0.00000000        0.00000001
C           0.93753357        0.00000000       -0.00000001
H          -1.56055100        0.78805664       -0.35360623
H          -1.56055100       -0.78805663        0.35360627
H           1.56055100        0.78805663        0.35360628
H           1.56055100       -0.78805662       -0.35360631
6
MD Time 2520.00
C          -0.93633742       -0.00000000        0.00000001
C           0.93633742        0.00000000       -0.00000001
H          -1.55465729        0.79645784       -0.35600244
H          -1.55465728       -0.79645784        0.35600247
H           1.55465728        0.79645783        0.35600248
H           1.55465728       -0.79645782       -0.35600252
6
MD Time 2530.00
C          -0.93482754       -0.00000000        0.00000001
C           0.93482754        0.00000000       -0.00000001
H          -1.54859623        0.80573155       -0.35835713
H          -1.54859622       -0.80573154        0.35835717
H           1.54859622        0.80573153        0.35835718
H           1.54859622       -0.80573152       -0.35835721
6
MD Time 2540.00
C          -0.93301041       -0.00000000        0.00000001
C           0.93301041        0.00000000       -0.00000001
H          -1.54233190        0.81575233       -0.36061697
H          -1.54233190       -0.81575232        0.36061701
H           1.54233190        0.81575231        0.36061702
H           1.54233190       -0.81575230       -0.36061705
6
MD Time 2550.00
C          -0.93089308       -0.00000000        0.00000001
C           0.93089308        0.00000000       -0.00000001
H          -1.53582465        0.82638508       -0.36272485
H          -1.53582465       -0.82638507        0.36272488
H           1.53582465        0.82638506        0.36272489
H           1.53582465       -0.82638505       -0.36272492
6
MD Time 2560.00
C          -0.92848274       -0.00000000        0.00000001
C           0.92848274        0.00000000       -0.00000001
H          -1.52903334        0.83748858       -0.36462159
H          -1.52903333       -0.83748858        0.36462163
H           1.52903334        0.83748856        0.36462164
H           1.52903334       -0.83748855       -0.36462167
6
MD Time 2570.00
C          -0.92578641       -0.00000000        0.00000001
C           0.92578641        0.00000000       -0.00000001
H          -1.52191741        0.84891888       -0.36624762
H          -1.52191741       -0.84891888        0.36624766
H           1.52191741        0.84891886        0.36624766
H           1.52191741       -0.84891885       -0.36624769
6
MD Time 2580.00
C          -0.92281064       -0.00000000        0.00000001
C           0.92281064        0.00000000       -0.00000001
H          -1.51443867        0.86053242       -0.36754436
H          -1.51443867       -0.86053242        0.36754440
H           1.51443867        0.86053240        0.36754440
H           1.51443867       -0.86053239       -0.36754443
6
MD Time 2590.00
C          -0.91956129       -0.00000000        0.00000001
C           0.91956129        0.00000000       -0.00000001
H          -1.50656266        0.87218874       -0.36845551
H          -1.50656265       -0.87218874        0.36845554
H           1.50656266        0.87218871        0.36845554
H           1.50656266       -0.87218870       -0.36845557
6
MD Time 2600.00
C          -0.91604336       -0.00000000        0.00000001
C           0.91604336        0.00000000       -0.00000001
H          -1.49825974        0.88375280       -0.36892804
H          -1.49825973       -0.88375280        0.36892808
H           1.49825974        0.88375278        0.36892808
H           1.49825974       -0.88375277       -0.36892811
6
MD Time 2610.00
C          -0.91226089       -0.00000000        0.00000001
C           0.91226089        0.00000000       -0.00000001
H          -1.48950584        0.89509686       -0.36891302
H          -1.48950584       -0.89509686        0.36891306
H           1.48950585        0.89509684        0.36891305
H           1.48950585       -0.89509683       -0.36891308
6
MD Time 2620.00
C          -0.90821687       -0.00000000        0.00000001
C           0.90821687        0.00000000       -0.00000001
H          -1.48028293        0.90610192       -0.36836614
H          -1.48028292       -0.90610192        0.36836618
H           1.48028293        0.90610189        0.36836617
H           1.48028293       -0.90610188       -0.36836620
6
MD Time 2630.00
C          -0.90391323       -0.00000000        0.00000001
C           0.90391323        0.00000000       -0.00000001
H          -1.47057923        0.91665883       -0.36724813
H          -1.47057922       -0.91665882        0.36724816
H           1.47057924        0.91665880        0.36724816
H           1.47057924       -0.91665879       -0.36724819
6
MD Time 2640.00
C          -0.89935089       -0.00000000        0.00000001
C           0.89935089        0.00000000       -0.00000001
H          -1.46038929        0.92666904       -0.36552497
H          -1.46038929       -0.92666903        0.36552500
H           1.46038930        0.92666901        0.36552499
H           1.46038930       -0.92666900       -0.36552502
6
MD Time 2650.00
C          -0.89452974       -0.00000000        0.00000001
C           0.89452974        0.00000000       -0.00000001
H          -1.44971394        0.93604518       -0.36316799
H          -1.44971393       -0.93604518        0.36316803
H           1.44971395        0.93604515        0.36316802
H           1.44971395       -0.93604514       -0.36316805
6
MD Time 2660.00
C          -0.88944875       -0.00000000        0.00000001
C           0.88944875        0.00000000       -0.00000001
H          -1.43856007        0.94471137       -0.36015389
H          -1.43856007       -0.94471137        0.36015393
H           1.43856008        0.94471134        0.36015392
H           1.43856008       -0.94471133       -0.36015395
6
MD Time 2670.00
C          -0.88410601       -0.00000000        0.00000001
C           0.88410600        0.00000000       -0.00000001
H          -1.42694051        0.95260343       -0.35646466
H          -1.42694050       -0.95260343        0.35646469
H           1.42694052        0.95260341        0.35646468
H           1.42694052       -0.95260340       -0.35646470
6
MD Time 2680.00
C          -0.87849880       -0.00000000        0.00000001
C           0.87849879        0.00000000       -0.00000001
H          -1.41487374        0.95966901       -0.35208743
H          -1.41487373       -0.95966901        0.35208746
H           1.41487375        0.95966898        0.35208745
H           1.41487375       -0.95966897       -0.35208748
6
MD Time 2690.00
C          -0.87262370       -0.00000000        0.00000001
C           0.87262370        0.00000000       -0.00000001
H          -1.40238370        0.96586763       -0.34701440
H          -1.40238369       -0.96586763        0.34701443
H           1.40238372        0.96586761        0.34701442
H           1.40238372       -0.96586760       -0.34701444
6
MD Time 2700.00
C          -0.86647668       -0.00000000        0.00000001
C           0.86647668        0.00000000       -0.00000001
H          -1.38949958        0.97117080       -0.34124261
H          -1.38949957       -0.97117079        0.34124264
H           1.38949960        0.97117077        0.34124262
H           1.38949960       -0.97117076       -0.34124265
6
MD Time 2710.00
C          -0.86005317       -0.00000000        0.00000001
C           0.86005317        0.00000000       -0.00000001
H          -1.37625561        0.97556198       -0.33477378
H          -1.37625561       -0.97556198        0.33477381
H           1.37625564        0.97556195        0.33477379
H           1.37625564       -0.97556195       -0.33477381
6
MD Time 2720.00
C          -0.85334816       -0.00000000        0.00000001
C           0.85334816        0.00000000       -0.00000001
H          -1.36269095        0.97903674       -0.32761414
H          -1.36269095       -0.97903674        0.32761417
H           1.36269098        0.97903672        0.32761415
H           1.36269098       -0.97903671       -0.32761417
6
MD Time 2730.00
C          -0.84635632       -0.00000000        0.00000001
C           0.84635632        0.00000000       -0.00000001
H          -1.34884948        0.98160278       -0.31977424
H          -1.34884948       -0.98160278        0.31977427
H           1.34884951        0.98160276        0.31977424
H           1.34884951       -0.98160275       -0.31977427
6
MD Time 2740.00
C          -0.83907211       -0.00000000        0.00000001
C           0.83907211        0.00000000       -0.00000001
H          -1.33477974        0.98328000       -0.31126871
H          -1.33477974       -0.98328000        0.31126874
H           1.33477977        0.98327999        0.31126871
H           1.33477977       -0.98327998       -0.31126873
6
MD Time 2750.00
C          -0.83148991       -0.00000000        0.00000001
C           0.83148991        0.00000000       -0.00000001
H          -1.32053475        0.98410060       -0.30211607
H          -1.32053475       -0.98410060        0.30211610
H           1.32053478        0.98410058        0.30211607
H           1.32053478       -0.98410058       -0.30211610
6
MD Time 2760.00
C          -0.82360416       -0.00000000        0.00000001
C           0.82360416        0.00000000       -0.00000001
H          -1.30617192        0.98410900       -0.29233847
H          -1.30617192       -0.98410900        0.29233849
H           1.30617195        0.98410898        0.29233846
H           1.30617196       -0.98410898       -0.29233849
6
MD Time 2770.00
C          -0.81540955       -0.00000000        0.00000001
C           0.81540954        0.00000000       -0.00000001
H          -1.29175287        0.98336176       -0.28196135
H          -1.29175288       -0.98336176        0.28196137
H           1.29175291        0.98336175        0.28196134
H           1.29175291       -0.98336175       -0.28196136
6
MD Time 2780.00
C          -0.80690122       -0.00000000        0.00000001
C           0.80690121        0.00000000       -0.00000001
H          -1.27734321        0.98192734       -0.27101312
H          -1.27734321       -0.98192734        0.27101315
H           1.27734325        0.98192733        0.27101312
H           1.27734325       -0.98192732       -0.27101314
6
MD Time 2790.00
C          -0.79807502       -0.00000000        0.00000001
C           0.79807501        0.00000000       -0.00000001
H          -1.26301220        0.97988549       -0.25952475
H          -1.26301221       -0.97988549        0.25952477
H           1.26301224        0.97988548        0.25952474
H           1.26301225       -0.97988548       -0.25952476
6
MD Time 2800.00
C          -0.78892781       -0.00000000        0.00000001
C           0.78892780        0.00000000       -0.00000001
H          -1.24883239        0.97732655       -0.24752922
H          -1.24883239       -0.97732655        0.24752924
H           1.24883242        0.97732654        0.24752921
H           1.24883243       -0.97732654       -0.24752923
6
MD Time 2810.00
C          -0.77945784       -0.00000000        0.00000001
C           0.77945784        0.00000000       -0.00000001
H          -1.23487899        0.97435017       -0.23506101
H          -1.23487899       -0.97435017        0.23506103
H           1.23487903        0.97435016        0.23506099
H           1.23487903       -0.97435016       -0.23506101
6
MD Time 2820.00
C          -0.76966521       -0.00000000        0.00000001
C           0.76966521        0.00000000       -0.00000001
H          -1.22122919        0.97106369       -0.22215541
H          -1.22122919       -0.97106369        0.22215544
H           1.22122923        0.97106369        0.22215540
H           1.22122923       -0.97106369       -0.22215542
6
MD Time 2830.00
C          -0.75955237       -0.00000000        0.00000001
C           0.75955237        0.00000000       -0.00000001
H          -1.20796120        0.96758002       -0.20884790
H          -1.20796120       -0.96758002        0.20884792
H           1.20796124        0.96758002        0.20884788
H           1.20796124       -0.96758002       -0.20884790
6
MD Time 2840.00
C          -0.74912478       -0.00000000        0.00000001
C           0.74912478        0.00000000       -0.00000001
H          -1.19515309        0.96401488       -0.19517337
H          -1.19515309       -0.96401488        0.19517339
H           1.19515313        0.96401488        0.19517334
H           1.19515313       -0.96401488       -0.19517336
6
MD Time 2850.00
C          -0.73839165       -0.00000000        0.00000001
C           0.73839164        0.00000000       -0.00000001
H          -1.18288145        0.96048367       -0.18116549
H          -1.18288145       -0.96048367        0.18116551
H           1.18288149        0.96048368        0.18116546
H           1.18288149       -0.96048368       -0.18116548
6
MD Time 2860.00
C          -0.72736678       -0.00000000        0.00000001
C           0.72736678        0.00000000       -0.00000001
H          -1.17121979        0.95709782       -0.16685611
H          -1.17121979       -0.95709782        0.16685613
H           1.17121983        0.95709782        0.16685609
H           1.17121983       -0.95709782       -0.16685610
6
MD Time 2870.00
C          -0.71606955       -0.00000000        0.00000001
C           0.71606954        0.00000000       -0.00000001
H          -1.16023684        0.95396081       -0.15227484
H          -1.16023685       -0.95396082        0.15227486
H           1.16023688        0.95396082        0.15227481
H           1.16023688       -0.95396082       -0.15227483
6
MD Time 2880.00
C          -0.70452593       -0.00000000        0.00000001
C           0.70452592        0.00000000       -0.00000001
H          -1.14999473        0.95116425       -0.13744877
H          -1.14999474       -0.95116426        0.13744879
H           1.14999476        0.95116426        0.13744874
H           1.14999477       -0.95116426       -0.13744876
6
MD Time 2890.00
C          -0.69276967       -0.00000000        0.00000001
C           0.69276967        0.00000000       -0.00000001
H          -1.14054716        0.94878397       -0.12240256
H          -1.14054716       -0.94878397        0.12240258
H           1.14054719        0.94878398        0.12240253
H           1.14054720       -0.94878398       -0.12240254
6
MD Time 2900.00
C          -0.68084348       -0.00000000        0.00000001
C           0.68084348        0.00000000       -0.00000001
H          -1.13193773        0.94687669       -0.10715877
H          -1.13193773       -0.94687669        0.10715878
H           1.13193776        0.94687670        0.10715873
H           1.13193776       -0.94687670       -0.10715874
6
MD Time 2910.00
C          -0.66880020       -0.00000000        0.00000001
C           0.66880020        0.00000000       -0.00000001
H          -1.12419849        0.94547747       -0.09173846
H          -1.12419849       -0.94547748        0.09173848
H           1.12419851        0.94547748        0.09173842
H           1.12419852       -0.94547748       -0.09173843
6
MD Time 2920.00
C          -0.65670395       -0.00000000        0.00000001
C           0.65670395        0.00000000       -0.00000001
H          -1.11734890        0.94459819       -0.07616216
H          -1.11734890       -0.94459819        0.07616217
H           1.11734892        0.94459820        0.07616212
H           1.11734892       -0.94459819       -0.07616213
6
MD Time 2930.00
C          -0.64463111       -0.00000000        0.00000001
C           0.64463110        0.00000000       -0.00000001
H          -1.11139524        0.94422720       -0.06045087
H          -1.11139524       -0.94422720        0.06045088
H           1.11139526        0.94422721        0.06045082
H           1.11139526       -0.94422720       -0.06045083
6
MD Time 2940.00
C          -0.63267103       -0.00000000        0.00000001
C           0.63267103        0.00000000       -0.00000001
H          -1.10633065        0.94433036       -0.04462723
H          -1.10633066       -0.94433036        0.04462724
H           1.10633067        0.94433037        0.04462718
H           1.10633068       -0.94433036       -0.04462719
6
MD Time 2950.00
C          -0.62092646       -0.00000000        0.00000001
C           0.62092646        0.00000000       -0.00000001
H          -1.10213574        0.94485322       -0.02871661
H          -1.10213574       -0.94485322        0.02871663
H           1.10213575        0.94485322        0.02871656
H           1.10213576       -0.94485322       -0.02871658
6
MD Time 2960.00
C          -0.60951335       -0.00000000        0.00000001
C           0.60951335        0.00000000       -0.00000001
H          -1.09877973        0.94572423       -0.01274803
H          -1.09877973       -0.94572423        0.01274804
H           1.09877974        0.94572424        0.01274798
H           1.09877974       -0.94572423       -0.01274799
6
MD Time 2970.00
C          -0.59856002       -0.00000000        0.00000001
C           0.59856002        0.00000000       -0.00000001
H          -1.09622218        0.94685878        0.00324527
H          -1.09622218       -0.94685878       -0.00324525
H           1.09622219        0.94685878       -0.00324532
H           1.09622219       -0.94685877        0.00324531
6
MD Time 2980.00
C          -0.58820552       -0.00000000        0.00000001
C           0.58820552        0.00000000       -0.00000001
H          -1.09441505        0.94816355        0.01922547
H          -1.09441505       -0.94816355       -0.01922545
H           1.09441505        0.94816355       -0.01922552
H           1.09441505       -0.94816354        0.01922551
6
MD Time 2990.00
C          -0.57859691       -0.00000000        0.00000001
C           0.57859691        0.00000000       -0.00000001
H          -1.09330496        0.94954106        0.03515029
H          -1.09330496       -0.94954106       -0.03515028
H           1.09330496        0.94954106       -0.03515035
H           1.09330496       -0.94954106        0.03515034
