6
MD Time 0.00
C          -1.00424993        0.00000000        0.00000000
C           1.00424993        0.00000000        0.00000000
H          -1.57974221        0.85087473        0.35244385
H          -1.57974221       -0.85087473       -0.35244385
H           1.57974221        0.85087473       -0.35244385
H           1.57974221       -0.85087473        0.35244385
6
MD Time 10.00
C          -1.00413164       -0.00000000       -0.00000000
C           1.00413164       -0.00000000        0.00000000
H          -1.57961127        0.85104924        0.35240150
H          -1.57961127       -0.85104924       -0.35240150
H           1.57961127        0.85104924       -0.35240150
H           1.57961127       -0.85104924        0.35240150
6
MD Time 20.00
C          -1.00377692       -0.00000000       -0.00000000
C           1.00377692       -0.00000000        0.00000000
H          -1.57921757        0.85157026        0.35227363
H          -1.57921757       -0.85157026       -0.35227363
H           1.57921757        0.85157026       -0.35227363
H           1.57921757       -0.85157026        0.35227363
6
MD Time 30.00
C          -1.00318625       -0.00000000       -0.00000000
C           1.00318625       -0.00000000        0.00000000
H          -1.57855848        0.85243034        0.35205776
H          -1.57855848       -0.85243034       -0.35205776
H           1.57855848        0.85243034       -0.35205776
H           1.57855848       -0.85243034        0.35205776
6
MD Time 40.00
C          -1.00236039       -0.00000000       -0.00000000
C           1.00236039       -0.00000000        0.00000000
H          -1.57762973        0.85361722        0.35174990
H          -1.57762973       -0.85361722       -0.35174990
H           1.57762973        0.85361722       -0.35174990
H           1.57762973       -0.85361722        0.35174990
6
MD Time 50.00
C          -1.00130035       -0.00000000       -0.00000000
C           1.00130034       -0.00000000        0.00000000
H          -1.57642558        0.85511416        0.35134458
H          -1.57642558       -0.85511416       -0.35134458
H           1.57642559        0.85511416       -0.35134458
H           1.57642559       -0.85511416        0.35134458
6
MD Time 60.00
C          -1.00000739       -0.00000000       -0.00000000
C           1.00000739       -0.00000000        0.00000000
H          -1.57493903        0.85690025        0.35083509
H          -1.57493903       -0.85690025       -0.35083509
H           1.57493903        0.85690025       -0.35083509
H           1.57493903       -0.85690025        0.35083509
6
MD Time 70.00
C          -0.99848297       -0.00000000       -0.00000000
C           0.99848297       -0.00000000        0.00000000
H          -1.57316204        0.85895094        0.35021364
H          -1.57316204       -0.85895094       -0.35021364
H           1.57316205        0.85895094       -0.35021364
H           1.57316205       -0.85895094        0.35021364
6
MD Time 80.00
C          -0.99672867       -0.00000000       -0.00000000
C           0.99672867       -0.00000000        0.00000000
H          -1.57108591        0.86123850        0.34947163
H          -1.57108591       -0.86123850       -0.34947163
H           1.57108591        0.86123850       -0.34947162
H           1.57108591       -0.86123850        0.34947162
6
MD Time 90.00
C          -0.99474619       -0.00000000       -0.00000000
C           0.99474619       -0.00000000        0.00000000
H          -1.56870152        0.86373262        0.34859982
H          -1.56870152       -0.86373262       -0.34859982
H           1.56870153        0.86373261       -0.34859982
H           1.56870153       -0.86373261        0.34859982
6
MD Time 100.00
C          -0.99253724       -0.00000000       -0.00000000
C           0.99253724       -0.00000000        0.00000000
H          -1.56599972        0.86640102        0.34758868
H          -1.56599972       -0.86640102       -0.34758868
H           1.56599973        0.86640102       -0.34758868
H           1.56599973       -0.86640102        0.34758868
6
MD Time 110.00
C          -0.99010355       -0.00000000       -0.00000000
C           0.99010355       -0.00000000        0.00000000
H          -1.56297163        0.86921009        0.34642859
H          -1.56297163       -0.86921009       -0.34642859
H           1.56297164        0.86921009       -0.34642858
H           1.56297164       -0.86921009        0.34642858
6
MD Time 120.00
C          -0.98744676       -0.00000000       -0.00000000
C           0.98744676       -0.00000000        0.00000000
H          -1.55960900        0.87212548        0.34511012
H          -1.55960900       -0.87212548       -0.34511012
H           1.55960901        0.87212547       -0.34511012
H           1.55960901       -0.87212547        0.34511012
6
MD Time 130.00
C          -0.98456843       -0.00000000       -0.00000000
C           0.98456843       -0.00000000        0.00000000
H          -1.55590450        0.87511274        0.34362429
H          -1.55590450       -0.87511274       -0.34362429
H           1.55590452        0.87511273       -0.34362428
H           1.55590452       -0.87511273        0.34362428
6
MD Time 140.00
C          -0.98146994       -0.00000000       -0.00000000
C           0.98146994       -0.00000000        0.00000000
H          -1.55185206        0.87813791        0.34196275
H          -1.55185206       -0.87813791       -0.34196275
H           1.55185207        0.87813790       -0.34196275
H           1.55185207       -0.87813790        0.34196275
6
MD Time 150.00
C          -0.97815250       -0.00000000       -0.00000000
C           0.97815250       -0.00000000        0.00000000
H          -1.54744706        0.88116806        0.34011807
H          -1.54744706       -0.88116806       -0.34011807
H           1.54744707        0.88116805       -0.34011807
H           1.54744707       -0.88116805        0.34011807
6
MD Time 160.00
C          -0.97461710       -0.00000000       -0.00000000
C           0.97461710       -0.00000000        0.00000000
H          -1.54268664        0.88417181        0.33808385
H          -1.54268664       -0.88417181       -0.33808385
H           1.54268665        0.88417180       -0.33808385
H           1.54268665       -0.88417180        0.33808385
6
MD Time 170.00
C          -0.97086449       -0.00000000       -0.00000000
C           0.97086449       -0.00000000        0.00000000
H          -1.53756985        0.88711981        0.33585492
H          -1.53756985       -0.88711981       -0.33585492
H           1.53756987        0.88711980       -0.33585491
H           1.53756987       -0.88711980        0.33585491
6
MD Time 180.00
C          -0.96689517       -0.00000000       -0.00000000
C           0.96689516       -0.00000000        0.00000000
H          -1.53209786        0.88998511        0.33342745
H          -1.53209786       -0.88998511       -0.33342745
H           1.53209788        0.88998510       -0.33342744
H           1.53209788       -0.88998510        0.33342744
6
MD Time 190.00
C          -0.96270935       -0.00000000       -0.00000000
C           0.96270935       -0.00000000        0.00000000
H          -1.52627405        0.89274354        0.33079909
H          -1.52627405       -0.89274354       -0.33079909
H           1.52627407        0.89274354       -0.33079908
H           1.52627407       -0.89274354        0.33079908
6
MD Time 200.00
C          -0.95830701       -0.00000000       -0.00000000
C           0.95830701       -0.00000000        0.00000000
H          -1.52010409        0.89537403        0.32796900
H          -1.52010409       -0.89537403       -0.32796900
H           1.52010411        0.89537402       -0.32796899
H           1.52010411       -0.89537402        0.32796899
6
MD Time 210.00
C          -0.95368786       -0.00000000       -0.00000000
C           0.95368786       -0.00000000        0.00000000
H          -1.51359607        0.89785879        0.32493794
H          -1.51359607       -0.89785879       -0.32493794
H           1.51359609        0.89785879       -0.32493793
H           1.51359609       -0.89785879        0.32493793
6
MD Time 220.00
C          -0.94885136       -0.00000000       -0.00000000
C           0.94885136       -0.00000000        0.00000000
H          -1.50676043        0.90018355        0.32170826
H          -1.50676044       -0.90018355       -0.32170826
H           1.50676046        0.90018354       -0.32170825
H           1.50676046       -0.90018354        0.32170825
6
MD Time 230.00
C          -0.94379677       -0.00000000       -0.00000000
C           0.94379677       -0.00000000        0.00000000
H          -1.49961002        0.90233761        0.31828393
H          -1.49961002       -0.90233761       -0.31828393
H           1.49961004        0.90233760       -0.31828391
H           1.49961004       -0.90233760        0.31828391
6
MD Time 240.00
C          -0.93852316       -0.00000000       -0.00000000
C           0.93852316       -0.00000000        0.00000000
H          -1.49215998        0.90431397        0.31467045
H          -1.49215998       -0.90431397       -0.31467045
H           1.49216000        0.90431396       -0.31467044
H           1.49216000       -0.90431396        0.31467044
6
MD Time 250.00
C          -0.93302946       -0.00000000       -0.00000000
C           0.93302946       -0.00000000        0.00000000
H          -1.48442772        0.90610929        0.31087488
H          -1.48442772       -0.90610929       -0.31087488
H           1.48442774        0.90610928       -0.31087486
H           1.48442774       -0.90610928        0.31087486
6
MD Time 260.00
C          -0.92731452       -0.00000000       -0.00000000
C           0.92731451       -0.00000000        0.00000000
H          -1.47643278        0.90772379        0.30690568
H          -1.47643278       -0.90772379       -0.30690568
H           1.47643280        0.90772378       -0.30690566
H           1.47643280       -0.90772378        0.30690566
6
MD Time 270.00
C          -0.92137714       -0.00000000       -0.00000000
C           0.92137713       -0.00000000        0.00000000
H          -1.46819666        0.90916119        0.30277267
H          -1.46819666       -0.90916119       -0.30277267
H           1.46819668        0.90916118       -0.30277266
H           1.46819668       -0.90916118        0.30277266
6
MD Time 280.00
C          -0.91521618       -0.00000000       -0.00000000
C           0.91521618       -0.00000000        0.00000000
H          -1.45974268        0.91042846        0.29848688
H          -1.45974268       -0.91042846       -0.29848688
H           1.45974271        0.91042845       -0.29848687
H           1.45974271       -0.91042845        0.29848687
6
MD Time 290.00
C          -0.90883063       -0.00000000       -0.00000000
C           0.90883062       -0.00000000        0.00000000
H          -1.45109574        0.91153559        0.29406043
H          -1.45109574       -0.91153559       -0.29406043
H           1.45109576        0.91153558       -0.29406041
H           1.45109576       -0.91153558        0.29406041
6
MD Time 300.00
C          -0.90221966       -0.00000000       -0.00000000
C           0.90221966       -0.00000000        0.00000000
H          -1.44228206        0.91249526        0.28950634
H          -1.44228206       -0.91249526       -0.28950634
H           1.44228208        0.91249525       -0.28950632
H           1.44228208       -0.91249525        0.28950632
6
MD Time 310.00
C          -0.89538280       -0.00000000       -0.00000000
C           0.89538280       -0.00000000        0.00000000
H          -1.43332894        0.91332246        0.28483839
H          -1.43332894       -0.91332246       -0.28483839
H           1.43332896        0.91332245       -0.28483838
H           1.43332896       -0.91332245        0.28483838
6
MD Time 320.00
C          -0.88831998       -0.00000000       -0.00000000
C           0.88831998       -0.00000000        0.00000000
H          -1.42426446        0.91403407        0.28007094
H          -1.42426446       -0.91403407       -0.28007094
H           1.42426448        0.91403406       -0.28007093
H           1.42426448       -0.91403406        0.28007093
6
MD Time 330.00
C          -0.88103170       -0.00000000       -0.00000000
C           0.88103170       -0.00000000        0.00000000
H          -1.41511711        0.91464832        0.27521872
H          -1.41511711       -0.91464832       -0.27521872
H           1.41511713        0.91464831       -0.27521871
H           1.41511713       -0.91464831        0.27521871
6
MD Time 340.00
C          -0.87351916       -0.00000000       -0.00000000
C           0.87351915       -0.00000000        0.00000000
H          -1.40591550        0.91518434        0.27029664
H          -1.40591550       -0.91518434       -0.27029664
H           1.40591552        0.91518433       -0.27029662
H           1.40591552       -0.91518433        0.27029662
6
MD Time 350.00
C          -0.86578438       -0.00000000       -0.00000000
C           0.86578438       -0.00000000        0.00000000
H          -1.39668800        0.91566152        0.26531959
H          -1.39668800       -0.91566152       -0.26531958
H           1.39668801        0.91566151       -0.26531957
H           1.39668801       -0.91566151        0.26531957
6
MD Time 360.00
C          -0.85783043       -0.00000000       -0.00000000
C           0.85783043       -0.00000000        0.00000000
H          -1.38746232        0.91609897        0.26030226
H          -1.38746232       -0.91609897       -0.26030226
H           1.38746234        0.91609896       -0.26030224
H           1.38746234       -0.91609896        0.26030224
6
MD Time 370.00
C          -0.84966153       -0.00000000       -0.00000000
C           0.84966153       -0.00000000        0.00000000
H          -1.37826524        0.91651491        0.25525896
H          -1.37826524       -0.91651491       -0.25525896
H           1.37826525        0.91651490       -0.25525894
H           1.37826525       -0.91651490        0.25525894
6
MD Time 380.00
C          -0.84128327        0.00000000       -0.00000000
C           0.84128327        0.00000000        0.00000000
H          -1.36912217        0.91692610        0.25020347
H          -1.36912217       -0.91692610       -0.25020347
H           1.36912219        0.91692609       -0.25020345
H           1.36912219       -0.91692609        0.25020345
6
MD Time 390.00
C          -0.83270281        0.00000000       -0.00000000
C           0.83270281        0.00000000        0.00000000
H          -1.36005691        0.91734731        0.24514886
H          -1.36005691       -0.91734731       -0.24514886
H           1.36005693        0.91734731       -0.24514884
H           1.36005693       -0.91734731        0.24514884
6
MD Time 400.00
C          -0.82392907        0.00000000       -0.00000000
C           0.82392907        0.00000000        0.00000000
H          -1.35109128        0.91779082        0.24010740
H          -1.35109128       -0.91779082       -0.24010740
H           1.35109129        0.91779082       -0.24010738
H           1.35109129       -0.91779082        0.24010738
6
MD Time 410.00
C          -0.81497293        0.00000000       -0.00000000
C           0.81497293        0.00000000        0.00000000
H          -1.34224490        0.91826600        0.23509049
H          -1.34224490       -0.91826600       -0.23509049
H           1.34224491        0.91826600       -0.23509047
H           1.34224491       -0.91826600        0.23509047
6
MD Time 420.00
C          -0.80584749        0.00000000       -0.00000000
C           0.80584749        0.00000000        0.00000000
H          -1.33353498        0.91877897        0.23010857
H          -1.33353498       -0.91877897       -0.23010857
H           1.33353499        0.91877897       -0.23010855
H           1.33353499       -0.91877897        0.23010855
6
MD Time 430.00
C          -0.79656824        0.00000000       -0.00000000
C           0.79656823        0.00000000        0.00000000
H          -1.32497617        0.91933238        0.22517114
H          -1.32497617       -0.91933238       -0.22517114
H           1.32497618        0.91933238       -0.22517112
H           1.32497618       -0.91933238        0.22517111
6
MD Time 440.00
C          -0.78715331        0.00000000       -0.00000000
C           0.78715331        0.00000000        0.00000000
H          -1.31658048        0.91992532        0.22028673
H          -1.31658048       -0.91992532       -0.22028673
H           1.31658049        0.91992532       -0.22028671
H           1.31658049       -0.91992532        0.22028671
6
MD Time 450.00
C          -0.77762371        0.00000000       -0.00000000
C           0.77762371        0.00000000        0.00000000
H          -1.30835729        0.92055329        0.21546300
H          -1.30835729       -0.92055329       -0.21546300
H           1.30835730        0.92055329       -0.21546297
H           1.30835730       -0.92055330        0.21546297
6
MD Time 460.00
C          -0.76800350        0.00000000       -0.00000000
C           0.76800350        0.00000000        0.00000000
H          -1.30031339        0.92120835        0.21070677
H          -1.30031339       -0.92120836       -0.21070677
H           1.30031339        0.92120836       -0.21070675
H           1.30031339       -0.92120836        0.21070674
6
MD Time 470.00
C          -0.75832006        0.00000000       -0.00000000
C           0.75832006        0.00000000        0.00000000
H          -1.29245313        0.92187939        0.20602418
H          -1.29245313       -0.92187940       -0.20602417
H           1.29245313        0.92187940       -0.20602415
H           1.29245313       -0.92187940        0.20602415
6
MD Time 480.00
C          -0.74860423        0.00000000       -0.00000000
C           0.74860423        0.00000000        0.00000000
H          -1.28477866        0.92255248        0.20142075
H          -1.28477866       -0.92255248       -0.20142075
H           1.28477866        0.92255249       -0.20142072
H           1.28477866       -0.92255249        0.20142072
6
MD Time 490.00
C          -0.73889047        0.00000000       -0.00000000
C           0.73889047        0.00000000        0.00000000
H          -1.27729018        0.92321133        0.19690158
H          -1.27729018       -0.92321133       -0.19690158
H           1.27729018        0.92321134       -0.19690155
H           1.27729018       -0.92321134        0.19690155
6
MD Time 500.00
C          -0.72921705        0.00000000       -0.00000000
C           0.72921705        0.00000000        0.00000000
H          -1.26998635        0.92383788        0.19247149
H          -1.26998635       -0.92383788       -0.19247149
H           1.26998634        0.92383789       -0.19247146
H           1.26998634       -0.92383789        0.19247146
6
MD Time 510.00
C          -0.71962606        0.00000000       -0.00000000
C           0.71962606        0.00000000        0.00000000
H          -1.26286461        0.92441292        0.18813517
H          -1.26286461       -0.92441292       -0.18813516
H           1.26286460        0.92441293       -0.18813513
H           1.26286460       -0.92441293        0.18813513
6
MD Time 520.00
C          -0.71016348        0.00000000       -0.00000000
C           0.71016348        0.00000000        0.00000000
H          -1.25592174        0.92491673        0.18389731
H          -1.25592173       -0.92491673       -0.18389731
H           1.25592173        0.92491675       -0.18389728
H           1.25592173       -0.92491675        0.18389727
6
MD Time 530.00
C          -0.70087905        0.00000000       -0.00000000
C           0.70087905        0.00000000        0.00000000
H          -1.24915427        0.92532986        0.17976283
H          -1.24915427       -0.92532986       -0.17976283
H           1.24915427        0.92532988       -0.17976280
H           1.24915427       -0.92532988        0.17976279
6
MD Time 540.00
C          -0.69182614        0.00000000       -0.00000000
C           0.69182615        0.00000000        0.00000000
H          -1.24255909        0.92563379        0.17573695
H          -1.24255908       -0.92563379       -0.17573694
H           1.24255908        0.92563381       -0.17573691
H           1.24255908       -0.92563381        0.17573691
6
MD Time 550.00
C          -0.68306143        0.00000000       -0.00000000
C           0.68306143        0.00000000        0.00000000
H          -1.23613389        0.92581169        0.17182534
H          -1.23613389       -0.92581169       -0.17182533
H           1.23613388        0.92581171       -0.17182531
H           1.23613388       -0.92581171        0.17182530
6
MD Time 560.00
C          -0.67464440        0.00000000       -0.00000000
C           0.67464441        0.00000000        0.00000000
H          -1.22987780        0.92584910        0.16803426
H          -1.22987779       -0.92584910       -0.16803425
H           1.22987778        0.92584912       -0.16803422
H           1.22987778       -0.92584912        0.16803421
6
MD Time 570.00
C          -0.66663679        0.00000000       -0.00000000
C           0.66663679        0.00000000       -0.00000000
H          -1.22379186        0.92573462        0.16437061
H          -1.22379186       -0.92573462       -0.16437060
H           1.22379185        0.92573464       -0.16437057
H           1.22379184       -0.92573464        0.16437056
6
MD Time 580.00
C          -0.65910167        0.00000000        0.00000000
C           0.65910168        0.00000000       -0.00000000
H          -1.21787959        0.92546052        0.16084204
H          -1.21787959       -0.92546053       -0.16084203
H           1.21787957        0.92546055       -0.16084200
H           1.21787957       -0.92546055        0.16084199
6
MD Time 590.00
C          -0.65210251        0.00000000        0.00000000
C           0.65210251        0.00000000       -0.00000000
H          -1.21214742        0.92502335        0.15745699
H          -1.21214742       -0.92502336       -0.15745697
H           1.21214741        0.92502338       -0.15745694
H           1.21214740       -0.92502338        0.15745693
6
MD Time 600.00
C          -0.64570190        0.00000000        0.00000000
C           0.64570190        0.00000000       -0.00000000
H          -1.20660517        0.92442440        0.15422471
H          -1.20660517       -0.92442440       -0.15422470
H           1.20660516        0.92442443       -0.15422466
H           1.20660515       -0.92442443        0.15422465
6
MD Time 610.00
C          -0.63996020        0.00000000        0.00000000
C           0.63996020        0.00000000       -0.00000000
H          -1.20126639        0.92367013        0.15115530
H          -1.20126639       -0.92367014       -0.15115529
H           1.20126637        0.92367016       -0.15115526
H           1.20126637       -0.92367016        0.15115524
6
MD Time 620.00
C          -0.63493403        0.00000000        0.00000000
C           0.63493404        0.00000000       -0.00000000
H          -1.19614865        0.92277258        0.14825968
H          -1.19614865       -0.92277258       -0.14825967
H           1.19614863        0.92277261       -0.14825964
H           1.19614863       -0.92277261        0.14825962
6
MD Time 630.00
C          -0.63067469        0.00000000        0.00000000
C           0.63067469        0.00000000       -0.00000000
H          -1.19127377        0.92174952        0.14554955
H          -1.19127377       -0.92174953       -0.14554954
H           1.19127375        0.92174955       -0.14554951
H           1.19127375       -0.92174955        0.14554949
6
MD Time 640.00
C          -0.62722656        0.00000000        0.00000000
C           0.62722656        0.00000000       -0.00000000
H          -1.18666786        0.92062464        0.14303734
H          -1.18666785       -0.92062464       -0.14303732
H           1.18666783        0.92062467       -0.14303729
H           1.18666783       -0.92062467        0.14303728
6
MD Time 650.00
C          -0.62462563        0.00000000        0.00000000
C           0.62462564        0.00000000       -0.00000000
H          -1.18236128        0.91942747        0.14073611
H          -1.18236128       -0.91942747       -0.14073610
H           1.18236126        0.91942750       -0.14073607
H           1.18236126       -0.91942750        0.14073605
6
MD Time 660.00
C          -0.62289825        0.00000000        0.00000000
C           0.62289825        0.00000000       -0.00000000
H          -1.17838849        0.91819322        0.13865948
H          -1.17838848       -0.91819323       -0.13865946
H           1.17838846        0.91819326       -0.13865943
H           1.17838846       -0.91819326        0.13865941
6
MD Time 670.00
C          -0.62206007        0.00000000        0.00000000
C           0.62206008        0.00000000       -0.00000000
H          -1.17478761        0.91696240        0.13682142
H          -1.17478761       -0.91696240       -0.13682140
H           1.17478758        0.91696243       -0.13682137
H           1.17478758       -0.91696243        0.13682135
6
MD Time 680.00
C          -0.62211548        0.00000000        0.00000000
C           0.62211549        0.00000000       -0.00000000
H          -1.17159995        0.91578015        0.13523615
H          -1.17159995       -0.91578016       -0.13523613
H           1.17159993        0.91578019       -0.13523610
H           1.17159992       -0.91578019        0.13523608
6
MD Time 690.00
C          -0.62305735        0.00000000        0.00000000
C           0.62305736        0.00000000       -0.00000000
H          -1.16886927        0.91469549        0.13391792
H          -1.16886926       -0.91469550       -0.13391790
H           1.16886924        0.91469552       -0.13391787
H           1.16886924       -0.91469553        0.13391785
6
MD Time 700.00
C          -0.62486730        0.00000000        0.00000000
C           0.62486731        0.00000000       -0.00000000
H          -1.16664085        0.91376012        0.13288074
H          -1.16664084       -0.91376012       -0.13288072
H           1.16664082        0.91376015       -0.13288069
H           1.16664082       -0.91376015        0.13288067
6
MD Time 710.00
C          -0.62751637        0.00000000        0.00000000
C           0.62751638        0.00000000       -0.00000000
H          -1.16496047        0.91302710        0.13213817
H          -1.16496046       -0.91302710       -0.13213815
H           1.16496044        0.91302713       -0.13213812
H           1.16496043       -0.91302713        0.13213810
6
MD Time 720.00
C          -0.63096608        0.00000000        0.00000000
C           0.63096608        0.00000000       -0.00000000
H          -1.16387313        0.91254922        0.13170301
H          -1.16387312       -0.91254922       -0.13170299
H           1.16387310        0.91254925       -0.13170296
H           1.16387310       -0.91254925        0.13170294
6
MD Time 730.00
C          -0.63516978        0.00000000        0.00000000
C           0.63516979        0.00000000       -0.00000000
H          -1.16342177        0.91237717        0.13158697
H          -1.16342176       -0.91237718       -0.13158695
H           1.16342174        0.91237721       -0.13158692
H           1.16342174       -0.91237721        0.13158690
6
MD Time 740.00
C          -0.64007431        0.00000000        0.00000000
C           0.64007431        0.00000000       -0.00000000
H          -1.16364583        0.91255757        0.13180035
H          -1.16364582       -0.91255757       -0.13180032
H           1.16364580        0.91255760       -0.13180029
H           1.16364580       -0.91255760        0.13180027
6
MD Time 750.00
C          -0.64562161        0.00000000        0.00000000
C           0.64562161        0.00000000       -0.00000000
H          -1.16457989        0.91313086        0.13235170
H          -1.16457988       -0.91313087       -0.13235167
H           1.16457986        0.91313089       -0.13235164
H           1.16457985       -0.91313089        0.13235162
6
MD Time 760.00
C          -0.65175052        0.00000000        0.00000000
C           0.65175052        0.00000000       -0.00000000
H          -1.16625234        0.91412934        0.13324749
H          -1.16625234       -0.91412935       -0.13324747
H           1.16625232        0.91412937       -0.13324744
H           1.16625231       -0.91412938        0.13324742
6
MD Time 770.00
C          -0.65839836        0.00000000        0.00000000
C           0.65839836        0.00000000       -0.00000000
H          -1.16868425        0.91557529        0.13449182
H          -1.16868424       -0.91557529       -0.13449180
H           1.16868422        0.91557532       -0.13449177
H           1.16868421       -0.91557532        0.13449175
6
MD Time 780.00
C          -0.66550246        0.00000000        0.00000000
C           0.66550247        0.00000000       -0.00000000
H          -1.17188836        0.91747933        0.13608609
H          -1.17188835       -0.91747934       -0.13608607
H           1.17188833        0.91747936       -0.13608604
H           1.17188833       -0.91747936        0.13608602
6
MD Time 790.00
C          -0.67300142        0.00000000        0.00000000
C           0.67300143        0.00000000       -0.00000000
H          -1.17586850        0.91983929        0.13802882
H          -1.17586849       -0.91983930       -0.13802880
H           1.17586847        0.91983932       -0.13802877
H           1.17586847       -0.91983932        0.13802875
6
MD Time 800.00
C          -0.68083618        0.00000000        0.00000000
C           0.68083618        0.00000000       -0.00000000
H          -1.18061916        0.92263947        0.14031550
H          -1.18061915       -0.92263948       -0.14031548
H           1.18061914        0.92263950       -0.14031545
H           1.18061913       -0.92263950        0.14031543
6
MD Time 810.00
C          -0.68895078       -0.00000000        0.00000000
C           0.68895078        0.00000000       -0.00000000
H          -1.18612555        0.92585046        0.14293849
H          -1.18612554       -0.92585047       -0.14293846
H           1.18612552        0.92585048       -0.14293844
H           1.18612552       -0.92585049        0.14293842
6
MD Time 820.00
C          -0.69729300       -0.00000000        0.00000000
C           0.69729300        0.00000000       -0.00000000
H          -1.19236385        0.92942955        0.14588701
H          -1.19236384       -0.92942956       -0.14588699
H           1.19236383        0.92942958       -0.14588696
H           1.19236382       -0.92942958        0.14588694
6
MD Time 830.00
C          -0.70581466       -0.00000000        0.00000000
C           0.70581466        0.00000000       -0.00000000
H          -1.19930186        0.93332170        0.14914730
H          -1.19930185       -0.93332171       -0.14914728
H           1.19930184        0.93332172       -0.14914725
H           1.19930183       -0.93332173        0.14914723
6
MD Time 840.00
C          -0.71447181       -0.00000000        0.00000000
C           0.71447181        0.00000000       -0.00000000
H          -1.20689984        0.93746092        0.15270272
H          -1.20689984       -0.93746093       -0.15270269
H           1.20689982        0.93746094       -0.15270267
H           1.20689982       -0.93746095        0.15270265
6
MD Time 850.00
C          -0.72322471       -0.00000000        0.00000000
C           0.72322472        0.00000000       -0.00000000
H          -1.21511157        0.94177211        0.15653405
H          -1.21511156       -0.94177212       -0.15653402
H           1.21511155        0.94177213       -0.15653400
H           1.21511154       -0.94177214        0.15653398
6
MD Time 860.00
C          -0.73203775       -0.00000000        0.00000000
C           0.73203776        0.00000000       -0.00000000
H          -1.22388546        0.94617314        0.16061979
H          -1.22388545       -0.94617315       -0.16061977
H           1.22388544        0.94617316       -0.16061974
H           1.22388544       -0.94617316        0.16061973
6
MD Time 870.00
C          -0.74087921       -0.00000000        0.00000000
C           0.74087921        0.00000000       -0.00000000
H          -1.23316586        0.95057706        0.16493653
H          -1.23316585       -0.95057707       -0.16493651
H           1.23316584        0.95057708       -0.16493649
H           1.23316583       -0.95057708        0.16493647
6
MD Time 880.00
C          -0.74972100       -0.00000000        0.00000000
C           0.74972100        0.00000000       -0.00000000
H          -1.24289418        0.95489441        0.16945935
H          -1.24289418       -0.95489442       -0.16945933
H           1.24289417        0.95489443       -0.16945931
H           1.24289416       -0.95489443        0.16945929
6
MD Time 890.00
C          -0.75853838       -0.00000000        0.00000000
C           0.75853838        0.00000000       -0.00000000
H          -1.25301014        0.95903539        0.17416221
H          -1.25301013       -0.95903540       -0.17416219
H           1.25301013        0.95903541       -0.17416217
H           1.25301012       -0.95903541        0.17416215
6
MD Time 900.00
C          -0.76730962       -0.00000000        0.00000000
C           0.76730962        0.00000000       -0.00000000
H          -1.26345278        0.96291195        0.17901838
H          -1.26345277       -0.96291196       -0.17901836
H           1.26345277        0.96291197       -0.17901834
H           1.26345277       -0.96291197        0.17901832
6
MD Time 910.00
C          -0.77601569       -0.00000000        0.00000000
C           0.77601569        0.00000000       -0.00000000
H          -1.27416146        0.96643961        0.18400085
H          -1.27416145       -0.96643962       -0.18400083
H           1.27416145        0.96643963       -0.18400082
H           1.27416145       -0.96643963        0.18400080
6
MD Time 920.00
C          -0.78463993       -0.00000000        0.00000000
C           0.78463993        0.00000000       -0.00000000
H          -1.28507669        0.96953912        0.18908271
H          -1.28507668       -0.96953913       -0.18908269
H           1.28507668        0.96953914       -0.18908268
H           1.28507668       -0.96953914        0.18908266
6
MD Time 930.00
C          -0.79316780       -0.00000000        0.00000000
C           0.79316780        0.00000000       -0.00000000
H          -1.29614086        0.97213781        0.19423749
H          -1.29614085       -0.97213782       -0.19423747
H           1.29614085        0.97213783       -0.19423746
H           1.29614085       -0.97213783        0.19423744
6
MD Time 940.00
C          -0.80158654       -0.00000000        0.00000000
C           0.80158654        0.00000000       -0.00000000
H          -1.30729882        0.97417071        0.19943951
H          -1.30729882       -0.97417072       -0.19943949
H           1.30729882        0.97417072       -0.19943948
H           1.30729882       -0.97417072        0.19943946
6
MD Time 950.00
C          -0.80988498       -0.00000000        0.00000000
C           0.80988498        0.00000000       -0.00000000
H          -1.31849839        0.97558146        0.20466418
H          -1.31849838       -0.97558146       -0.20466415
H           1.31849839        0.97558147       -0.20466415
H           1.31849838       -0.97558147        0.20466413
6
MD Time 960.00
C          -0.81805326       -0.00000000        0.00000000
C           0.81805326        0.00000000       -0.00000001
H          -1.32969072        0.97632297        0.20988823
H          -1.32969071       -0.97632298       -0.20988821
H           1.32969072        0.97632299       -0.20988820
H           1.32969072       -0.97632299        0.20988818
6
MD Time 970.00
C          -0.82608267       -0.00000000        0.00000001
C           0.82608267        0.00000000       -0.00000001
H          -1.34083063        0.97635800        0.21509000
H          -1.34083062       -0.97635801       -0.21508998
H           1.34083063        0.97635801       -0.21508997
H           1.34083062       -0.97635801        0.21508995
6
MD Time 980.00
C          -0.83396540       -0.00000000        0.00000001
C           0.83396540        0.00000000       -0.00000001
H          -1.35187682        0.97565941        0.22024961
H          -1.35187681       -0.97565942       -0.22024959
H           1.35187682        0.97565942       -0.22024959
H           1.35187682       -0.97565942        0.22024957
6
MD Time 990.00
C          -0.84169441       -0.00000000        0.00000001
C           0.84169440        0.00000000       -0.00000001
H          -1.36279209        0.97421050        0.22534919
H          -1.36279209       -0.97421050       -0.22534916
H           1.36279210        0.97421051       -0.22534917
H           1.36279210       -0.97421051        0.22534914
6
MD Time 1000.00
C          -0.84926326       -0.00000000        0.00000001
C           0.84926326        0.00000000       -0.00000001
H          -1.37354348        0.97200507        0.23037299
H          -1.37354347       -0.97200508       -0.23037297
H           1.37354349        0.97200508       -0.23037297
H           1.37354348       -0.97200508        0.23037295
6
MD Time 1010.00
C          -0.85666599       -0.00000000        0.00000001
C           0.85666599        0.00000000       -0.00000001
H          -1.38410233        0.96904751        0.23530762
H          -1.38410233       -0.96904751       -0.23530760
H           1.38410234        0.96904751       -0.23530760
H           1.38410234       -0.96904751        0.23530758
6
MD Time 1020.00
C          -0.86389695       -0.00000000        0.00000001
C           0.86389695        0.00000000       -0.00000001
H          -1.39444446        0.96535273        0.24014211
H          -1.39444445       -0.96535274       -0.24014208
H           1.39444447        0.96535274       -0.24014209
H           1.39444447       -0.96535274        0.24014207
6
MD Time 1030.00
C          -0.87095075       -0.00000000        0.00000001
C           0.87095074        0.00000000       -0.00000001
H          -1.40455011        0.96094609        0.24486808
H          -1.40455011       -0.96094610       -0.24486805
H           1.40455013        0.96094610       -0.24486806
H           1.40455013       -0.96094610        0.24486804
6
MD Time 1040.00
C          -0.87782208       -0.00000000        0.00000001
C           0.87782208        0.00000000       -0.00000001
H          -1.41440409        0.95586319        0.24947983
H          -1.41440409       -0.95586320       -0.24947980
H           1.41440411        0.95586319       -0.24947982
H           1.41440411       -0.95586319        0.24947979
6
MD Time 1050.00
C          -0.88450571       -0.00000000        0.00000001
C           0.88450571        0.00000000       -0.00000001
H          -1.42399569        0.95014960        0.25397442
H          -1.42399568       -0.95014961       -0.25397440
H           1.42399570        0.95014961       -0.25397441
H           1.42399570       -0.95014961        0.25397439
6
MD Time 1060.00
C          -0.89099637       -0.00000000        0.00000001
C           0.89099637        0.00000000       -0.00000001
H          -1.43331867        0.94386053        0.25835176
H          -1.43331866       -0.94386054       -0.25835174
H           1.43331868        0.94386054       -0.25835176
H           1.43331868       -0.94386053        0.25835174
6
MD Time 1070.00
C          -0.89728868       -0.00000000        0.00000001
C           0.89728868        0.00000000       -0.00000001
H          -1.44237118        0.93706029        0.26261458
H          -1.44237118       -0.93706030       -0.26261456
H           1.44237121        0.93706029       -0.26261458
H           1.44237120       -0.93706029        0.26261456
6
MD Time 1080.00
C          -0.90337716       -0.00000000        0.00000001
C           0.90337716        0.00000000       -0.00000001
H          -1.45115563        0.92982169        0.26676846
H          -1.45115562       -0.92982169       -0.26676844
H           1.45115565        0.92982168       -0.26676846
H           1.45115565       -0.92982168        0.26676844
6
MD Time 1090.00
C          -0.90925618       -0.00000000        0.00000001
C           0.90925618        0.00000000       -0.00000001
H          -1.45967839        0.92222521        0.27082172
H          -1.45967838       -0.92222522       -0.27082170
H           1.45967841        0.92222521       -0.27082172
H           1.45967841       -0.92222521        0.27082170
6
MD Time 1100.00
C          -0.91491997       -0.00000000        0.00000001
C           0.91491997        0.00000000       -0.00000001
H          -1.46794952        0.91435808        0.27478530
H          -1.46794952       -0.91435809       -0.27478528
H           1.46794955        0.91435807       -0.27478531
H           1.46794955       -0.91435807        0.27478529
6
MD Time 1110.00
C          -0.92036265       -0.00000000        0.00000001
C           0.92036265        0.00000000       -0.00000001
H          -1.47598231        0.90631298        0.27867256
H          -1.47598230       -0.90631299       -0.27867254
H           1.47598233        0.90631298       -0.27867256
H           1.47598233       -0.90631298        0.27867254
6
MD Time 1120.00
C          -0.92557829       -0.00000000        0.00000001
C           0.92557829        0.00000000       -0.00000001
H          -1.48379270        0.89818673        0.28249890
H          -1.48379269       -0.89818673       -0.28249888
H           1.48379272        0.89818672       -0.28249891
H           1.48379272       -0.89818672        0.28249889
6
MD Time 1130.00
C          -0.93056098       -0.00000000        0.00000001
C           0.93056098        0.00000000       -0.00000001
H          -1.49139858        0.89007855        0.28628146
H          -1.49139858       -0.89007856       -0.28628144
H           1.49139861        0.89007854       -0.28628147
H           1.49139861       -0.89007854        0.28628145
6
MD Time 1140.00
C          -0.93530496       -0.00000000        0.00000001
C           0.93530496        0.00000000       -0.00000001
H          -1.49881898        0.88208832        0.29003852
H          -1.49881898       -0.88208832       -0.29003850
H           1.49881901        0.88208831       -0.29003853
H           1.49881901       -0.88208830        0.29003851
6
MD Time 1150.00
C          -0.93980474       -0.00000000        0.00000001
C           0.93980474        0.00000000       -0.00000001
H          -1.50607304        0.87431448        0.29378895
H          -1.50607303       -0.87431449       -0.29378893
H           1.50607306        0.87431447       -0.29378896
H           1.50607307       -0.87431447        0.29378894
6
MD Time 1160.00
C          -0.94405525       -0.00000000        0.00000001
C           0.94405525        0.00000000       -0.00000001
H          -1.51317898        0.86685199        0.29755149
H          -1.51317898       -0.86685199       -0.29755147
H           1.51317901        0.86685197       -0.29755150
H           1.51317901       -0.86685197        0.29755148
6
MD Time 1170.00
C          -0.94805204       -0.00000000        0.00000001
C           0.94805203        0.00000000       -0.00000001
H          -1.52015296        0.85979007        0.30134403
H          -1.52015296       -0.85979007       -0.30134401
H           1.52015299        0.85979005       -0.30134404
H           1.52015299       -0.85979005        0.30134402
6
MD Time 1180.00
C          -0.95179140       -0.00000000        0.00000001
C           0.95179139        0.00000000       -0.00000001
H          -1.52700790        0.85321015        0.30518275
H          -1.52700790       -0.85321015       -0.30518273
H           1.52700793        0.85321013       -0.30518276
H           1.52700793       -0.85321013        0.30518274
6
MD Time 1190.00
C          -0.95527059       -0.00000000        0.00000001
C           0.95527058        0.00000000       -0.00000001
H          -1.53375237        0.84718385        0.30908137
H          -1.53375237       -0.84718385       -0.30908135
H           1.53375240        0.84718383       -0.30908139
H           1.53375240       -0.84718383        0.30908137
6
MD Time 1200.00
C          -0.95848797       -0.00000000        0.00000001
C           0.95848796        0.00000000       -0.00000001
H          -1.54038958        0.84177125        0.31305037
H          -1.54038958       -0.84177126       -0.31305035
H           1.54038961        0.84177123       -0.31305039
H           1.54038961       -0.84177122        0.31305037
6
MD Time 1210.00
C          -0.96144310       -0.00000000        0.00000001
C           0.96144310        0.00000000       -0.00000001
H          -1.54691654        0.83701950        0.31709628
H          -1.54691654       -0.83701951       -0.31709626
H           1.54691657        0.83701948       -0.31709630
H           1.54691657       -0.83701948        0.31709628
6
MD Time 1220.00
C          -0.96413689       -0.00000000        0.00000001
C           0.96413688        0.00000000       -0.00000001
H          -1.55332347        0.83296186        0.32122117
H          -1.55332346       -0.83296187       -0.32122115
H           1.55332349        0.83296184       -0.32122119
H           1.55332349       -0.83296183        0.32122117
6
MD Time 1230.00
C          -0.96657155       -0.00000000        0.00000001
C           0.96657155        0.00000000       -0.00000001
H          -1.55959347        0.82961719        0.32542223
H          -1.55959346       -0.82961719       -0.32542221
H           1.55959349        0.82961716       -0.32542225
H           1.55959349       -0.82961716        0.32542223
6
MD Time 1240.00
C          -0.96875067       -0.00000000        0.00000001
C           0.96875066        0.00000000       -0.00000001
H          -1.56570255        0.82698995        0.32969158
H          -1.56570255       -0.82698996       -0.32969156
H           1.56570257        0.82698993       -0.32969160
H           1.56570257       -0.82698992        0.32969158
6
MD Time 1250.00
C          -0.97067907       -0.00000000        0.00000001
C           0.97067907        0.00000000       -0.00000001
H          -1.57161994        0.82507074        0.33401627
H          -1.57161994       -0.82507074       -0.33401625
H           1.57161996        0.82507071       -0.33401629
H           1.57161997       -0.82507070        0.33401627
6
MD Time 1260.00
C          -0.97236277       -0.00000000        0.00000001
C           0.97236277        0.00000000       -0.00000001
H          -1.57730873        0.82383717        0.33837845
H          -1.57730873       -0.82383717       -0.33837843
H           1.57730874        0.82383714       -0.33837847
H           1.57730875       -0.82383713        0.33837845
6
MD Time 1270.00
C          -0.97380874       -0.00000000        0.00000001
C           0.97380874        0.00000000       -0.00000001
H          -1.58272671        0.82325523        0.34275583
H          -1.58272671       -0.82325523       -0.34275581
H           1.58272673        0.82325520       -0.34275585
H           1.58272674       -0.82325519        0.34275583
6
MD Time 1280.00
C          -0.97502477       -0.00000000        0.00000001
C           0.97502476        0.00000000       -0.00000001
H          -1.58782755        0.82328085        0.34712213
H          -1.58782755       -0.82328086       -0.34712211
H           1.58782756        0.82328082       -0.34712215
H           1.58782757       -0.82328082        0.34712213
6
MD Time 1290.00
C          -0.97601922       -0.00000000        0.00000001
C           0.97601921        0.00000000       -0.00000001
H          -1.59256193        0.82386171        0.35144781
H          -1.59256193       -0.82386172       -0.35144779
H           1.59256194        0.82386169       -0.35144783
H           1.59256195       -0.82386168        0.35144781
6
MD Time 1300.00
C          -0.97680081       -0.00000000        0.00000001
C           0.97680081        0.00000000       -0.00000001
H          -1.59687893        0.82493910        0.35570077
H          -1.59687893       -0.82493910       -0.35570075
H           1.59687894        0.82493907       -0.35570079
H           1.59687895       -0.82493906        0.35570077
6
MD Time 1310.00
C          -0.97737838       -0.00000000        0.00000001
C           0.97737838        0.00000000       -0.00000001
H          -1.60072732        0.82644978        0.35984716
H          -1.60072732       -0.82644978       -0.35984714
H           1.60072733        0.82644975       -0.35984719
H           1.60072733       -0.82644974        0.35984716
6
MD Time 1320.00
C          -0.97776068       -0.00000000        0.00000001
C           0.97776068        0.00000000       -0.00000001
H          -1.60405676        0.82832782        0.36385215
H          -1.60405676       -0.82832783       -0.36385212
H           1.60405677        0.82832780       -0.36385218
H           1.60405678       -0.82832779        0.36385215
6
MD Time 1330.00
C          -0.97795615       -0.00000000        0.00000001
C           0.97795615        0.00000000       -0.00000001
H          -1.60681906        0.83050629        0.36768069
H          -1.60681906       -0.83050630       -0.36768067
H           1.60681906        0.83050627       -0.36768072
H           1.60681907       -0.83050627        0.36768069
6
MD Time 1340.00
C          -0.97797276       -0.00000000        0.00000001
C           0.97797276        0.00000000       -0.00000001
H          -1.60896911        0.83291874        0.37129823
H          -1.60896912       -0.83291874       -0.37129821
H           1.60896912        0.83291872       -0.37129826
H           1.60896913       -0.83291871        0.37129823
6
MD Time 1350.00
C          -0.97781783       -0.00000000        0.00000001
C           0.97781783        0.00000000       -0.00000001
H          -1.61046589        0.83550055        0.37467135
H          -1.61046589       -0.83550055       -0.37467133
H           1.61046589        0.83550053       -0.37467138
H           1.61046590       -0.83550052        0.37467135
6
MD Time 1360.00
C          -0.97749794       -0.00000000        0.00000001
C           0.97749794        0.00000000       -0.00000001
H          -1.61127310        0.83819009        0.37776833
H          -1.61127310       -0.83819009       -0.37776830
H           1.61127310        0.83819007       -0.37776836
H           1.61127310       -0.83819006        0.37776833
6
MD Time 1370.00
C          -0.97701877       -0.00000000        0.00000001
C           0.97701877        0.00000000       -0.00000001
H          -1.61135984        0.84092969        0.38055963
H          -1.61135984       -0.84092969       -0.38055960
H           1.61135983        0.84092967       -0.38055967
H           1.61135984       -0.84092967        0.38055963
6
MD Time 1380.00
C          -0.97638507       -0.00000000        0.00000001
C           0.97638507        0.00000000       -0.00000001
H          -1.61070104        0.84366642        0.38301833
H          -1.61070105       -0.84366642       -0.38301830
H           1.61070104        0.84366641       -0.38301836
H           1.61070105       -0.84366640        0.38301833
6
MD Time 1390.00
C          -0.97560058       -0.00000000        0.00000001
C           0.97560058        0.00000000       -0.00000001
H          -1.60927785        0.84635275        0.38512043
H          -1.60927785       -0.84635275       -0.38512040
H           1.60927785        0.84635273       -0.38512046
H           1.60927786       -0.84635273        0.38512043
6
MD Time 1400.00
C          -0.97466798       -0.00000000        0.00000001
C           0.97466798        0.00000000       -0.00000001
H          -1.60707780        0.84894705        0.38684515
H          -1.60707781       -0.84894705       -0.38684512
H           1.60707780        0.84894704       -0.38684519
H           1.60707781       -0.84894703        0.38684516
6
MD Time 1410.00
C          -0.97358886       -0.00000000        0.00000001
C           0.97358886        0.00000000       -0.00000001
H          -1.60409505        0.85141403        0.38817517
H          -1.60409505       -0.85141404       -0.38817514
H           1.60409504        0.85141402       -0.38817521
H           1.60409505       -0.85141402        0.38817518
6
MD Time 1420.00
C          -0.97236375       -0.00000000        0.00000001
C           0.97236375        0.00000000       -0.00000001
H          -1.60033040        0.85372504        0.38909674
H          -1.60033040       -0.85372504       -0.38909671
H           1.60033039        0.85372503       -0.38909678
H           1.60033040       -0.85372502        0.38909674
6
MD Time 1430.00
C          -0.97099205       -0.00000000        0.00000001
C           0.97099205        0.00000000       -0.00000001
H          -1.59579135        0.85585830        0.38959986
H          -1.59579136       -0.85585831       -0.38959982
H           1.59579134        0.85585830       -0.38959990
H           1.59579135       -0.85585829        0.38959986
6
MD Time 1440.00
C          -0.96947211       -0.00000000        0.00000001
C           0.96947211        0.00000000       -0.00000001
H          -1.59049206        0.85779911        0.38967833
H          -1.59049207       -0.85779912       -0.38967829
H           1.59049205        0.85779911       -0.38967837
H           1.59049206       -0.85779910        0.38967833
6
MD Time 1450.00
C          -0.96780120       -0.00000000        0.00000001
C           0.96780120        0.00000000       -0.00000001
H          -1.58445326        0.85953995        0.38932982
H          -1.58445327       -0.85953995       -0.38932979
H           1.58445325        0.85953995       -0.38932987
H           1.58445326       -0.85953994        0.38932983
6
MD Time 1460.00
C          -0.96597556       -0.00000000        0.00000001
C           0.96597556        0.00000000       -0.00000001
H          -1.57770212        0.86108052        0.38855590
H          -1.57770213       -0.86108053       -0.38855587
H           1.57770211        0.86108052       -0.38855595
H           1.57770213       -0.86108052        0.38855591
6
MD Time 1470.00
C          -0.96399040       -0.00000000        0.00000001
C           0.96399040        0.00000000       -0.00000001
H          -1.57027209        0.86242779        0.38736197
H          -1.57027210       -0.86242780       -0.38736193
H           1.57027208        0.86242779       -0.38736201
H           1.57027210       -0.86242778        0.38736197
6
MD Time 1480.00
C          -0.96184001       -0.00000000        0.00000001
C           0.96184002        0.00000000       -0.00000001
H          -1.56220264        0.86359586        0.38575720
H          -1.56220265       -0.86359587       -0.38575717
H           1.56220263        0.86359587       -0.38575725
H           1.56220264       -0.86359586        0.38575721
6
MD Time 1490.00
C          -0.95951778       -0.00000000        0.00000001
C           0.95951778        0.00000000       -0.00000001
H          -1.55353896        0.86460586        0.38375447
H          -1.55353897       -0.86460586       -0.38375444
H           1.55353895        0.86460586       -0.38375452
H           1.55353896       -0.86460586        0.38375448
6
MD Time 1500.00
C          -0.95701626       -0.00000000        0.00000001
C           0.95701626        0.00000000       -0.00000001
H          -1.54433160        0.86548561        0.38137013
H          -1.54433161       -0.86548561       -0.38137009
H           1.54433159        0.86548561       -0.38137018
H           1.54433160       -0.86548561        0.38137014
6
MD Time 1510.00
C          -0.95432727       -0.00000000        0.00000001
C           0.95432727        0.00000000       -0.00000001
H          -1.53463598        0.86626927        0.37862379
H          -1.53463599       -0.86626928       -0.37862375
H           1.53463597        0.86626928       -0.37862383
H           1.53463599       -0.86626927        0.37862379
6
MD Time 1520.00
C          -0.95144203       -0.00000000        0.00000001
C           0.95144203        0.00000000       -0.00000001
H          -1.52451184        0.86699678        0.37553801
H          -1.52451185       -0.86699679       -0.37553798
H           1.52451184        0.86699679       -0.37553806
H           1.52451185       -0.86699678        0.37553802
6
MD Time 1530.00
C          -0.94835123       -0.00000000        0.00000001
C           0.94835123        0.00000000       -0.00000001
H          -1.51402256        0.86771312        0.37213793
H          -1.51402257       -0.86771312       -0.37213789
H           1.51402255        0.86771312       -0.37213797
H           1.51402257       -0.86771312        0.37213793
6
MD Time 1540.00
C          -0.94504523       -0.00000000        0.00000001
C           0.94504523        0.00000000       -0.00000001
H          -1.50323435        0.86846736        0.36845075
H          -1.50323436       -0.86846736       -0.36845071
H           1.50323434        0.86846736       -0.36845079
H           1.50323436       -0.86846736        0.36845075
6
MD Time 1550.00
C          -0.94151419       -0.00000000        0.00000001
C           0.94151419        0.00000000       -0.00000001
H          -1.49221537        0.86931157        0.36450521
H          -1.49221538       -0.86931157       -0.36450517
H           1.49221536        0.86931157       -0.36450525
H           1.49221538       -0.86931157        0.36450521
6
MD Time 1560.00
C          -0.93774830       -0.00000000        0.00000001
C           0.93774830        0.00000000       -0.00000001
H          -1.48103471        0.87029945        0.36033096
H          -1.48103472       -0.87029945       -0.36033092
H           1.48103470        0.87029945       -0.36033100
H           1.48103471       -0.87029945        0.36033096
6
MD Time 1570.00
C          -0.93373794       -0.00000000        0.00000001
C           0.93373794        0.00000000       -0.00000001
H          -1.46976127        0.87148478        0.35595783
H          -1.46976128       -0.87148478       -0.35595780
H           1.46976126        0.87148478       -0.35595788
H           1.46976128       -0.87148477        0.35595784
6
MD Time 1580.00
C          -0.92947392       -0.00000000        0.00000001
C           0.92947392        0.00000000       -0.00000001
H          -1.45846263        0.87291969        0.35141512
H          -1.45846264       -0.87291970       -0.35141508
H           1.45846262        0.87291969       -0.35141516
H           1.45846264       -0.87291969        0.35141512
6
MD Time 1590.00
C          -0.92494771       -0.00000000        0.00000001
C           0.92494771        0.00000000       -0.00000001
H          -1.44720379        0.87465285        0.34673078
H          -1.44720380       -0.87465286       -0.34673074
H           1.44720378        0.87465285       -0.34673082
H           1.44720380       -0.87465285        0.34673078
6
MD Time 1600.00
C          -0.92015167       -0.00000000        0.00000001
C           0.92015167        0.00000000       -0.00000001
H          -1.43604603        0.87672753        0.34193074
H          -1.43604604       -0.87672753       -0.34193070
H           1.43604602        0.87672753       -0.34193078
H           1.43604604       -0.87672752        0.34193074
6
MD Time 1610.00
C          -0.91507926       -0.00000000        0.00000001
C           0.91507926        0.00000000       -0.00000001
H          -1.42504578        0.87917973        0.33703815
H          -1.42504579       -0.87917973       -0.33703811
H           1.42504577        0.87917972       -0.33703818
H           1.42504579       -0.87917972        0.33703814
6
MD Time 1620.00
C          -0.90972525       -0.00000000        0.00000001
C           0.90972525        0.00000000       -0.00000001
H          -1.41425359        0.88203645        0.33207281
H          -1.41425360       -0.88203646       -0.33207278
H           1.41425358        0.88203645       -0.33207285
H           1.41425360       -0.88203644        0.33207281
6
MD Time 1630.00
C          -0.90408588       -0.00000000        0.00000001
C           0.90408588        0.00000000       -0.00000001
H          -1.40371330        0.88531417        0.32705073
H          -1.40371331       -0.88531417       -0.32705070
H           1.40371330        0.88531417       -0.32705077
H           1.40371332       -0.88531416        0.32705073
6
MD Time 1640.00
C          -0.89815905       -0.00000000        0.00000001
C           0.89815905        0.00000000       -0.00000001
H          -1.39346141        0.88901762        0.32198380
H          -1.39346142       -0.88901762       -0.32198376
H           1.39346141        0.88901761       -0.32198383
H           1.39346143       -0.88901761        0.32198379
6
MD Time 1650.00
C          -0.89194443       -0.00000000        0.00000001
C           0.89194443        0.00000000       -0.00000001
H          -1.38352665        0.89313900        0.31687967
H          -1.38352666       -0.89313900       -0.31687963
H           1.38352665        0.89313899       -0.31687970
H           1.38352666       -0.89313898        0.31687966
6
MD Time 1660.00
C          -0.88544353       -0.00000000        0.00000001
C           0.88544353        0.00000000       -0.00000001
H          -1.37392984        0.89765766        0.31174187
H          -1.37392985       -0.89765766       -0.31174183
H           1.37392984        0.89765765       -0.31174189
H           1.37392986       -0.89765764        0.31174186
6
MD Time 1670.00
C          -0.87865974       -0.00000000        0.00000001
C           0.87865974        0.00000000       -0.00000001
H          -1.36468401        0.90254024        0.30657005
H          -1.36468402       -0.90254024       -0.30657002
H           1.36468401        0.90254023       -0.30657007
H           1.36468403       -0.90254022        0.30657004
6
MD Time 1680.00
C          -0.87159838       -0.00000000        0.00000001
C           0.87159838        0.00000000       -0.00000001
H          -1.35579470        0.90774133        0.30136044
H          -1.35579471       -0.90774133       -0.30136041
H           1.35579470        0.90774132       -0.30136046
H           1.35579472       -0.90774131        0.30136043
6
MD Time 1690.00
C          -0.86426666       -0.00000000        0.00000001
C           0.86426666        0.00000000       -0.00000001
H          -1.34726054        0.91320454        0.29610639
H          -1.34726055       -0.91320455       -0.29610635
H           1.34726054        0.91320454       -0.29610640
H           1.34726056       -0.91320453        0.29610637
6
MD Time 1700.00
C          -0.85667368       -0.00000000        0.00000001
C           0.85667368        0.00000000       -0.00000001
H          -1.33907394        0.91886399        0.29079905
H          -1.33907395       -0.91886399       -0.29079902
H           1.33907394        0.91886398       -0.29079906
H           1.33907396       -0.91886397        0.29079903
6
MD Time 1710.00
C          -0.84883040       -0.00000000        0.00000001
C           0.84883040        0.00000000       -0.00000001
H          -1.33122191        0.92464601        0.28542811
H          -1.33122192       -0.92464601       -0.28542808
H           1.33122191        0.92464600       -0.28542812
H           1.33122193       -0.92464599        0.28542809
6
MD Time 1720.00
C          -0.84074955       -0.00000000        0.00000001
C           0.84074955        0.00000000       -0.00000001
H          -1.32368700        0.93047113        0.27998252
H          -1.32368701       -0.93047114       -0.27998249
H           1.32368701        0.93047113       -0.27998253
H           1.32368702       -0.93047112        0.27998250
6
MD Time 1730.00
C          -0.83244568       -0.00000000        0.00000001
C           0.83244568        0.00000000       -0.00000001
H          -1.31644822        0.93625611        0.27445119
H          -1.31644823       -0.93625611       -0.27445116
H           1.31644822        0.93625610       -0.27445119
H           1.31644824       -0.93625609        0.27445116
6
MD Time 1740.00
C          -0.82393508       -0.00000000        0.00000001
C           0.82393508        0.00000000       -0.00000001
H          -1.30948196        0.94191591        0.26882364
H          -1.30948197       -0.94191592       -0.26882361
H           1.30948196        0.94191591       -0.26882364
H           1.30948198       -0.94191590        0.26882361
6
MD Time 1750.00
C          -0.81523583       -0.00000000        0.00000001
C           0.81523583        0.00000000       -0.00000001
H          -1.30276290        0.94736573        0.26309061
H          -1.30276291       -0.94736573       -0.26309058
H           1.30276290        0.94736573       -0.26309061
H           1.30276292       -0.94736572        0.26309058
6
MD Time 1760.00
C          -0.80636778       -0.00000000        0.00000001
C           0.80636778        0.00000000       -0.00000001
H          -1.29626485        0.95252274        0.25724452
H          -1.29626486       -0.95252275       -0.25724449
H           1.29626486        0.95252274       -0.25724451
H           1.29626487       -0.95252273        0.25724448
6
MD Time 1770.00
C          -0.79735264       -0.00000000        0.00000001
C           0.79735264        0.00000000       -0.00000001
H          -1.28996153        0.95730777        0.25127987
H          -1.28996154       -0.95730778       -0.25127984
H           1.28996153        0.95730777       -0.25127986
H           1.28996155       -0.95730776        0.25127983
6
MD Time 1780.00
C          -0.78821401       -0.00000000        0.00000001
C           0.78821401        0.00000000       -0.00000001
H          -1.28382723        0.96164671        0.24519355
H          -1.28382724       -0.96164671       -0.24519352
H           1.28382724        0.96164671       -0.24519354
H           1.28382725       -0.96164670        0.24519351
6
MD Time 1790.00
C          -0.77897748       -0.00000000        0.00000001
C           0.77897748        0.00000000       -0.00000001
H          -1.27783748        0.96547175        0.23898505
H          -1.27783749       -0.96547176       -0.23898503
H           1.27783748        0.96547175       -0.23898504
H           1.27783750       -0.96547174        0.23898501
6
MD Time 1800.00
C          -0.76967077       -0.00000000        0.00000001
C           0.76967076        0.00000000       -0.00000001
H          -1.27196955        0.96872242        0.23265661
H          -1.27196956       -0.96872242       -0.23265659
H           1.27196956        0.96872242       -0.23265659
H           1.27196957       -0.96872241        0.23265657
6
MD Time 1810.00
C          -0.76032374       -0.00000000        0.00000001
C           0.76032374        0.00000000       -0.00000001
H          -1.26620298        0.97134638        0.22621327
H          -1.26620299       -0.97134638       -0.22621325
H           1.26620299        0.97134639       -0.22621325
H           1.26620301       -0.97134637        0.22621323
6
MD Time 1820.00
C          -0.75096860       -0.00000000        0.00000001
C           0.75096860        0.00000000       -0.00000001
H          -1.26052001        0.97330018        0.21966292
H          -1.26052002       -0.97330019       -0.21966289
H           1.26052002        0.97330019       -0.21966289
H           1.26052004       -0.97330018        0.21966287
6
MD Time 1830.00
C          -0.74163996       -0.00000000        0.00000001
C           0.74163995        0.00000000       -0.00000001
H          -1.25490595        0.97454974        0.21301624
H          -1.25490596       -0.97454974       -0.21301622
H           1.25490596        0.97454975       -0.21301622
H           1.25490598       -0.97454973        0.21301619
6
MD Time 1840.00
C          -0.73237486       -0.00000000        0.00000001
C           0.73237486        0.00000000       -0.00000001
H          -1.24934957        0.97507077        0.20628669
H          -1.24934957       -0.97507077       -0.20628667
H           1.24934958        0.97507078       -0.20628666
H           1.24934959       -0.97507077        0.20628664
6
MD Time 1850.00
C          -0.72321290       -0.00000000        0.00000001
C           0.72321290        0.00000000       -0.00000001
H          -1.24384342        0.97484916        0.19949038
H          -1.24384342       -0.97484916       -0.19949036
H           1.24384343        0.97484917       -0.19949035
H           1.24384344       -0.97484916        0.19949033
6
MD Time 1860.00
C          -0.71419613       -0.00000000        0.00000001
C           0.71419613        0.00000000       -0.00000001
H          -1.23838417        0.97388118        0.19264598
H          -1.23838417       -0.97388118       -0.19264596
H           1.23838418        0.97388119       -0.19264595
H           1.23838419       -0.97388118        0.19264593
6
MD Time 1870.00
C          -0.70536902       -0.00000000        0.00000001
C           0.70536902        0.00000000       -0.00000001
H          -1.23297289        0.97217371        0.18577461
H          -1.23297289       -0.97217372       -0.18577459
H           1.23297290        0.97217373       -0.18577458
H           1.23297291       -0.97217372        0.18577455
6
MD Time 1880.00
C          -0.69677828       -0.00000000        0.00000001
C           0.69677828        0.00000000       -0.00000001
H          -1.22761536        0.96974440        0.17889969
H          -1.22761536       -0.96974440       -0.17889966
H           1.22761537        0.96974442       -0.17889965
H           1.22761538       -0.96974440        0.17889963
6
MD Time 1890.00
C          -0.68847256       -0.00000000        0.00000001
C           0.68847256        0.00000000       -0.00000001
H          -1.22232232        0.96662172        0.17204677
H          -1.22232233       -0.96662172       -0.17204675
H           1.22232233        0.96662174       -0.17204673
H           1.22232235       -0.96662173        0.17204671
6
MD Time 1900.00
C          -0.68050210       -0.00000000        0.00000001
C           0.68050209        0.00000000       -0.00000001
H          -1.21710976        0.96284507        0.16524342
H          -1.21710976       -0.96284507       -0.16524340
H           1.21710977        0.96284509       -0.16524338
H           1.21710978       -0.96284508        0.16524336
6
MD Time 1910.00
C          -0.67291818       -0.00000000        0.00000001
C           0.67291817        0.00000000       -0.00000001
H          -1.21199906        0.95846473        0.15851899
H          -1.21199907       -0.95846473       -0.15851896
H           1.21199907        0.95846475       -0.15851894
H           1.21199908       -0.95846474        0.15851892
6
MD Time 1920.00
C          -0.66577248       -0.00000000        0.00000001
C           0.66577247        0.00000000       -0.00000001
H          -1.20701725        0.95354176        0.15190442
H          -1.20701725       -0.95354177       -0.15190440
H           1.20701726        0.95354179       -0.15190437
H           1.20701727       -0.95354178        0.15190435
6
MD Time 1930.00
C          -0.65911627       -0.00000000        0.00000001
C           0.65911627        0.00000000       -0.00000001
H          -1.20219701        0.94814783        0.14543205
H          -1.20219701       -0.94814784       -0.14543203
H           1.20219701        0.94814786       -0.14543200
H           1.20219702       -0.94814785        0.14543198
6
MD Time 1940.00
C          -0.65299952       -0.00000000        0.00000001
C           0.65299952        0.00000000       -0.00000001
H          -1.19757672        0.94236484        0.13913532
H          -1.19757672       -0.94236484       -0.13913530
H           1.19757672        0.94236486       -0.13913527
H           1.19757673       -0.94236485        0.13913525
6
MD Time 1950.00
C          -0.64746985       -0.00000000        0.00000001
C           0.64746985        0.00000000       -0.00000001
H          -1.19320033        0.93628438        0.13304852
H          -1.19320033       -0.93628439       -0.13304850
H           1.19320033        0.93628441       -0.13304847
H           1.19320034       -0.93628440        0.13304845
6
MD Time 1960.00
C          -0.64257144       -0.00000000        0.00000001
C           0.64257143        0.00000000       -0.00000001
H          -1.18911703        0.93000702        0.12720645
H          -1.18911703       -0.93000703       -0.12720642
H           1.18911703        0.93000705       -0.12720639
H           1.18911704       -0.93000704        0.12720637
6
MD Time 1970.00
C          -0.63834392       -0.00000000        0.00000001
C           0.63834392        0.00000000       -0.00000001
H          -1.18538080        0.92364121        0.12164405
H          -1.18538080       -0.92364122       -0.12164403
H           1.18538081        0.92364124       -0.12164400
H           1.18538081       -0.92364123        0.12164397
6
MD Time 1980.00
C          -0.63482131       -0.00000000        0.00000001
C           0.63482131        0.00000000       -0.00000001
H          -1.18204968        0.91730193        0.11639609
H          -1.18204967       -0.91730194       -0.11639606
H           1.18204967        0.91730196       -0.11639603
H           1.18204968       -0.91730195        0.11639600
6
MD Time 1990.00
C          -0.63203101       -0.00000000        0.00000001
C           0.63203101        0.00000000       -0.00000001
H          -1.17918473        0.91110893        0.11149662
H          -1.17918472       -0.91110894       -0.11149659
H           1.17918472        0.91110896       -0.11149655
H           1.17918473       -0.91110895        0.11149653
6
MD Time 2000.00
C          -0.62999301       -0.00000000        0.00000001
C           0.62999301        0.00000000       -0.00000001
H          -1.17684883        0.90518455        0.10697861
H          -1.17684883       -0.90518456       -0.10697859
H           1.17684883        0.90518458       -0.10697855
H           1.17684883       -0.90518457        0.10697853
6
MD Time 2010.00
C          -0.62871930       -0.00000000        0.00000001
C           0.62871930        0.00000000       -0.00000001
H          -1.17510508        0.89965114        0.10287345
H          -1.17510508       -0.89965115       -0.10287343
H           1.17510507        0.89965117       -0.10287339
H           1.17510508       -0.89965116        0.10287336
6
MD Time 2020.00
C          -0.62821353       -0.00000000        0.00000001
C           0.62821353        0.00000000       -0.00000001
H          -1.17401495        0.89462809        0.09921043
H          -1.17401495       -0.89462810       -0.09921040
H           1.17401494        0.89462812       -0.09921036
H           1.17401495       -0.89462811        0.09921034
6
MD Time 2030.00
C          -0.62847108       -0.00000000        0.00000001
C           0.62847109        0.00000000       -0.00000001
H          -1.17363624        0.89022851        0.09601626
H          -1.17363624       -0.89022852       -0.09601623
H           1.17363623        0.89022854       -0.09601619
H           1.17363624       -0.89022853        0.09601617
6
MD Time 2040.00
C          -0.62947932       -0.00000000        0.00000001
C           0.62947932        0.00000000       -0.00000001
H          -1.17402086        0.88655570        0.09331463
H          -1.17402086       -0.88655570       -0.09331461
H           1.17402085        0.88655572       -0.09331456
H           1.17402086       -0.88655572        0.09331454
6
MD Time 2050.00
C          -0.63121819       -0.00000000        0.00000001
C           0.63121820        0.00000000       -0.00000001
H          -1.17521258        0.88369957        0.09112574
H          -1.17521257       -0.88369958       -0.09112572
H           1.17521256        0.88369960       -0.09112567
H           1.17521257       -0.88369959        0.09112565
6
MD Time 2060.00
C          -0.63366113       -0.00000000        0.00000001
C           0.63366113        0.00000000       -0.00000001
H          -1.17724487        0.88173324        0.08946593
H          -1.17724487       -0.88173325       -0.08946590
H           1.17724486        0.88173326       -0.08946586
H           1.17724486       -0.88173326        0.08946584
6
MD Time 2070.00
C          -0.63677600       -0.00000000        0.00000001
C           0.63677600        0.00000000       -0.00000001
H          -1.18013907        0.88070996        0.08834736
H          -1.18013907       -0.88070996       -0.08834733
H           1.18013905        0.88070998       -0.08834729
H           1.18013906       -0.88070997        0.08834726
6
MD Time 2080.00
C          -0.64052633       -0.00000000        0.00000001
C           0.64052633        0.00000000       -0.00000001
H          -1.18390283        0.88066067        0.08777777
H          -1.18390282       -0.88066068       -0.08777774
H           1.18390281        0.88066070       -0.08777770
H           1.18390281       -0.88066069        0.08777768
6
MD Time 2090.00
C          -0.64487240       -0.00000000        0.00000001
C           0.64487240        0.00000000       -0.00000001
H          -1.18852921        0.88159243        0.08776038
H          -1.18852920       -0.88159244       -0.08776035
H           1.18852919        0.88159245       -0.08776030
H           1.18852919       -0.88159244        0.08776028
6
MD Time 2100.00
C          -0.64977240       -0.00000000        0.00000001
C           0.64977240        0.00000000       -0.00000001
H          -1.19399634        0.88348767        0.08829378
H          -1.19399633       -0.88348768       -0.08829375
H           1.19399632        0.88348769       -0.08829370
H           1.19399632       -0.88348769        0.08829368
6
MD Time 2110.00
C          -0.65518344       -0.00000000        0.00000001
C           0.65518344        0.00000000       -0.00000001
H          -1.20026777        0.88630466        0.08937205
H          -1.20026776       -0.88630467       -0.08937202
H           1.20026774        0.88630468       -0.08937198
H           1.20026774       -0.88630467        0.08937195
6
MD Time 2120.00
C          -0.66106243       -0.00000000        0.00000001
C           0.66106244        0.00000000       -0.00000001
H          -1.20729342        0.88997882        0.09098488
H          -1.20729341       -0.88997883       -0.09098485
H           1.20729339        0.88997884       -0.09098481
H           1.20729340       -0.88997883        0.09098478
6
MD Time 2130.00
C          -0.66736682       -0.00000000        0.00000001
C           0.66736682        0.00000000       -0.00000001
H          -1.21501117        0.89442509        0.09311783
H          -1.21501116       -0.89442510       -0.09311780
H           1.21501114        0.89442511       -0.09311776
H           1.21501115       -0.89442510        0.09311773
6
MD Time 2140.00
C          -0.67405508       -0.00000000        0.00000001
C           0.67405508        0.00000000       -0.00000001
H          -1.22334879        0.89954091        0.09575263
H          -1.22334878       -0.89954092       -0.09575260
H           1.22334876        0.89954093       -0.09575256
H           1.22334877       -0.89954092        0.09575253
6
MD Time 2150.00
C          -0.68108717       -0.00000000        0.00000001
C           0.68108717        0.00000000       -0.00000001
H          -1.23222621        0.90520981        0.09886758
H          -1.23222620       -0.90520982       -0.09886755
H           1.23222618        0.90520983       -0.09886751
H           1.23222619       -0.90520982        0.09886748
6
MD Time 2160.00
C          -0.68842474       -0.00000000        0.00000001
C           0.68842475        0.00000000       -0.00000001
H          -1.24155791        0.91130517        0.10243800
H          -1.24155790       -0.91130518       -0.10243797
H           1.24155788        0.91130519       -0.10243793
H           1.24155788       -0.91130518        0.10243790
6
MD Time 2170.00
C          -0.69603134       -0.00000000        0.00000001
C           0.69603135        0.00000000       -0.00000001
H          -1.25125528        0.91769407        0.10643665
H          -1.25125527       -0.91769409       -0.10643662
H           1.25125525        0.91769410       -0.10643658
H           1.25125525       -0.91769409        0.10643655
6
MD Time 2180.00
C          -0.70387242       -0.00000000        0.00000001
C           0.70387243        0.00000000       -0.00000001
H          -1.26122884        0.92424099        0.11083426
H          -1.26122883       -0.92424101       -0.11083423
H           1.26122881        0.92424102       -0.11083419
H           1.26122881       -0.92424101        0.11083416
6
MD Time 2190.00
C          -0.71191538       -0.00000000        0.00000001
C           0.71191539        0.00000000       -0.00000001
H          -1.27139023        0.93081111        0.11560000
H          -1.27139021       -0.93081112       -0.11559997
H           1.27139020        0.93081113       -0.11559993
H           1.27139020       -0.93081112        0.11559990
6
MD Time 2200.00
C          -0.72012951       -0.00000000        0.00000001
C           0.72012952        0.00000000       -0.00000001
H          -1.28165392        0.93727324        0.12070192
H          -1.28165390       -0.93727326       -0.12070189
H           1.28165389        0.93727327       -0.12070185
H           1.28165389       -0.93727326        0.12070182
6
MD Time 2210.00
C          -0.72848594       -0.00000000        0.00000001
C           0.72848595        0.00000000       -0.00000001
H          -1.29193860        0.94350236        0.12610744
H          -1.29193859       -0.94350238       -0.12610740
H           1.29193858        0.94350239       -0.12610737
H           1.29193858       -0.94350238        0.12610734
6
MD Time 2220.00
C          -0.73695755       -0.00000000        0.00000001
C           0.73695755        0.00000000       -0.00000001
H          -1.30216830        0.94938152        0.13178372
H          -1.30216829       -0.94938153       -0.13178369
H           1.30216828        0.94938155       -0.13178365
H           1.30216828       -0.94938154        0.13178362
6
MD Time 2230.00
C          -0.74551887       -0.00000000        0.00000001
C           0.74551887        0.00000000       -0.00000001
H          -1.31227315        0.95480344        0.13769808
H          -1.31227313       -0.95480345       -0.13769804
H           1.31227312        0.95480347       -0.13769801
H           1.31227312       -0.95480346        0.13769798
6
MD Time 2240.00
C          -0.75414599       -0.00000000        0.00000001
C           0.75414599        0.00000000       -0.00000001
H          -1.32218997        0.95967164        0.14381830
H          -1.32218996       -0.95967166       -0.14381827
H           1.32218995        0.95967167       -0.14381824
H           1.32218995       -0.95967167        0.14381820
6
MD Time 2250.00
C          -0.76281646       -0.00000000        0.00000001
C           0.76281646        0.00000000       -0.00000001
H          -1.33186266        0.96390128        0.15011297
H          -1.33186265       -0.96390130       -0.15011293
H           1.33186264        0.96390131       -0.15011291
H           1.33186264       -0.96390131        0.15011287
6
MD Time 2260.00
C          -0.77150918       -0.00000000        0.00000001
C           0.77150919        0.00000000       -0.00000001
H          -1.34124235        0.96741966        0.15655172
H          -1.34124233       -0.96741967       -0.15655169
H           1.34124233        0.96741969       -0.15655166
H           1.34124233       -0.96741968        0.15655162
6
MD Time 2270.00
C          -0.78020429       -0.00000000        0.00000001
C           0.78020429        0.00000000       -0.00000001
H          -1.35028748        0.97016657        0.16310550
H          -1.35028747       -0.97016658       -0.16310547
H           1.35028747        0.97016660       -0.16310544
H           1.35028747       -0.97016659        0.16310541
6
MD Time 2280.00
C          -0.78888303       -0.00000000        0.00000001
C           0.78888304        0.00000000       -0.00000001
H          -1.35896382        0.97209446        0.16974679
H          -1.35896381       -0.97209448       -0.16974676
H           1.35896381        0.97209449       -0.16974674
H           1.35896381       -0.97209449        0.16974670
6
MD Time 2290.00
C          -0.79752769       -0.00000000        0.00000001
C           0.79752769        0.00000000       -0.00000001
H          -1.36724436        0.97316854        0.17644980
H          -1.36724435       -0.97316855       -0.17644977
H           1.36724435        0.97316857       -0.17644975
H           1.36724435       -0.97316857        0.17644971
6
MD Time 2300.00
C          -0.80612143       -0.00000000        0.00000001
C           0.80612143        0.00000000       -0.00000001
H          -1.37510923        0.97336673        0.18319069
H          -1.37510921       -0.97336675       -0.18319065
H           1.37510922        0.97336677       -0.18319064
H           1.37510922       -0.97336676        0.18319060
6
MD Time 2310.00
C          -0.81464817       -0.00000000        0.00000001
C           0.81464817        0.00000000       -0.00000001
H          -1.38254556        0.97267969        0.18994771
H          -1.38254554       -0.97267971       -0.18994768
H           1.38254555        0.97267973       -0.18994767
H           1.38254555       -0.97267972        0.18994763
6
MD Time 2320.00
C          -0.82309254       -0.00000000        0.00000001
C           0.82309253        0.00000000       -0.00000001
H          -1.38954738        0.97111072        0.19670147
H          -1.38954737       -0.97111073       -0.19670144
H           1.38954738        0.97111075       -0.19670143
H           1.38954738       -0.97111075        0.19670139
6
MD Time 2330.00
C          -0.83143965       -0.00000000        0.00000001
C           0.83143965        0.00000000       -0.00000001
H          -1.39611549        0.96867570        0.20343505
H          -1.39611547       -0.96867571       -0.20343501
H           1.39611548        0.96867573       -0.20343501
H           1.39611548       -0.96867572        0.20343497
6
MD Time 2340.00
C          -0.83967510       -0.00000000        0.00000001
C           0.83967510        0.00000000       -0.00000001
H          -1.40225730        0.96540301        0.21013423
H          -1.40225729       -0.96540303       -0.21013419
H           1.40225730        0.96540305       -0.21013419
H           1.40225730       -0.96540304        0.21013415
6
MD Time 2350.00
C          -0.84778477       -0.00000000        0.00000001
C           0.84778477        0.00000000       -0.00000001
H          -1.40798675        0.96133344        0.21678767
H          -1.40798674       -0.96133345       -0.21678763
H           1.40798676        0.96133347       -0.21678763
H           1.40798676       -0.96133347        0.21678759
6
MD Time 2360.00
C          -0.85575481       -0.00000000        0.00000001
C           0.85575481        0.00000000       -0.00000001
H          -1.41332413        0.95651993        0.22338710
H          -1.41332412       -0.95651994       -0.22338706
H           1.41332414        0.95651996       -0.22338706
H           1.41332414       -0.95651995        0.22338702
6
MD Time 2370.00
C          -0.86357149       -0.00000000        0.00000001
C           0.86357149        0.00000000       -0.00000001
H          -1.41829588        0.95102736        0.22992747
H          -1.41829587       -0.95102738       -0.22992743
H           1.41829589        0.95102739       -0.22992744
H           1.41829589       -0.95102739        0.22992740
6
MD Time 2380.00
C          -0.87122117       -0.00000000        0.00000002
C           0.87122117        0.00000000       -0.00000001
H          -1.42293436        0.94493213        0.23640712
H          -1.42293435       -0.94493215       -0.23640708
H           1.42293437        0.94493216       -0.23640709
H           1.42293437       -0.94493216        0.23640705
6
MD Time 2390.00
C          -0.87869027       -0.00000000        0.00000002
C           0.87869027        0.00000000       -0.00000001
H          -1.42727749        0.93832153        0.24282785
H          -1.42727748       -0.93832155       -0.24282781
H           1.42727750        0.93832156       -0.24282782
H           1.42727750       -0.93832155        0.24282777
6
MD Time 2400.00
C          -0.88596521       -0.00000000        0.00000002
C           0.88596521        0.00000000       -0.00000002
H          -1.43136831        0.93129291        0.24919495
H          -1.43136829       -0.93129293       -0.24919491
H           1.43136832        0.93129294       -0.24919493
H           1.43136832       -0.93129293        0.24919488
6
MD Time 2410.00
C          -0.89303247       -0.00000000        0.00000002
C           0.89303247        0.00000000       -0.00000002
H          -1.43525435        0.92395252        0.25551718
H          -1.43525433       -0.92395254       -0.25551714
H           1.43525436        0.92395255       -0.25551716
H           1.43525436       -0.92395254        0.25551711
6
MD Time 2420.00
C          -0.89987863       -0.00000000        0.00000002
C           0.89987863        0.00000000       -0.00000002
H          -1.43898686        0.91641401        0.26180655
H          -1.43898685       -0.91641403       -0.26180651
H           1.43898688        0.91641403       -0.26180653
H           1.43898688       -0.91641403        0.26180648
6
MD Time 2430.00
C          -0.90649044       -0.00000000        0.00000002
C           0.90649044        0.00000000       -0.00000002
H          -1.44261982        0.90879652        0.26807800
H          -1.44261981       -0.90879653       -0.26807796
H           1.44261984        0.90879654       -0.26807798
H           1.44261984       -0.90879653        0.26807794
6
MD Time 2440.00
C          -0.91285501       -0.00000000        0.00000002
C           0.91285501        0.00000000       -0.00000002
H          -1.44620870        0.90122236        0.27434894
H          -1.44620869       -0.90122237       -0.27434890
H           1.44620872        0.90122237       -0.27434893
H           1.44620872       -0.90122237        0.27434888
6
MD Time 2450.00
C          -0.91895995       -0.00000000        0.00000002
C           0.91895994        0.00000000       -0.00000002
H          -1.44980905        0.89381430        0.28063854
H          -1.44980903       -0.89381432       -0.28063850
H           1.44980906        0.89381432       -0.28063853
H           1.44980906       -0.89381431        0.28063848
6
MD Time 2460.00
C          -0.92479358       -0.00000000        0.00000002
C           0.92479357        0.00000000       -0.00000002
H          -1.45347484        0.88669251        0.28696686
H          -1.45347483       -0.88669253       -0.28696682
H           1.45347486        0.88669252       -0.28696685
H           1.45347486       -0.88669252        0.28696680
6
MD Time 2470.00
C          -0.93034523       -0.00000000        0.00000002
C           0.93034522        0.00000000       -0.00000002
H          -1.45725674        0.87997123        0.29335380
H          -1.45725673       -0.87997124       -0.29335375
H           1.45725676        0.87997123       -0.29335379
H           1.45725676       -0.87997123        0.29335374
6
MD Time 2480.00
C          -0.93560545       -0.00000000        0.00000002
C           0.93560545        0.00000000       -0.00000002
H          -1.46120020        0.87375531        0.29981786
H          -1.46120019       -0.87375533       -0.29981781
H           1.46120022        0.87375531       -0.29981785
H           1.46120022       -0.87375531        0.29981780
6
MD Time 2490.00
C          -0.94056633       -0.00000000        0.00000002
C           0.94056632        0.00000000       -0.00000002
H          -1.46534363        0.86813692        0.30637488
H          -1.46534362       -0.86813694       -0.30637483
H           1.46534364        0.86813692       -0.30637487
H           1.46534365       -0.86813692        0.30637482
6
MD Time 2500.00
C          -0.94522170       -0.00000000        0.00000002
C           0.94522169        0.00000000       -0.00000002
H          -1.46971666        0.86319242        0.31303666
H          -1.46971665       -0.86319243       -0.31303662
H           1.46971668        0.86319241       -0.31303666
H           1.46971668       -0.86319241        0.31303661
6
MD Time 2510.00
C          -0.94956736       -0.00000000        0.00000002
C           0.94956736        0.00000000       -0.00000002
H          -1.47433874        0.85897979        0.31980975
H          -1.47433873       -0.85897981       -0.31980970
H           1.47433876        0.85897979       -0.31980974
H           1.47433876       -0.85897978        0.31980969
6
MD Time 2520.00
C          -0.95360127       -0.00000000        0.00000002
C           0.95360127        0.00000000       -0.00000002
H          -1.47921795        0.85553679        0.32669428
H          -1.47921794       -0.85553680       -0.32669424
H           1.47921797        0.85553678       -0.32669428
H           1.47921797       -0.85553678        0.32669423
6
MD Time 2530.00
C          -0.95732356       -0.00000000        0.00000002
C           0.95732356        0.00000000       -0.00000002
H          -1.48435042        0.85287987        0.33368322
H          -1.48435041       -0.85287988       -0.33368317
H           1.48435043        0.85287986       -0.33368322
H           1.48435044       -0.85287985        0.33368317
6
MD Time 2540.00
C          -0.96073657       -0.00000000        0.00000002
C           0.96073657        0.00000000       -0.00000002
H          -1.48972016        0.85100409        0.34076177
H          -1.48972015       -0.85100411       -0.34076173
H           1.48972018        0.85100408       -0.34076177
H           1.48972018       -0.85100407        0.34076172
6
MD Time 2550.00
C          -0.96384475       -0.00000000        0.00000002
C           0.96384474        0.00000000       -0.00000002
H          -1.49529949        0.84988395        0.34790734
H          -1.49529948       -0.84988396       -0.34790729
H           1.49529951        0.84988393       -0.34790734
H           1.49529951       -0.84988393        0.34790729
6
MD Time 2560.00
C          -0.96665448       -0.00000000        0.00000002
C           0.96665447        0.00000000       -0.00000002
H          -1.50104991        0.84947504        0.35508972
H          -1.50104991       -0.84947505       -0.35508967
H           1.50104993        0.84947502       -0.35508972
H           1.50104994       -0.84947501        0.35508967
6
MD Time 2570.00
C          -0.96917383       -0.00000000        0.00000002
C           0.96917382        0.00000000       -0.00000002
H          -1.50692343        0.84971642        0.36227178
H          -1.50692343       -0.84971644       -0.36227173
H           1.50692345        0.84971640       -0.36227178
H           1.50692346       -0.84971640        0.36227173
6
MD Time 2580.00
C          -0.97141226       -0.00000000        0.00000002
C           0.97141226        0.00000000       -0.00000002
H          -1.51286423        0.85053356        0.36941039
H          -1.51286422       -0.85053358       -0.36941034
H           1.51286424        0.85053354       -0.36941040
H           1.51286425       -0.85053353        0.36941035
6
MD Time 2590.00
C          -0.97338032       -0.00000000        0.00000002
C           0.97338031        0.00000000       -0.00000002
H          -1.51881046        0.85184146        0.37645759
H          -1.51881046       -0.85184148       -0.37645755
H           1.51881048        0.85184144       -0.37645760
H           1.51881049       -0.85184143        0.37645755
6
MD Time 2600.00
C          -0.97508926       -0.00000000        0.00000002
C           0.97508926        0.00000000       -0.00000002
H          -1.52469624        0.85354799        0.38336192
H          -1.52469623       -0.85354800       -0.38336188
H           1.52469625        0.85354796       -0.38336193
H           1.52469626       -0.85354796        0.38336188
6
MD Time 2610.00
C          -0.97655076       -0.00000000        0.00000002
C           0.97655076        0.00000000       -0.00000002
H          -1.53045349        0.85555703        0.39006981
H          -1.53045349       -0.85555705       -0.39006976
H           1.53045351        0.85555701       -0.39006981
H           1.53045352       -0.85555700        0.39006976
6
MD Time 2620.00
C          -0.97777657       -0.00000000        0.00000002
C           0.97777657        0.00000000       -0.00000002
H          -1.53601379        0.85777146        0.39652688
H          -1.53601379       -0.85777148       -0.39652683
H           1.53601381        0.85777144       -0.39652689
H           1.53601382       -0.85777143        0.39652684
6
MD Time 2630.00
C          -0.97877825       -0.00000000        0.00000002
C           0.97877824        0.00000000       -0.00000002
H          -1.54130991        0.86009574        0.40267929
H          -1.54130990       -0.86009575       -0.40267924
H           1.54130992        0.86009572       -0.40267930
H           1.54130993       -0.86009571        0.40267925
6
MD Time 2640.00
C          -0.97956693       -0.00000000        0.00000002
C           0.97956693        0.00000000       -0.00000002
H          -1.54627722        0.86243812        0.40847480
H          -1.54627722       -0.86243814       -0.40847475
H           1.54627724        0.86243810       -0.40847482
H           1.54627725       -0.86243810        0.40847476
6
MD Time 2650.00
C          -0.98015312       -0.00000000        0.00000002
C           0.98015312        0.00000000       -0.00000002
H          -1.55085489        0.86471250        0.41386381
H          -1.55085489       -0.86471251       -0.41386376
H           1.55085490        0.86471248       -0.41386382
H           1.55085491       -0.86471247        0.41386377
6
MD Time 2660.00
C          -0.98054655       -0.00000000        0.00000002
C           0.98054655        0.00000000       -0.00000002
H          -1.55498671        0.86683979        0.41880012
H          -1.55498671       -0.86683981       -0.41880008
H           1.55498673        0.86683978       -0.41880014
H           1.55498674       -0.86683977        0.41880009
6
MD Time 2670.00
C          -0.98075603       -0.00000000        0.00000002
C           0.98075603        0.00000000       -0.00000002
H          -1.55862190        0.86874908        0.42324166
H          -1.55862190       -0.86874909       -0.42324161
H           1.55862191        0.86874906       -0.42324168
H           1.55862193       -0.86874905        0.42324163
6
MD Time 2680.00
C          -0.98078935       -0.00000000        0.00000002
C           0.98078935        0.00000000       -0.00000002
H          -1.56171557        0.87037832        0.42715091
H          -1.56171557       -0.87037833       -0.42715086
H           1.56171558        0.87037830       -0.42715093
H           1.56171559       -0.87037829        0.42715088
6
MD Time 2690.00
C          -0.98065327       -0.00000000        0.00000002
C           0.98065327        0.00000000       -0.00000002
H          -1.56422912        0.87167494        0.43049537
H          -1.56422912       -0.87167496       -0.43049532
H           1.56422912        0.87167493       -0.43049539
H           1.56422914       -0.87167492        0.43049534
6
MD Time 2700.00
C          -0.98035342       -0.00000000        0.00000002
C           0.98035342        0.00000000       -0.00000002
H          -1.56613049        0.87259619        0.43324779
H          -1.56613050       -0.87259620       -0.43324774
H           1.56613050        0.87259618       -0.43324782
H           1.56613051       -0.87259617        0.43324777
6
MD Time 2710.00
C          -0.97989427       -0.00000000        0.00000002
C           0.97989427        0.00000000       -0.00000002
H          -1.56739436        0.87310929        0.43538640
H          -1.56739437       -0.87310931       -0.43538635
H           1.56739437        0.87310929       -0.43538642
H           1.56739438       -0.87310928        0.43538637
6
MD Time 2720.00
C          -0.97927917       -0.00000000        0.00000002
C           0.97927917        0.00000000       -0.00000002
H          -1.56800221        0.87319165        0.43689500
H          -1.56800221       -0.87319166       -0.43689495
H           1.56800221        0.87319164       -0.43689503
H           1.56800222       -0.87319163        0.43689498
6
MD Time 2730.00
C          -0.97851027       -0.00000000        0.00000002
C           0.97851027        0.00000000       -0.00000002
H          -1.56794240        0.87283081        0.43776311
H          -1.56794241       -0.87283082       -0.43776307
H           1.56794240        0.87283081       -0.43776314
H           1.56794242       -0.87283080        0.43776309
6
MD Time 2740.00
C          -0.97758856       -0.00000000        0.00000002
C           0.97758856        0.00000000       -0.00000002
H          -1.56721024        0.87202456        0.43798598
H          -1.56721024       -0.87202457       -0.43798593
H           1.56721024        0.87202455       -0.43798601
H           1.56721025       -0.87202454        0.43798596
6
MD Time 2750.00
C          -0.97651383       -0.00000000        0.00000002
C           0.97651383        0.00000000       -0.00000002
H          -1.56580797        0.87078085        0.43756462
H          -1.56580797       -0.87078086       -0.43756457
H           1.56580796        0.87078085       -0.43756465
H           1.56580798       -0.87078084        0.43756460
6
MD Time 2760.00
C          -0.97528473       -0.00000000        0.00000002
C           0.97528473        0.00000000       -0.00000002
H          -1.56374478        0.86911781        0.43650581
H          -1.56374479       -0.86911782       -0.43650577
H           1.56374478        0.86911781       -0.43650585
H           1.56374480       -0.86911780        0.43650580
6
MD Time 2770.00
C          -0.97389869       -0.00000000        0.00000002
C           0.97389869        0.00000000       -0.00000002
H          -1.56103685        0.86706368        0.43482210
H          -1.56103685       -0.86706370       -0.43482206
H           1.56103684        0.86706369       -0.43482214
H           1.56103686       -0.86706368        0.43482209
6
MD Time 2780.00
C          -0.97235200       -0.00000000        0.00000002
C           0.97235200        0.00000000       -0.00000002
H          -1.55770722        0.86465673        0.43253170
H          -1.55770723       -0.86465674       -0.43253166
H           1.55770722        0.86465674       -0.43253174
H           1.55770723       -0.86465672        0.43253170
6
MD Time 2790.00
C          -0.97063980       -0.00000000        0.00000002
C           0.97063980        0.00000000       -0.00000002
H          -1.55378583        0.86194508        0.42965841
H          -1.55378584       -0.86194509       -0.42965837
H           1.55378582        0.86194508       -0.42965845
H           1.55378584       -0.86194507        0.42965841
6
MD Time 2800.00
C          -0.96875610       -0.00000000        0.00000002
C           0.96875610        0.00000000       -0.00000002
H          -1.54930929        0.85898646        0.42623144
H          -1.54930930       -0.85898647       -0.42623139
H           1.54930928        0.85898647       -0.42623148
H           1.54930930       -0.85898645        0.42623143
6
MD Time 2810.00
C          -0.96669383       -0.00000000        0.00000002
C           0.96669383        0.00000000       -0.00000002
H          -1.54432071        0.85584784        0.42228514
H          -1.54432072       -0.85584785       -0.42228509
H           1.54432070        0.85584785       -0.42228518
H           1.54432071       -0.85584783        0.42228513
6
MD Time 2820.00
C          -0.96444490       -0.00000000        0.00000002
C           0.96444490        0.00000000       -0.00000002
H          -1.53886932        0.85260482        0.41785865
H          -1.53886932       -0.85260483       -0.41785861
H           1.53886930        0.85260484       -0.41785869
H           1.53886932       -0.85260482        0.41785865
6
MD Time 2830.00
C          -0.96200032       -0.00000000        0.00000002
C           0.96200032        0.00000000       -0.00000002
H          -1.53300998        0.84934085        0.41299542
H          -1.53300998       -0.84934086       -0.41299538
H           1.53300996        0.84934086       -0.41299547
H           1.53300998       -0.84934085        0.41299542
6
MD Time 2840.00
C          -0.95935027       -0.00000000        0.00000002
C           0.95935027        0.00000000       -0.00000002
H          -1.52680249        0.84614607        0.40774254
H          -1.52680250       -0.84614607       -0.40774250
H           1.52680247        0.84614608       -0.40774259
H           1.52680249       -0.84614606        0.40774254
6
MD Time 2850.00
C          -0.95648431       -0.00000000        0.00000002
C           0.95648431        0.00000000       -0.00000002
H          -1.52031067        0.84311586        0.40214992
H          -1.52031068       -0.84311587       -0.40214988
H           1.52031066        0.84311587       -0.40214996
H           1.52031068       -0.84311586        0.40214992
6
MD Time 2860.00
C          -0.95339158       -0.00000000        0.00000001
C           0.95339159        0.00000000       -0.00000001
H          -1.51360123        0.84034905        0.39626931
H          -1.51360124       -0.84034906       -0.39626926
H           1.51360121        0.84034906       -0.39626935
H           1.51360123       -0.84034905        0.39626931
6
MD Time 2870.00
C          -0.95006103       -0.00000000        0.00000001
C           0.95006103        0.00000000       -0.00000001
H          -1.50674233        0.83794562        0.39015313
H          -1.50674234       -0.83794563       -0.39015309
H           1.50674232        0.83794563       -0.39015318
H           1.50674234       -0.83794562        0.39015313
6
MD Time 2880.00
C          -0.94648172       -0.00000000        0.00000001
C           0.94648172        0.00000000       -0.00000001
H          -1.49980201        0.83600412        0.38385319
H          -1.49980202       -0.83600412       -0.38385315
H           1.49980199        0.83600413       -0.38385323
H           1.49980201       -0.83600412        0.38385319
6
MD Time 2890.00
C          -0.94264315       -0.00000000        0.00000001
C           0.94264315        0.00000000       -0.00000001
H          -1.49284629        0.83461869        0.37741922
H          -1.49284630       -0.83461870       -0.37741918
H           1.49284627        0.83461870       -0.37741927
H           1.49284629       -0.83461869        0.37741923
6
MD Time 2900.00
C          -0.93853561       -0.00000000        0.00000001
C           0.93853561        0.00000000       -0.00000001
H          -1.48593727        0.83387593        0.37089750
H          -1.48593728       -0.83387594       -0.37089746
H           1.48593725        0.83387594       -0.37089754
H           1.48593727       -0.83387593        0.37089750
6
MD Time 2910.00
C          -0.93415055       -0.00000000        0.00000001
C           0.93415055        0.00000000       -0.00000001
H          -1.47913112        0.83385158        0.36432940
H          -1.47913113       -0.83385158       -0.36432936
H           1.47913110        0.83385158       -0.36432944
H           1.47913112       -0.83385157        0.36432940
6
MD Time 2920.00
C          -0.92948092       -0.00000000        0.00000001
C           0.92948092        0.00000000       -0.00000001
H          -1.47247613        0.83460736        0.35775016
H          -1.47247615       -0.83460736       -0.35775011
H           1.47247612        0.83460736       -0.35775020
H           1.47247614       -0.83460735        0.35775016
6
MD Time 2930.00
C          -0.92452151       -0.00000000        0.00000001
C           0.92452151        0.00000000       -0.00000001
H          -1.46601106        0.83618812        0.35118785
H          -1.46601107       -0.83618813       -0.35118781
H           1.46601104        0.83618813       -0.35118789
H           1.46601106       -0.83618811        0.35118785
6
MD Time 2940.00
C          -0.91926920       -0.00000000        0.00000001
C           0.91926920        0.00000000       -0.00000001
H          -1.45976365        0.83861947        0.34466270
H          -1.45976367       -0.83861948       -0.34466266
H           1.45976364        0.83861948       -0.34466274
H           1.45976366       -0.83861946        0.34466270
6
MD Time 2950.00
C          -0.91372320       -0.00000000        0.00000001
C           0.91372320        0.00000000       -0.00000001
H          -1.45374981        0.84190611        0.33818678
H          -1.45374982       -0.84190612       -0.33818674
H           1.45374979        0.84190612       -0.33818682
H           1.45374981       -0.84190610        0.33818678
6
MD Time 2960.00
C          -0.90788513       -0.00000000        0.00000001
C           0.90788513        0.00000000       -0.00000001
H          -1.44797306        0.84603106        0.33176412
H          -1.44797307       -0.84603106       -0.33176408
H           1.44797305        0.84603106       -0.33176416
H           1.44797307       -0.84603104        0.33176412
6
MD Time 2970.00
C          -0.90175908       -0.00000000        0.00000001
C           0.90175908        0.00000000       -0.00000001
H          -1.44242479        0.85095574        0.32539123
H          -1.44242480       -0.85095574       -0.32539119
H           1.44242477        0.85095574       -0.32539126
H           1.44242479       -0.85095572        0.32539123
6
MD Time 2980.00
C          -0.89535155       -0.00000000        0.00000001
C           0.89535155        0.00000000       -0.00000001
H          -1.43708483        0.85662107        0.31905799
H          -1.43708485       -0.85662108       -0.31905795
H           1.43708482        0.85662107       -0.31905803
H           1.43708484       -0.85662106        0.31905799
6
MD Time 2990.00
C          -0.88867130       -0.00000000        0.00000001
C           0.88867130        0.00000000       -0.00000001
H          -1.43192270        0.86294934        0.31274885
H          -1.43192271       -0.86294935       -0.31274881
H           1.43192268        0.86294934       -0.31274888
H           1.43192270       -0.86294932        0.31274885
