6
MD Time 0.00
C          -1.00424993        0.00000000        0.00000000
C           1.00424993        0.00000000        0.00000000
H          -1.57974221        0.85087473        0.35244385
H          -1.57974221       -0.85087473       -0.35244385
H           1.57974221        0.85087473       -0.35244385
H           1.57974221       -0.85087473        0.35244385
6
MD Time 10.00
C          -1.00413253       -0.00000000        0.00000000
C           1.00413253       -0.00000000       -0.00000000
H          -1.57960191        0.85102198        0.35240053
H          -1.57960191       -0.85102198       -0.35240053
H           1.57960191        0.85102198       -0.35240053
H           1.57960191       -0.85102198        0.35240053
6
MD Time 20.00
C          -1.00378037       -0.00000000        0.00000000
C           1.00378037       -0.00000000       -0.00000000
H          -1.57918043        0.85146201        0.35226970
H          -1.57918043       -0.85146201       -0.35226970
H           1.57918043        0.85146201       -0.35226970
H           1.57918043       -0.85146201        0.35226970
6
MD Time 30.00
C          -1.00319349       -0.00000000        0.00000000
C           1.00319349       -0.00000000       -0.00000000
H          -1.57847600        0.85218963        0.35204875
H          -1.57847600       -0.85218963       -0.35204875
H           1.57847600        0.85218963       -0.35204875
H           1.57847600       -0.85218963        0.35204875
6
MD Time 40.00
C          -1.00237197       -0.00000000        0.00000000
C           1.00237197       -0.00000000       -0.00000000
H          -1.57748578        0.85319634        0.35173341
H          -1.57748578       -0.85319634       -0.35173341
H           1.57748578        0.85319634       -0.35173341
H           1.57748578       -0.85319634        0.35173341
6
MD Time 50.00
C          -1.00131589       -0.00000000        0.00000000
C           1.00131589       -0.00000000       -0.00000000
H          -1.57620592        0.85447050        0.35131782
H          -1.57620592       -0.85447050       -0.35131782
H           1.57620593        0.85447050       -0.35131782
H           1.57620593       -0.85447050        0.35131782
6
MD Time 60.00
C          -1.00002530       -0.00000000        0.00000000
C           1.00002530       -0.00000000       -0.00000000
H          -1.57463172        0.85599755        0.35079465
H          -1.57463172       -0.85599755       -0.35079465
H           1.57463173        0.85599755       -0.35079465
H           1.57463173       -0.85599755        0.35079465
6
MD Time 70.00
C          -0.99850023       -0.00000000        0.00000000
C           0.99850023       -0.00000000       -0.00000000
H          -1.57275781        0.85776033        0.35015525
H          -1.57275781       -0.85776033       -0.35015525
H           1.57275782        0.85776033       -0.35015525
H           1.57275782       -0.85776033        0.35015525
6
MD Time 80.00
C          -0.99674063       -0.00000000        0.00000000
C           0.99674063       -0.00000000       -0.00000000
H          -1.57057832        0.85973943        0.34938982
H          -1.57057832       -0.85973943       -0.34938982
H           1.57057833        0.85973943       -0.34938982
H           1.57057833       -0.85973943        0.34938982
6
MD Time 90.00
C          -0.99474631       -0.00000000        0.00000000
C           0.99474631       -0.00000000       -0.00000000
H          -1.56808714        0.86191356        0.34848759
H          -1.56808714       -0.86191356       -0.34848759
H           1.56808715        0.86191355       -0.34848758
H           1.56808715       -0.86191355        0.34848758
6
MD Time 100.00
C          -0.99251698       -0.00000000        0.00000000
C           0.99251698       -0.00000000       -0.00000000
H          -1.56527808        0.86425995        0.34743701
H          -1.56527808       -0.86425995       -0.34743701
H           1.56527809        0.86425995       -0.34743700
H           1.56527809       -0.86425995        0.34743700
6
MD Time 110.00
C          -0.99005214       -0.00000000        0.00000000
C           0.99005214       -0.00000000       -0.00000000
H          -1.56214517        0.86675482        0.34622595
H          -1.56214517       -0.86675482       -0.34622595
H           1.56214519        0.86675481       -0.34622594
H           1.56214519       -0.86675481        0.34622594
6
MD Time 120.00
C          -0.98735108       -0.00000000        0.00000000
C           0.98735107       -0.00000000       -0.00000000
H          -1.55868285        0.86937373        0.34484193
H          -1.55868285       -0.86937373       -0.34484193
H           1.55868287        0.86937373       -0.34484191
H           1.55868287       -0.86937373        0.34484192
6
MD Time 130.00
C          -0.98441284       -0.00000000        0.00000000
C           0.98441283       -0.00000000       -0.00000000
H          -1.55488617        0.87209208        0.34327225
H          -1.55488617       -0.87209208       -0.34327225
H           1.55488619        0.87209207       -0.34327224
H           1.55488619       -0.87209207        0.34327224
6
MD Time 140.00
C          -0.98123618       -0.00000000        0.00000000
C           0.98123618       -0.00000000       -0.00000000
H          -1.55075103        0.87488545        0.34150425
H          -1.55075103       -0.87488545       -0.34150425
H           1.55075106        0.87488545       -0.34150423
H           1.55075106       -0.87488545        0.34150424
6
MD Time 150.00
C          -0.97781957       -0.00000000        0.00000000
C           0.97781957       -0.00000000       -0.00000000
H          -1.54627436        0.87773004        0.33952542
H          -1.54627436       -0.87773004       -0.33952543
H           1.54627438        0.87773004       -0.33952541
H           1.54627438       -0.87773004        0.33952541
6
MD Time 160.00
C          -0.97416113       -0.00000000        0.00000000
C           0.97416112       -0.00000000       -0.00000000
H          -1.54145425        0.88060300        0.33732361
H          -1.54145425       -0.88060300       -0.33732361
H           1.54145427        0.88060300       -0.33732359
H           1.54145427       -0.88060300        0.33732359
6
MD Time 170.00
C          -0.97025863       -0.00000000        0.00000000
C           0.97025863       -0.00000000       -0.00000000
H          -1.53629013        0.88348276        0.33488710
H          -1.53629013       -0.88348276       -0.33488710
H           1.53629015        0.88348275       -0.33488708
H           1.53629015       -0.88348275        0.33488708
6
MD Time 180.00
C          -0.96610951       -0.00000000        0.00000000
C           0.96610950       -0.00000000       -0.00000000
H          -1.53078286        0.88634930        0.33220480
H          -1.53078286       -0.88634930       -0.33220481
H           1.53078289        0.88634930       -0.33220478
H           1.53078289       -0.88634930        0.33220478
6
MD Time 190.00
C          -0.96171080       -0.00000000        0.00000000
C           0.96171080       -0.00000000       -0.00000000
H          -1.52493485        0.88918445        0.32926629
H          -1.52493485       -0.88918445       -0.32926629
H           1.52493488        0.88918444       -0.32926627
H           1.52493488       -0.88918444        0.32926627
6
MD Time 200.00
C          -0.95705921       -0.00000000        0.00000000
C           0.95705921       -0.00000000       -0.00000000
H          -1.51875006        0.89197203        0.32606191
H          -1.51875006       -0.89197203       -0.32606192
H           1.51875009        0.89197202       -0.32606189
H           1.51875009       -0.89197202        0.32606189
6
MD Time 210.00
C          -0.95215105       -0.00000000        0.00000000
C           0.95215104       -0.00000000       -0.00000000
H          -1.51223409        0.89469806        0.32258284
H          -1.51223409       -0.89469806       -0.32258284
H           1.51223412        0.89469805       -0.32258281
H           1.51223412       -0.89469805        0.32258281
6
MD Time 220.00
C          -0.94698228       -0.00000000        0.00000000
C           0.94698228       -0.00000000       -0.00000000
H          -1.50539416        0.89735084        0.31882109
H          -1.50539416       -0.89735084       -0.31882110
H           1.50539420        0.89735084       -0.31882106
H           1.50539420       -0.89735084        0.31882106
6
MD Time 230.00
C          -0.94154855       -0.00000000        0.00000000
C           0.94154854       -0.00000000       -0.00000000
H          -1.49823911        0.89992105        0.31476958
H          -1.49823911       -0.89992105       -0.31476958
H           1.49823914        0.89992105       -0.31476954
H           1.49823914       -0.89992104        0.31476955
6
MD Time 240.00
C          -0.93584517       -0.00000000        0.00000000
C           0.93584516       -0.00000000       -0.00000000
H          -1.49077930        0.90240174        0.31042208
H          -1.49077930       -0.90240174       -0.31042208
H           1.49077933        0.90240173       -0.31042204
H           1.49077933       -0.90240173        0.31042204
6
MD Time 250.00
C          -0.92986719       -0.00000000        0.00000000
C           0.92986719       -0.00000000       -0.00000000
H          -1.48302661        0.90478831        0.30577322
H          -1.48302661       -0.90478831       -0.30577322
H           1.48302665        0.90478830       -0.30577318
H           1.48302665       -0.90478830        0.30577318
6
MD Time 260.00
C          -0.92360943       -0.00000000        0.00000000
C           0.92360942       -0.00000000       -0.00000000
H          -1.47499431        0.90707846        0.30081847
H          -1.47499431       -0.90707846       -0.30081847
H           1.47499434        0.90707845       -0.30081842
H           1.47499434       -0.90707845        0.30081842
6
MD Time 270.00
C          -0.91706650       -0.00000000        0.00000000
C           0.91706650       -0.00000000       -0.00000000
H          -1.46669692        0.90927204        0.29555406
H          -1.46669692       -0.90927204       -0.29555406
H           1.46669695        0.90927203       -0.29555402
H           1.46669695       -0.90927203        0.29555402
6
MD Time 280.00
C          -0.91023291       -0.00000000        0.00000000
C           0.91023290       -0.00000000       -0.00000000
H          -1.45815010        0.91137089        0.28997698
H          -1.45815010       -0.91137089       -0.28997698
H           1.45815014        0.91137088       -0.28997693
H           1.45815014       -0.91137088        0.28997693
6
MD Time 290.00
C          -0.90310308       -0.00000000        0.00000000
C           0.90310307       -0.00000000       -0.00000000
H          -1.44937051        0.91337863        0.28408485
H          -1.44937051       -0.91337863       -0.28408485
H           1.44937055        0.91337862       -0.28408480
H           1.44937055       -0.91337862        0.28408480
6
MD Time 300.00
C          -0.89567149       -0.00000000        0.00000000
C           0.89567148       -0.00000000       -0.00000000
H          -1.44037557        0.91530041        0.27787592
H          -1.44037557       -0.91530041       -0.27787592
H           1.44037561        0.91530040       -0.27787586
H           1.44037561       -0.91530040        0.27787587
6
MD Time 310.00
C          -0.88793270       -0.00000000        0.00000000
C           0.88793270       -0.00000000       -0.00000000
H          -1.43118332        0.91714261        0.27134895
H          -1.43118332       -0.91714261       -0.27134895
H           1.43118336        0.91714261       -0.27134889
H           1.43118336       -0.91714260        0.27134890
6
MD Time 320.00
C          -0.87988154       -0.00000000        0.00000000
C           0.87988153       -0.00000000       -0.00000000
H          -1.42181219        0.91891250        0.26450318
H          -1.42181219       -0.91891250       -0.26450318
H           1.42181223        0.91891250       -0.26450312
H           1.42181223       -0.91891250        0.26450313
6
MD Time 330.00
C          -0.87151314       -0.00000000        0.00000000
C           0.87151314       -0.00000000       -0.00000000
H          -1.41228078        0.92061789        0.25733827
H          -1.41228078       -0.92061789       -0.25733827
H           1.41228081        0.92061789       -0.25733821
H           1.41228081       -0.92061789        0.25733821
6
MD Time 340.00
C          -0.86282318       -0.00000000        0.00000000
C           0.86282317       -0.00000000       -0.00000000
H          -1.40260763        0.92226674        0.24985423
H          -1.40260763       -0.92226674       -0.24985423
H           1.40260766        0.92226673       -0.24985416
H           1.40260766       -0.92226673        0.24985417
6
MD Time 350.00
C          -0.85380795       -0.00000000        0.00000000
C           0.85380795       -0.00000000       -0.00000000
H          -1.39281102        0.92386675        0.24205141
H          -1.39281102       -0.92386675       -0.24205141
H           1.39281105        0.92386674       -0.24205134
H           1.39281105       -0.92386674        0.24205135
6
MD Time 360.00
C          -0.84446462       -0.00000000        0.00000000
C           0.84446461       -0.00000000       -0.00000000
H          -1.38290871        0.92542497        0.23393049
H          -1.38290871       -0.92542497       -0.23393050
H           1.38290874        0.92542497       -0.23393042
H           1.38290874       -0.92542496        0.23393043
6
MD Time 370.00
C          -0.83479139       -0.00000000        0.00000000
C           0.83479139       -0.00000000       -0.00000000
H          -1.37291773        0.92694739        0.22549248
H          -1.37291773       -0.92694739       -0.22549248
H           1.37291776        0.92694739       -0.22549240
H           1.37291776       -0.92694738        0.22549241
6
MD Time 380.00
C          -0.82478779       -0.00000000        0.00000000
C           0.82478779       -0.00000000       -0.00000000
H          -1.36285420        0.92843854        0.21673873
H          -1.36285420       -0.92843854       -0.21673874
H           1.36285422        0.92843854       -0.21673866
H           1.36285422       -0.92843854        0.21673866
6
MD Time 390.00
C          -0.81445492       -0.00000000        0.00000000
C           0.81445491       -0.00000000       -0.00000000
H          -1.35273309        0.92990118        0.20767107
H          -1.35273309       -0.92990118       -0.20767107
H           1.35273312        0.92990118       -0.20767099
H           1.35273312       -0.92990118        0.20767100
6
MD Time 400.00
C          -0.80379576       -0.00000000        0.00000000
C           0.80379576       -0.00000000       -0.00000000
H          -1.34256814        0.93133593        0.19829180
H          -1.34256814       -0.93133593       -0.19829181
H           1.34256817        0.93133593       -0.19829172
H           1.34256817       -0.93133593        0.19829173
6
MD Time 410.00
C          -0.79281558       -0.00000000        0.00000000
C           0.79281557       -0.00000000       -0.00000000
H          -1.33237166        0.93274105        0.18860390
H          -1.33237166       -0.93274105       -0.18860391
H           1.33237169        0.93274106       -0.18860382
H           1.33237169       -0.93274106        0.18860382
6
MD Time 420.00
C          -0.78152228       -0.00000000        0.00000000
C           0.78152228       -0.00000000       -0.00000000
H          -1.32215450        0.93411226        0.17861113
H          -1.32215450       -0.93411226       -0.17861113
H           1.32215452        0.93411227       -0.17861104
H           1.32215452       -0.93411227        0.17861105
6
MD Time 430.00
C          -0.76992693       -0.00000000        0.00000000
C           0.76992693       -0.00000000       -0.00000000
H          -1.31192596        0.93544261        0.16831820
H          -1.31192596       -0.93544261       -0.16831821
H           1.31192598        0.93544262       -0.16831811
H           1.31192598       -0.93544262        0.16831812
6
MD Time 440.00
C          -0.75804425       -0.00000000        0.00000000
C           0.75804425       -0.00000000       -0.00000000
H          -1.30169388        0.93672248        0.15773102
H          -1.30169388       -0.93672248       -0.15773102
H           1.30169389        0.93672249       -0.15773093
H           1.30169389       -0.93672249        0.15773093
6
MD Time 450.00
C          -0.74589321       -0.00000000        0.00000000
C           0.74589321       -0.00000000       -0.00000000
H          -1.29146463        0.93793966        0.14685684
H          -1.29146462       -0.93793966       -0.14685684
H           1.29146464        0.93793967       -0.14685674
H           1.29146464       -0.93793967        0.14685675
6
MD Time 460.00
C          -0.73349773       -0.00000000        0.00000000
C           0.73349772        0.00000000       -0.00000000
H          -1.28124330        0.93907951        0.13570450
H          -1.28124330       -0.93907951       -0.13570450
H           1.28124332        0.93907952       -0.13570440
H           1.28124332       -0.93907952        0.13570441
6
MD Time 470.00
C          -0.72088737       -0.00000000        0.00000000
C           0.72088737        0.00000000       -0.00000000
H          -1.27103391        0.94012527        0.12428466
H          -1.27103391       -0.94012527       -0.12428467
H           1.27103392        0.94012528       -0.12428457
H           1.27103392       -0.94012528        0.12428457
6
MD Time 480.00
C          -0.70809821       -0.00000000        0.00000000
C           0.70809821        0.00000000       -0.00000000
H          -1.26083962        0.94105840        0.11260999
H          -1.26083962       -0.94105840       -0.11260999
H           1.26083963        0.94105841       -0.11260989
H           1.26083963       -0.94105841        0.11260989
6
MD Time 490.00
C          -0.69517369       -0.00000000        0.00000000
C           0.69517369        0.00000000       -0.00000000
H          -1.25066313        0.94185908        0.10069533
H          -1.25066313       -0.94185908       -0.10069533
H           1.25066314        0.94185910       -0.10069523
H           1.25066314       -0.94185910        0.10069523
6
MD Time 500.00
C          -0.68216553       -0.00000000        0.00000000
C           0.68216553        0.00000000       -0.00000000
H          -1.24050706        0.94250678        0.08855789
H          -1.24050706       -0.94250678       -0.08855789
H           1.24050707        0.94250679       -0.08855779
H           1.24050707       -0.94250679        0.08855779
6
MD Time 510.00
C          -0.66913471       -0.00000000        0.00000000
C           0.66913471        0.00000000       -0.00000000
H          -1.23037445        0.94298083        0.07621734
H          -1.23037445       -0.94298083       -0.07621735
H           1.23037445        0.94298085       -0.07621724
H           1.23037445       -0.94298085        0.07621724
6
MD Time 520.00
C          -0.65615232       -0.00000000        0.00000000
C           0.65615232        0.00000000       -0.00000000
H          -1.22026924        0.94326119        0.06369590
H          -1.22026924       -0.94326119       -0.06369590
H           1.22026924        0.94326121       -0.06369579
H           1.22026924       -0.94326121        0.06369579
6
MD Time 530.00
C          -0.64330043       -0.00000000        0.00000000
C           0.64330043        0.00000000       -0.00000000
H          -1.21019693        0.94332915        0.05101830
H          -1.21019693       -0.94332915       -0.05101831
H           1.21019692        0.94332917       -0.05101819
H           1.21019692       -0.94332917        0.05101820
6
MD Time 540.00
C          -0.63067265       -0.00000000        0.00000000
C           0.63067265        0.00000000       -0.00000000
H          -1.20016518        0.94316814        0.03821182
H          -1.20016518       -0.94316814       -0.03821182
H           1.20016518        0.94316815       -0.03821171
H           1.20016518       -0.94316815        0.03821171
6
MD Time 550.00
C          -0.61837440       -0.00000000        0.00000000
C           0.61837440        0.00000000       -0.00000000
H          -1.19018450        0.94276451        0.02530609
H          -1.19018450       -0.94276451       -0.02530610
H           1.19018449        0.94276452       -0.02530598
H           1.19018449       -0.94276452        0.02530599
6
MD Time 560.00
C          -0.60652270       -0.00000000        0.00000000
C           0.60652270        0.00000000       -0.00000000
H          -1.18026891        0.94210839        0.01233297
H          -1.18026891       -0.94210839       -0.01233297
H           1.18026890        0.94210840       -0.01233286
H           1.18026890       -0.94210840        0.01233286
6
MD Time 570.00
C          -0.59524525       -0.00000000        0.00000000
C           0.59524526        0.00000000       -0.00000000
H          -1.17043665        0.94119450       -0.00067375
H          -1.17043665       -0.94119450        0.00067375
H           1.17043664        0.94119452        0.00067386
H           1.17043664       -0.94119452       -0.00067386
6
MD Time 580.00
C          -0.58467870       -0.00000000        0.00000000
C           0.58467871        0.00000000       -0.00000000
H          -1.16071081        0.94002297       -0.01367862
H          -1.16071081       -0.94002297        0.01367861
H           1.16071079        0.94002299        0.01367873
H           1.16071079       -0.94002299       -0.01367873
6
MD Time 590.00
C          -0.57496581       -0.00000000        0.00000000
C           0.57496581        0.00000000       -0.00000000
H          -1.15111992        0.93860012       -0.02664493
H          -1.15111991       -0.93860012        0.02664493
H           1.15111989        0.93860013        0.02664505
H           1.15111989       -0.93860013       -0.02664505
6
MD Time 600.00
C          -0.56625151       -0.00000000        0.00000000
C           0.56625151        0.00000000       -0.00000000
H          -1.14169847        0.93693923       -0.03953519
H          -1.14169847       -0.93693923        0.03953519
H           1.14169845        0.93693924        0.03953531
H           1.14169845       -0.93693925       -0.03953530
6
MD Time 610.00
C          -0.55867787       -0.00000000        0.00000000
C           0.55867787        0.00000000       -0.00000000
H          -1.13248730        0.93506128       -0.05231154
H          -1.13248730       -0.93506128        0.05231154
H           1.13248727        0.93506129        0.05231166
H           1.13248727       -0.93506129       -0.05231165
6
MD Time 620.00
C          -0.55237798       -0.00000000        0.00000000
C           0.55237799        0.00000000       -0.00000000
H          -1.12353379        0.93299555       -0.06493637
H          -1.12353379       -0.93299555        0.06493637
H           1.12353376        0.93299557        0.06493649
H           1.12353376       -0.93299557       -0.06493649
6
MD Time 630.00
C          -0.54746939       -0.00000000        0.00000000
C           0.54746939        0.00000000       -0.00000000
H          -1.11489195        0.93078019       -0.07737287
H          -1.11489195       -0.93078019        0.07737287
H           1.11489192        0.93078020        0.07737299
H           1.11489192       -0.93078020       -0.07737299
6
MD Time 640.00
C          -0.54404732       -0.00000000        0.00000000
C           0.54404732        0.00000000       -0.00000000
H          -1.10662222        0.92846253       -0.08958565
H          -1.10662222       -0.92846253        0.08958565
H           1.10662218        0.92846254        0.08958577
H           1.10662218       -0.92846254       -0.08958577
6
MD Time 650.00
C          -0.54217872       -0.00000000        0.00000000
C           0.54217873        0.00000000       -0.00000000
H          -1.09879103        0.92609925       -0.10154136
H          -1.09879103       -0.92609925        0.10154136
H           1.09879099        0.92609926        0.10154148
H           1.09879099       -0.92609926       -0.10154148
6
MD Time 660.00
C          -0.54189764       -0.00000000        0.00000000
C           0.54189765        0.00000000       -0.00000000
H          -1.09147011        0.92375614       -0.11320934
H          -1.09147011       -0.92375614        0.11320934
H           1.09147008        0.92375616        0.11320946
H           1.09147008       -0.92375616       -0.11320946
6
MD Time 670.00
C          -0.54320267       -0.00000000        0.00000000
C           0.54320268        0.00000000       -0.00000000
H          -1.08473548        0.92150751       -0.12456222
H          -1.08473548       -0.92150751        0.12456222
H           1.08473544        0.92150752        0.12456234
H           1.08473544       -0.92150752       -0.12456234
6
MD Time 680.00
C          -0.54605681       -0.00000000        0.00000000
C           0.54605682        0.00000000       -0.00000000
H          -1.07866603        0.91943495       -0.13557643
H          -1.07866603       -0.91943495        0.13557643
H           1.07866599        0.91943496        0.13557655
H           1.07866599       -0.91943497       -0.13557655
6
MD Time 690.00
C          -0.55038980       -0.00000000        0.00000000
C           0.55038981        0.00000000       -0.00000000
H          -1.07334188        0.91762566       -0.14623266
H          -1.07334188       -0.91762566        0.14623266
H           1.07334184        0.91762567        0.14623278
H           1.07334184       -0.91762567       -0.14623278
6
MD Time 700.00
C          -0.55610262       -0.00000000        0.00000000
C           0.55610263        0.00000000       -0.00000000
H          -1.06884233        0.91616991       -0.15651607
H          -1.06884233       -0.91616991        0.15651607
H           1.06884229        0.91616992        0.15651619
H           1.06884229       -0.91616991       -0.15651619
6
MD Time 710.00
C          -0.56307352       -0.00000000        0.00000000
C           0.56307353        0.00000000       -0.00000000
H          -1.06524359        0.91515803       -0.16641628
H          -1.06524359       -0.91515803        0.16641629
H           1.06524354        0.91515804        0.16641641
H           1.06524354       -0.91515804       -0.16641641
6
MD Time 720.00
C          -0.57116485       -0.00000000        0.00000000
C           0.57116486        0.00000000       -0.00000000
H          -1.06261631        0.91467674       -0.17592714
H          -1.06261631       -0.91467674        0.17592714
H           1.06261626        0.91467675        0.17592726
H           1.06261626       -0.91467675       -0.17592726
6
MD Time 730.00
C          -0.58023001       -0.00000000        0.00000000
C           0.58023001        0.00000000       -0.00000000
H          -1.06102312        0.91480508       -0.18504607
H          -1.06102312       -0.91480508        0.18504607
H           1.06102308        0.91480508        0.18504619
H           1.06102308       -0.91480508       -0.18504619
6
MD Time 740.00
C          -0.59011980       -0.00000000        0.00000000
C           0.59011981        0.00000000       -0.00000000
H          -1.06051633        0.91561023       -0.19377327
H          -1.06051633       -0.91561023        0.19377327
H           1.06051629        0.91561023        0.19377339
H           1.06051629       -0.91561023       -0.19377339
6
MD Time 750.00
C          -0.60068787       -0.00000000        0.00000000
C           0.60068788        0.00000000       -0.00000000
H          -1.06113590        0.91714349       -0.20211057
H          -1.06113590       -0.91714349        0.20211058
H           1.06113585        0.91714349        0.20211069
H           1.06113585       -0.91714349       -0.20211070
6
MD Time 760.00
C          -0.61179497       -0.00000000        0.00000000
C           0.61179498        0.00000000       -0.00000000
H          -1.06290794        0.91943676       -0.21006026
H          -1.06290794       -0.91943676        0.21006026
H           1.06290789        0.91943676        0.21006038
H           1.06290789       -0.91943676       -0.21006038
6
MD Time 770.00
C          -0.62331194       -0.00000000        0.00000000
C           0.62331195        0.00000000       -0.00000000
H          -1.06584383        0.92249984       -0.21762380
H          -1.06584383       -0.92249984        0.21762380
H           1.06584379        0.92249984        0.21762392
H           1.06584379       -0.92249984       -0.21762392
6
MD Time 780.00
C          -0.63512160       -0.00000000        0.00000000
C           0.63512161        0.00000000       -0.00000000
H          -1.06994002        0.92631887       -0.22480076
H          -1.06994002       -0.92631888        0.22480076
H           1.06993997        0.92631887        0.22480088
H           1.06993997       -0.92631887       -0.22480089
6
MD Time 790.00
C          -0.64711964       -0.00000000        0.00000000
C           0.64711965        0.00000000       -0.00000000
H          -1.07517841        0.93085593       -0.23158793
H          -1.07517840       -0.93085594        0.23158794
H           1.07517836        0.93085593        0.23158805
H           1.07517836       -0.93085593       -0.23158806
6
MD Time 800.00
C          -0.65921475       -0.00000000        0.00000000
C           0.65921476        0.00000000       -0.00000000
H          -1.08152744        0.93604997       -0.23797877
H          -1.08152743       -0.93604997        0.23797877
H           1.08152739        0.93604996        0.23797889
H           1.08152739       -0.93604996       -0.23797889
6
MD Time 810.00
C          -0.67132818       -0.00000000        0.00000000
C           0.67132819        0.00000000       -0.00000000
H          -1.08894355        0.94181883       -0.24396318
H          -1.08894355       -0.94181883        0.24396318
H           1.08894351        0.94181882        0.24396330
H           1.08894351       -0.94181882       -0.24396331
6
MD Time 820.00
C          -0.68339287       -0.00000000        0.00000000
C           0.68339288        0.00000000       -0.00000000
H          -1.09737303        0.94806228       -0.24952767
H          -1.09737303       -0.94806228        0.24952768
H           1.09737299        0.94806228        0.24952780
H           1.09737298       -0.94806227       -0.24952780
6
MD Time 830.00
C          -0.69535242       -0.00000000        0.00000000
C           0.69535243        0.00000000       -0.00000000
H          -1.10675389        0.95466565       -0.25465580
H          -1.10675389       -0.95466565        0.25465580
H           1.10675385        0.95466564        0.25465592
H           1.10675385       -0.95466564       -0.25465593
6
MD Time 840.00
C          -0.70715994       -0.00000000        0.00000000
C           0.70715994        0.00000000       -0.00000000
H          -1.11701795        0.96150383       -0.25932879
H          -1.11701795       -0.96150383        0.25932880
H           1.11701791        0.96150381        0.25932892
H           1.11701791       -0.96150381       -0.25932892
6
MD Time 850.00
C          -0.71877681       -0.00000000        0.00000000
C           0.71877682        0.00000000       -0.00000000
H          -1.12809261        0.96844533       -0.26352638
H          -1.12809261       -0.96844533        0.26352638
H           1.12809257        0.96844531        0.26352650
H           1.12809257       -0.96844531       -0.26352651
6
MD Time 860.00
C          -0.73017163       -0.00000000        0.00000000
C           0.73017163        0.00000000       -0.00000000
H          -1.13990260        0.97535619       -0.26722763
H          -1.13990260       -0.97535619        0.26722764
H           1.13990256        0.97535617        0.26722776
H           1.13990256       -0.97535617       -0.26722777
6
MD Time 870.00
C          -0.74131912       -0.00000000        0.00000000
C           0.74131913        0.00000000       -0.00000000
H          -1.15237144        0.98210351       -0.27041181
H          -1.15237143       -0.98210351        0.27041182
H           1.15237140        0.98210349        0.27041194
H           1.15237140       -0.98210349       -0.27041194
6
MD Time 880.00
C          -0.75219922       -0.00000000        0.00000000
C           0.75219923        0.00000000       -0.00000000
H          -1.16542263        0.98855844       -0.27305912
H          -1.16542263       -0.98855844        0.27305912
H           1.16542260        0.98855842        0.27305924
H           1.16542260       -0.98855842       -0.27305925
6
MD Time 890.00
C          -0.76279624       -0.00000000        0.00000000
C           0.76279624        0.00000000       -0.00000000
H          -1.17898068        0.99459877       -0.27515138
H          -1.17898067       -0.99459877        0.27515138
H           1.17898065        0.99459874        0.27515150
H           1.17898065       -0.99459874       -0.27515151
6
MD Time 900.00
C          -0.77309814       -0.00000000        0.00000000
C           0.77309814        0.00000000       -0.00000000
H          -1.19297180        1.00011087       -0.27667259
H          -1.19297180       -1.00011087        0.27667259
H           1.19297178        1.00011084        0.27667271
H           1.19297178       -1.00011084       -0.27667272
6
MD Time 910.00
C          -0.78309594       -0.00000000        0.00000000
C           0.78309594        0.00000000       -0.00000000
H          -1.20732455        1.00499123       -0.27760933
H          -1.20732455       -1.00499123        0.27760934
H           1.20732453        1.00499121        0.27760946
H           1.20732453       -1.00499120       -0.27760947
6
MD Time 920.00
C          -0.79278316       -0.00000000        0.00000000
C           0.79278316        0.00000000       -0.00000000
H          -1.22197020        1.00914756       -0.27795112
H          -1.22197020       -1.00914756        0.27795113
H           1.22197018        1.00914753        0.27795124
H           1.22197018       -1.00914753       -0.27795125
6
MD Time 930.00
C          -0.80215538       -0.00000000        0.00000000
C           0.80215539        0.00000000       -0.00000000
H          -1.23684304        1.01249948       -0.27769056
H          -1.23684304       -1.01249948        0.27769057
H           1.23684303        1.01249945        0.27769068
H           1.23684303       -1.01249945       -0.27769069
6
MD Time 940.00
C          -0.81120987       -0.00000000        0.00000000
C           0.81120987        0.00000000       -0.00000000
H          -1.25188059        1.01497905       -0.27682353
H          -1.25188058       -1.01497905        0.27682354
H           1.25188057        1.01497902        0.27682365
H           1.25188057       -1.01497902       -0.27682366
6
MD Time 950.00
C          -0.81994522       -0.00000000        0.00000000
C           0.81994522        0.00000000       -0.00000000
H          -1.26702371        1.01653098       -0.27534922
H          -1.26702371       -1.01653098        0.27534923
H           1.26702370        1.01653095        0.27534934
H           1.26702370       -1.01653095       -0.27534935
6
MD Time 960.00
C          -0.82836109       -0.00000000        0.00000000
C           0.82836109        0.00000000       -0.00000000
H          -1.28221677        1.01711279       -0.27327016
H          -1.28221677       -1.01711279        0.27327017
H           1.28221676        1.01711276        0.27327028
H           1.28221676       -1.01711276       -0.27327029
6
MD Time 970.00
C          -0.83645795       -0.00000000        0.00000000
C           0.83645795        0.00000000       -0.00000000
H          -1.29740765        1.01669485       -0.27059218
H          -1.29740765       -1.01669485        0.27059219
H           1.29740764        1.01669481        0.27059230
H           1.29740764       -1.01669481       -0.27059231
6
MD Time 980.00
C          -0.84423688       -0.00000000        0.00000000
C           0.84423688        0.00000000       -0.00000000
H          -1.31254788        1.01526032       -0.26732437
H          -1.31254787       -1.01526032        0.26732438
H           1.31254788        1.01526029        0.26732449
H           1.31254788       -1.01526029       -0.26732450
6
MD Time 990.00
C          -0.85169935       -0.00000000        0.00000000
C           0.85169935        0.00000000       -0.00000000
H          -1.32759271        1.01280522       -0.26347903
H          -1.32759271       -1.01280522        0.26347903
H           1.32759271        1.01280518        0.26347914
H           1.32759271       -1.01280518       -0.26347915
6
MD Time 1000.00
C          -0.85884707       -0.00000000        0.00000000
C           0.85884706        0.00000000       -0.00000000
H          -1.34250124        1.00933828       -0.25907153
H          -1.34250124       -1.00933828        0.25907154
H           1.34250125        1.00933824        0.25907164
H           1.34250125       -1.00933824       -0.25907165
6
MD Time 1010.00
C          -0.86568180       -0.00000000        0.00000000
C           0.86568180        0.00000000       -0.00000000
H          -1.35723653        1.00488101       -0.25412030
H          -1.35723653       -1.00488101        0.25412031
H           1.35723654        1.00488098        0.25412040
H           1.35723654       -1.00488097       -0.25412041
6
MD Time 1020.00
C          -0.87220527       -0.00000000        0.00000000
C           0.87220527        0.00000000       -0.00000000
H          -1.37176574        0.99946762       -0.24864661
H          -1.37176574       -0.99946762        0.24864662
H           1.37176575        0.99946759        0.24864671
H           1.37176575       -0.99946758       -0.24864672
6
MD Time 1030.00
C          -0.87841899       -0.00000000        0.00000000
C           0.87841899        0.00000000       -0.00000000
H          -1.38606035        0.99314498       -0.24267450
H          -1.38606035       -0.99314498        0.24267451
H           1.38606036        0.99314495        0.24267459
H           1.38606036       -0.99314494       -0.24267460
6
MD Time 1040.00
C          -0.88432418       -0.00000000        0.00000000
C           0.88432418        0.00000000       -0.00000000
H          -1.40009627        0.98597252       -0.23623057
H          -1.40009627       -0.98597252        0.23623058
H           1.40009629        0.98597249        0.23623067
H           1.40009629       -0.98597248       -0.23623068
6
MD Time 1050.00
C          -0.88992162       -0.00000000        0.00000000
C           0.88992162        0.00000000       -0.00000000
H          -1.41385405        0.97802205       -0.22934382
H          -1.41385405       -0.97802205        0.22934383
H           1.41385407        0.97802202        0.22934390
H           1.41385408       -0.97802202       -0.22934392
6
MD Time 1060.00
C          -0.89521161       -0.00000000        0.00000000
C           0.89521160        0.00000000       -0.00000000
H          -1.42731900        0.96937747       -0.22204530
H          -1.42731900       -0.96937747        0.22204531
H           1.42731903        0.96937744        0.22204539
H           1.42731903       -0.96937744       -0.22204540
6
MD Time 1070.00
C          -0.90019385       -0.00000000        0.00000000
C           0.90019385        0.00000000       -0.00000000
H          -1.44048125        0.96013425       -0.21436791
H          -1.44048125       -0.96013425        0.21436792
H           1.44048128        0.96013423        0.21436799
H           1.44048128       -0.96013422       -0.21436800
6
MD Time 1080.00
C          -0.90486747       -0.00000000        0.00000000
C           0.90486747        0.00000000       -0.00000000
H          -1.45333573        0.95039877       -0.20634593
H          -1.45333573       -0.95039877        0.20634594
H           1.45333576        0.95039874        0.20634600
H           1.45333576       -0.95039873       -0.20634601
6
MD Time 1090.00
C          -0.90923093       -0.00000000        0.00000000
C           0.90923093        0.00000000       -0.00000000
H          -1.46588204        0.94028723       -0.19801462
H          -1.46588204       -0.94028722        0.19801463
H           1.46588207        0.94028720        0.19801469
H           1.46588207       -0.94028720       -0.19801470
6
MD Time 1100.00
C          -0.91328210       -0.00000000        0.00000000
C           0.91328210        0.00000000       -0.00000000
H          -1.47812409        0.92992437       -0.18940970
H          -1.47812409       -0.92992437        0.18940971
H           1.47812412        0.92992435        0.18940976
H           1.47812412       -0.92992434       -0.18940978
6
MD Time 1110.00
C          -0.91701832       -0.00000000        0.00000000
C           0.91701831        0.00000000       -0.00000000
H          -1.49006956        0.91944174       -0.18056675
H          -1.49006956       -0.91944174        0.18056677
H           1.49006959        0.91944171        0.18056681
H           1.49006959       -0.91944171       -0.18056683
6
MD Time 1120.00
C          -0.92043647       -0.00000000        0.00000000
C           0.92043646        0.00000000       -0.00000000
H          -1.50172912        0.90897549       -0.17152061
H          -1.50172912       -0.90897549        0.17152062
H           1.50172916        0.90897547        0.17152067
H           1.50172916       -0.90897547       -0.17152068
6
MD Time 1130.00
C          -0.92353319       -0.00000000        0.00000000
C           0.92353318        0.00000000       -0.00000000
H          -1.51311539        0.89866396       -0.16230469
H          -1.51311539       -0.89866396        0.16230470
H           1.51311542        0.89866393        0.16230474
H           1.51311543       -0.89866393       -0.16230475
6
MD Time 1140.00
C          -0.92630504       -0.00000000        0.00000000
C           0.92630503        0.00000000       -0.00000000
H          -1.52424153        0.88864470       -0.15295034
H          -1.52424153       -0.88864470        0.15295035
H           1.52424157        0.88864468        0.15295038
H           1.52424157       -0.88864468       -0.15295039
6
MD Time 1150.00
C          -0.92874879       -0.00000000        0.00000000
C           0.92874879        0.00000000       -0.00000000
H          -1.53511977        0.87905144       -0.14348622
H          -1.53511977       -0.87905143        0.14348623
H           1.53511981        0.87905141        0.14348625
H           1.53511981       -0.87905141       -0.14348627
6
MD Time 1160.00
C          -0.93086170       -0.00000000        0.00000000
C           0.93086169        0.00000000       -0.00000000
H          -1.54575958        0.87001072       -0.13393779
H          -1.54575958       -0.87001072        0.13393780
H           1.54575963        0.87001070        0.13393782
H           1.54575963       -0.87001070       -0.13393784
6
MD Time 1170.00
C          -0.93264179       -0.00000000        0.00000000
C           0.93264178        0.00000000       -0.00000000
H          -1.55616587        0.86163874       -0.12432691
H          -1.55616587       -0.86163874        0.12432692
H           1.55616592        0.86163873        0.12432693
H           1.55616592       -0.86163872       -0.12432695
6
MD Time 1180.00
C          -0.93408820       -0.00000000        0.00000000
C           0.93408819        0.00000000       -0.00000000
H          -1.56633715        0.85403825       -0.11467157
H          -1.56633715       -0.85403825        0.11467159
H           1.56633719        0.85403823        0.11467159
H           1.56633719       -0.85403822       -0.11467160
6
MD Time 1190.00
C          -0.93520142       -0.00000000        0.00000000
C           0.93520141        0.00000000       -0.00000000
H          -1.57626390        0.84729589       -0.10498588
H          -1.57626390       -0.84729589        0.10498590
H           1.57626394        0.84729588        0.10498589
H           1.57626394       -0.84729587       -0.10498591
6
MD Time 1200.00
C          -0.93598354       -0.00000000        0.00000000
C           0.93598353        0.00000000       -0.00000000
H          -1.58592726        0.84148016       -0.09528020
H          -1.58592726       -0.84148016        0.09528022
H           1.58592730        0.84148014        0.09528021
H           1.58592730       -0.84148014       -0.09528022
6
MD Time 1210.00
C          -0.93643837       -0.00000000        0.00000000
C           0.93643836        0.00000000       -0.00000000
H          -1.59529813        0.83663994       -0.08556149
H          -1.59529813       -0.83663994        0.08556151
H           1.59529818        0.83663992        0.08556149
H           1.59529818       -0.83663991       -0.08556151
6
MD Time 1220.00
C          -0.93657151       -0.00000000        0.00000000
C           0.93657151        0.00000000       -0.00000000
H          -1.60433685        0.83280388       -0.07583382
H          -1.60433685       -0.83280388        0.07583383
H           1.60433689        0.83280386        0.07583381
H           1.60433689       -0.83280386       -0.07583382
6
MD Time 1230.00
C          -0.93639033       -0.00000000        0.00000000
C           0.93639033        0.00000000       -0.00000000
H          -1.61299340        0.82998056       -0.06609899
H          -1.61299340       -0.82998056        0.06609900
H           1.61299344        0.82998054        0.06609897
H           1.61299345       -0.82998054       -0.06609899
6
MD Time 1240.00
C          -0.93590380       -0.00000000        0.00000000
C           0.93590379        0.00000000       -0.00000000
H          -1.62120826        0.82815933       -0.05635725
H          -1.62120827       -0.82815933        0.05635727
H           1.62120830        0.82815931        0.05635723
H           1.62120831       -0.82815931       -0.05635725
6
MD Time 1250.00
C          -0.93512228       -0.00000000        0.00000000
C           0.93512227        0.00000000       -0.00000000
H          -1.62891372        0.82731181       -0.04660805
H          -1.62891372       -0.82731181        0.04660806
H           1.62891376        0.82731180        0.04660802
H           1.62891376       -0.82731179       -0.04660803
6
MD Time 1260.00
C          -0.93405723       -0.00000000        0.00000000
C           0.93405723        0.00000000       -0.00000000
H          -1.63603558        0.82739389       -0.03685065
H          -1.63603558       -0.82739389        0.03685067
H           1.63603562        0.82739387        0.03685062
H           1.63603562       -0.82739387       -0.03685063
6
MD Time 1270.00
C          -0.93272091       -0.00000000        0.00000000
C           0.93272090        0.00000000       -0.00000000
H          -1.64249521        0.82834798       -0.02708485
H          -1.64249521       -0.82834798        0.02708486
H           1.64249524        0.82834797        0.02708481
H           1.64249525       -0.82834796       -0.02708482
6
MD Time 1280.00
C          -0.93112596       -0.00000000        0.00000000
C           0.93112596        0.00000000       -0.00000000
H          -1.64821165        0.83010552       -0.01731142
H          -1.64821165       -0.83010552        0.01731143
H           1.64821169        0.83010550        0.01731137
H           1.64821169       -0.83010550       -0.01731138
6
MD Time 1290.00
C          -0.92928511       -0.00000000        0.00000000
C           0.92928511        0.00000000       -0.00000000
H          -1.65310376        0.83258942       -0.00753254
H          -1.65310377       -0.83258942        0.00753255
H           1.65310379        0.83258940        0.00753248
H           1.65310380       -0.83258940       -0.00753250
6
MD Time 1300.00
C          -0.92721080       -0.00000000        0.00000000
C           0.92721079        0.00000000       -0.00000000
H          -1.65709223        0.83571646        0.00224791
H          -1.65709223       -0.83571646       -0.00224789
H           1.65709226        0.83571644       -0.00224797
H           1.65709226       -0.83571644        0.00224796
6
MD Time 1310.00
C          -0.92491490       -0.00000000        0.00000000
C           0.92491490        0.00000000       -0.00000000
H          -1.66010139        0.83939951        0.01202420
H          -1.66010139       -0.83939951       -0.01202418
H           1.66010141        0.83939949       -0.01202427
H           1.66010142       -0.83939948        0.01202425
6
MD Time 1320.00
C          -0.92240848       -0.00000000        0.00000000
C           0.92240847        0.00000000       -0.00000000
H          -1.66206078        0.84354946        0.02178868
H          -1.66206078       -0.84354946       -0.02178866
H           1.66206080        0.84354945       -0.02178875
H           1.66206081       -0.84354944        0.02178874
6
MD Time 1330.00
C          -0.91970154       -0.00000000        0.00000000
C           0.91970153        0.00000000       -0.00000000
H          -1.66290646        0.84807701        0.03153180
H          -1.66290646       -0.84807701       -0.03153179
H           1.66290647        0.84807700       -0.03153188
H           1.66290648       -0.84807699        0.03153187
6
MD Time 1340.00
C          -0.91680292       -0.00000000        0.00000000
C           0.91680291        0.00000000       -0.00000000
H          -1.66258197        0.85289408        0.04124221
H          -1.66258198       -0.85289408       -0.04124220
H           1.66258199        0.85289407       -0.04124230
H           1.66258199       -0.85289406        0.04124229
6
MD Time 1350.00
C          -0.91372013       -0.00000000        0.00000000
C           0.91372013        0.00000000       -0.00000000
H          -1.66103915        0.85791507        0.05090689
H          -1.66103915       -0.85791507       -0.05090688
H           1.66103916        0.85791505       -0.05090699
H           1.66103916       -0.85791505        0.05090698
6
MD Time 1360.00
C          -0.91045932       -0.00000000        0.00000000
C           0.91045932        0.00000000       -0.00000000
H          -1.65823860        0.86305785        0.06051134
H          -1.65823860       -0.86305785       -0.06051132
H           1.65823861        0.86305783       -0.06051144
H           1.65823861       -0.86305783        0.06051143
6
MD Time 1370.00
C          -0.90702518       -0.00000000        0.00000000
C           0.90702518        0.00000000       -0.00000000
H          -1.65415008        0.86824463        0.07003975
H          -1.65415008       -0.86824463       -0.07003973
H           1.65415008        0.86824462       -0.07003985
H           1.65415009       -0.86824461        0.07003984
6
MD Time 1380.00
C          -0.90342098       -0.00000000        0.00000000
C           0.90342098        0.00000000       -0.00000000
H          -1.64875266        0.87340265        0.07947527
H          -1.64875267       -0.87340265       -0.07947525
H           1.64875266        0.87340263       -0.07947538
H           1.64875267       -0.87340263        0.07947537
6
MD Time 1390.00
C          -0.89964851       -0.00000000        0.00000000
C           0.89964851        0.00000000       -0.00000000
H          -1.64203486        0.87846471        0.08880020
H          -1.64203486       -0.87846471       -0.08880019
H           1.64203486        0.87846469       -0.08880033
H           1.64203486       -0.87846469        0.08880031
6
MD Time 1400.00
C          -0.89570816       -0.00000000        0.00000000
C           0.89570816        0.00000000       -0.00000000
H          -1.63399457        0.88336971        0.09799626
H          -1.63399457       -0.88336971       -0.09799625
H           1.63399456        0.88336970       -0.09799639
H           1.63399457       -0.88336970        0.09799638
6
MD Time 1410.00
C          -0.89159890       -0.00000000        0.00000000
C           0.89159891        0.00000000       -0.00000000
H          -1.62463906        0.88806307        0.10704477
H          -1.62463906       -0.88806307       -0.10704476
H           1.62463905        0.88806306       -0.10704490
H           1.62463906       -0.88806305        0.10704489
6
MD Time 1420.00
C          -0.88731837       -0.00000000        0.00000000
C           0.88731837        0.00000000       -0.00000000
H          -1.61398489        0.89249709        0.11592692
H          -1.61398489       -0.89249709       -0.11592691
H           1.61398488        0.89249708       -0.11592706
H           1.61398489       -0.89249707        0.11592705
6
MD Time 1430.00
C          -0.88286284       -0.00000000        0.00000000
C           0.88286284        0.00000000       -0.00000000
H          -1.60205778        0.89663136        0.12462401
H          -1.60205779       -0.89663136       -0.12462400
H           1.60205777        0.89663135       -0.12462416
H           1.60205778       -0.89663134        0.12462415
6
MD Time 1440.00
C          -0.87822736       -0.00000000        0.00000000
C           0.87822736        0.00000000       -0.00000000
H          -1.58889252        0.90043309        0.13311767
H          -1.58889252       -0.90043309       -0.13311766
H           1.58889250        0.90043308       -0.13311782
H           1.58889251       -0.90043308        0.13311781
6
MD Time 1450.00
C          -0.87340573       -0.00000000        0.00000000
C           0.87340574        0.00000000       -0.00000000
H          -1.57453280        0.90387748        0.14139008
H          -1.57453280       -0.90387748       -0.14139007
H           1.57453278        0.90387748       -0.14139023
H           1.57453279       -0.90387747        0.14139022
6
MD Time 1460.00
C          -0.86839064       -0.00000000        0.00000000
C           0.86839065        0.00000000       -0.00000000
H          -1.55903112        0.90694804        0.14942421
H          -1.55903112       -0.90694804       -0.14942420
H           1.55903110        0.90694803       -0.14942437
H           1.55903111       -0.90694803        0.14942436
6
MD Time 1470.00
C          -0.86317368       -0.00000000        0.00000000
C           0.86317369        0.00000000       -0.00000000
H          -1.54244857        0.90963688        0.15720407
H          -1.54244857       -0.90963688       -0.15720406
H           1.54244854        0.90963687       -0.15720424
H           1.54244855       -0.90963687        0.15720423
6
MD Time 1480.00
C          -0.85774546       -0.00000000        0.00000000
C           0.85774547        0.00000000       -0.00000000
H          -1.52485461        0.91194504        0.16471489
H          -1.52485461       -0.91194504       -0.16471488
H           1.52485458        0.91194504       -0.16471506
H           1.52485459       -0.91194504        0.16471505
6
MD Time 1490.00
C          -0.85209573       -0.00000000        0.00000000
C           0.85209573        0.00000000       -0.00000000
H          -1.50632681        0.91388270        0.17194333
H          -1.50632681       -0.91388270       -0.17194332
H           1.50632678        0.91388270       -0.17194351
H           1.50632679       -0.91388269        0.17194350
6
MD Time 1500.00
C          -0.84621347       -0.00000000        0.00000000
C           0.84621348        0.00000000       -0.00000000
H          -1.48695046        0.91546927        0.17887767
H          -1.48695047       -0.91546927       -0.17887766
H           1.48695043        0.91546927       -0.17887785
H           1.48695044       -0.91546926        0.17887784
6
MD Time 1510.00
C          -0.84008710       -0.00000000        0.00000000
C           0.84008710        0.00000000       -0.00000000
H          -1.46681811        0.91673344        0.18550796
H          -1.46681811       -0.91673344       -0.18550796
H           1.46681808        0.91673344       -0.18550815
H           1.46681808       -0.91673343        0.18550814
6
MD Time 1520.00
C          -0.83370462       -0.00000000        0.00000000
C           0.83370463        0.00000000       -0.00000000
H          -1.44602891        0.91771300        0.19182612
H          -1.44602892       -0.91771300       -0.19182611
H           1.44602888        0.91771299       -0.19182630
H           1.44602889       -0.91771299        0.19182630
6
MD Time 1530.00
C          -0.82705389       -0.00000000        0.00000000
C           0.82705389        0.00000000       -0.00000000
H          -1.42468792        0.91845444        0.19782596
H          -1.42468792       -0.91845444       -0.19782595
H           1.42468788        0.91845443       -0.19782615
H           1.42468789       -0.91845443        0.19782614
6
MD Time 1540.00
C          -0.82012285       -0.00000000        0.00000000
C           0.82012286        0.00000000       -0.00000000
H          -1.40290509        0.91901233        0.20350320
H          -1.40290510       -0.91901233       -0.20350319
H           1.40290506        0.91901233       -0.20350339
H           1.40290506       -0.91901233        0.20350338
6
MD Time 1550.00
C          -0.81289990       -0.00000000        0.00000000
C           0.81289990        0.00000000       -0.00000000
H          -1.38079427        0.91944838        0.20885530
H          -1.38079427       -0.91944838       -0.20885529
H           1.38079423        0.91944838       -0.20885549
H           1.38079424       -0.91944838        0.20885548
6
MD Time 1560.00
C          -0.80537419       -0.00000000        0.00000000
C           0.80537419        0.00000000       -0.00000000
H          -1.35847182        0.91983010        0.21388126
H          -1.35847182       -0.91983011       -0.21388125
H           1.35847178        0.91983010       -0.21388145
H           1.35847179       -0.91983010        0.21388145
6
MD Time 1570.00
C          -0.79753610       -0.00000000        0.00000000
C           0.79753610        0.00000000       -0.00000000
H          -1.33605530        0.92022921        0.21858131
H          -1.33605530       -0.92022921       -0.21858131
H           1.33605526        0.92022921       -0.21858151
H           1.33605527       -0.92022920        0.21858150
6
MD Time 1580.00
C          -0.78937766       -0.00000000        0.00000000
C           0.78937767        0.00000000       -0.00000000
H          -1.31366189        0.92071962        0.22295644
H          -1.31366189       -0.92071962       -0.22295643
H           1.31366185        0.92071962       -0.22295663
H           1.31366185       -0.92071961        0.22295663
6
MD Time 1590.00
C          -0.78089307       -0.00000000        0.00000000
C           0.78089307        0.00000000       -0.00000000
H          -1.29140681        0.92137516        0.22700784
H          -1.29140681       -0.92137516       -0.22700783
H           1.29140677        0.92137515       -0.22700803
H           1.29140678       -0.92137515        0.22700803
6
MD Time 1600.00
C          -0.77207919       -0.00000000        0.00000000
C           0.77207920        0.00000000       -0.00000000
H          -1.26940177        0.92226702        0.23073632
H          -1.26940177       -0.92226702       -0.23073632
H           1.26940173        0.92226701       -0.23073652
H           1.26940174       -0.92226701        0.23073651
6
MD Time 1610.00
C          -0.76293617       -0.00000000        0.00000000
C           0.76293618        0.00000000       -0.00000000
H          -1.24775342        0.92346114        0.23414161
H          -1.24775342       -0.92346114       -0.23414160
H           1.24775338        0.92346113       -0.23414181
H           1.24775338       -0.92346112        0.23414180
6
MD Time 1620.00
C          -0.75346795       -0.00000000        0.00000000
C           0.75346796        0.00000000       -0.00000000
H          -1.22656201        0.92501552        0.23722167
H          -1.22656201       -0.92501552       -0.23722166
H           1.22656197        0.92501550       -0.23722186
H           1.22656197       -0.92501550        0.23722186
6
MD Time 1630.00
C          -0.74368291       -0.00000000        0.00000000
C           0.74368292        0.00000000       -0.00000000
H          -1.20592022        0.92697774        0.23997205
H          -1.20592022       -0.92697774       -0.23997205
H           1.20592018        0.92697773       -0.23997225
H           1.20592018       -0.92697772        0.23997225
6
MD Time 1640.00
C          -0.73359445       -0.00000000        0.00000000
C           0.73359446        0.00000000       -0.00000000
H          -1.18591231        0.92938281        0.24238539
H          -1.18591231       -0.92938281       -0.24238539
H           1.18591227        0.92938279       -0.24238558
H           1.18591227       -0.92938279        0.24238558
6
MD Time 1650.00
C          -0.72322159       -0.00000000        0.00000000
C           0.72322160        0.00000000       -0.00000000
H          -1.16661350        0.93225143        0.24445096
H          -1.16661350       -0.93225143       -0.24445096
H           1.16661346        0.93225141       -0.24445116
H           1.16661346       -0.93225140        0.24445116
6
MD Time 1660.00
C          -0.71258958       -0.00000000        0.00000000
C           0.71258959        0.00000000       -0.00000000
H          -1.14808974        0.93558889        0.24615454
H          -1.14808974       -0.93558889       -0.24615454
H           1.14808970        0.93558887       -0.24615473
H           1.14808971       -0.93558887        0.24615473
6
MD Time 1670.00
C          -0.70173052       -0.00000000        0.00000000
C           0.70173053        0.00000000       -0.00000000
H          -1.13039778        0.93938463        0.24747838
H          -1.13039778       -0.93938463       -0.24747838
H           1.13039774        0.93938461       -0.24747858
H           1.13039774       -0.93938460        0.24747858
6
MD Time 1680.00
C          -0.69068395       -0.00000000        0.00000000
C           0.69068395        0.00000000       -0.00000000
H          -1.11358542        0.94361244        0.24840152
H          -1.11358543       -0.94361244       -0.24840152
H           1.11358538        0.94361241       -0.24840171
H           1.11358539       -0.94361240        0.24840171
6
MD Time 1690.00
C          -0.67949745       -0.00000000        0.00000000
C           0.67949746        0.00000000       -0.00000000
H          -1.09769218        0.94823133        0.24890020
H          -1.09769218       -0.94823133       -0.24890020
H           1.09769214        0.94823130       -0.24890039
H           1.09769214       -0.94823130        0.24890039
6
MD Time 1700.00
C          -0.66822723       -0.00000000        0.00000000
C           0.66822723        0.00000000       -0.00000000
H          -1.08274993        0.95318706        0.24894859
H          -1.08274993       -0.95318706       -0.24894858
H           1.08274989        0.95318702       -0.24894878
H           1.08274989       -0.95318702        0.24894878
6
MD Time 1710.00
C          -0.65693859       -0.00000000        0.00000000
C           0.65693860        0.00000000       -0.00000000
H          -1.06878377        0.95841396        0.24851955
H          -1.06878377       -0.95841396       -0.24851955
H           1.06878373        0.95841392       -0.24851974
H           1.06878374       -0.95841392        0.24851974
6
MD Time 1720.00
C          -0.64570640       -0.00000000        0.00000000
C           0.64570641        0.00000000       -0.00000000
H          -1.05581295        0.96383725        0.24758559
H          -1.05581295       -0.96383725       -0.24758559
H           1.05581291        0.96383721       -0.24758578
H           1.05581292       -0.96383721        0.24758578
6
MD Time 1730.00
C          -0.63461527       -0.00000000        0.00000000
C           0.63461527        0.00000000       -0.00000000
H          -1.04385171        0.96937543        0.24611977
H          -1.04385171       -0.96937543       -0.24611977
H           1.04385168        0.96937540       -0.24611995
H           1.04385168       -0.96937539        0.24611995
6
MD Time 1740.00
C          -0.62375957       -0.00000000        0.00000000
C           0.62375958        0.00000000       -0.00000000
H          -1.03291020        0.97494278        0.24409663
H          -1.03291020       -0.97494278       -0.24409662
H           1.03291016        0.97494275       -0.24409681
H           1.03291016       -0.97494274        0.24409681
6
MD Time 1750.00
C          -0.61324307       -0.00000000        0.00000000
C           0.61324307        0.00000000       -0.00000000
H          -1.02299521        0.98045173        0.24149307
H          -1.02299521       -0.98045173       -0.24149307
H           1.02299518        0.98045169       -0.24149326
H           1.02299518       -0.98045169        0.24149326
6
MD Time 1760.00
C          -0.60317801       -0.00000000        0.00000000
C           0.60317802        0.00000000       -0.00000000
H          -1.01411095        0.98581513        0.23828914
H          -1.01411095       -0.98581514       -0.23828914
H           1.01411092        0.98581510       -0.23828932
H           1.01411092       -0.98581509        0.23828932
6
MD Time 1770.00
C          -0.59368370       -0.00000000        0.00000000
C           0.59368370        0.00000000       -0.00000000
H          -1.00625959        0.99094829        0.23446860
H          -1.00625958       -0.99094829       -0.23446860
H           1.00625955        0.99094825       -0.23446879
H           1.00625955       -0.99094825        0.23446879
6
MD Time 1780.00
C          -0.58488426       -0.00000000        0.00000000
C           0.58488427        0.00000000       -0.00000000
H          -0.99944180        0.99577075        0.23001951
H          -0.99944180       -0.99577075       -0.23001951
H           0.99944177        0.99577071       -0.23001969
H           0.99944177       -0.99577071        0.23001969
6
MD Time 1790.00
C          -0.57690569       -0.00000000        0.00000000
C           0.57690570        0.00000000       -0.00000000
H          -0.99365715        1.00020781        0.22493450
H          -0.99365715       -1.00020781       -0.22493450
H           0.99365712        1.00020777       -0.22493468
H           0.99365712       -1.00020777        0.22493468
6
MD Time 1800.00
C          -0.56987206       -0.00000000        0.00000000
C           0.56987206        0.00000000       -0.00000000
H          -0.98890440        1.00419184        0.21921105
H          -0.98890440       -1.00419184       -0.21921105
H           0.98890437        1.00419180       -0.21921123
H           0.98890437       -1.00419180        0.21921123
6
MD Time 1810.00
C          -0.56390103       -0.00000000        0.00000000
C           0.56390103        0.00000000       -0.00000000
H          -0.98518170        1.00766329        0.21285155
H          -0.98518170       -1.00766329       -0.21285155
H           0.98518167        1.00766326       -0.21285174
H           0.98518167       -1.00766325        0.21285173
6
MD Time 1820.00
C          -0.55909897       -0.00000000        0.00000000
C           0.55909897        0.00000000       -0.00000000
H          -0.98248674        1.01057159        0.20586328
H          -0.98248674       -1.01057159       -0.20586328
H           0.98248672        1.01057155       -0.20586346
H           0.98248672       -1.01057155        0.20586346
6
MD Time 1830.00
C          -0.55555585       -0.00000000        0.00000000
C           0.55555586        0.00000000       -0.00000000
H          -0.98081684        1.01287581        0.19825830
H          -0.98081683       -1.01287581       -0.19825829
H           0.98081681        1.01287578       -0.19825848
H           0.98081681       -1.01287578        0.19825848
6
MD Time 1840.00
C          -0.55334057       -0.00000000        0.00000000
C           0.55334058        0.00000000       -0.00000000
H          -0.98016892        1.01454526        0.19005326
H          -0.98016892       -1.01454526       -0.19005326
H           0.98016890        1.01454523       -0.19005345
H           0.98016890       -1.01454523        0.19005344
6
MD Time 1850.00
C          -0.55249700       -0.00000000        0.00000000
C           0.55249701        0.00000000       -0.00000000
H          -0.98053962        1.01555991        0.18126919
H          -0.98053962       -1.01555991       -0.18126919
H           0.98053960        1.01555988       -0.18126938
H           0.98053960       -1.01555988        0.18126937
6
MD Time 1860.00
C          -0.55304140       -0.00000000        0.00000000
C           0.55304140        0.00000000       -0.00000000
H          -0.98192525        1.01591075        0.17193119
H          -0.98192524       -1.01591075       -0.17193118
H           0.98192523        1.01591072       -0.17193137
H           0.98192523       -1.01591072        0.17193137
6
MD Time 1870.00
C          -0.55496132       -0.00000000        0.00000000
C           0.55496133        0.00000000       -0.00000000
H          -0.98432182        1.01560001        0.16206810
H          -0.98432182       -1.01560001       -0.16206809
H           0.98432180        1.01559999       -0.16206828
H           0.98432180       -1.01559999        0.16206828
6
MD Time 1880.00
C          -0.55821639       -0.00000000        0.00000000
C           0.55821639        0.00000000       -0.00000000
H          -0.98772514        1.01464131        0.15171217
H          -0.98772514       -1.01464131       -0.15171216
H           0.98772512        1.01464129       -0.15171235
H           0.98772512       -1.01464129        0.15171235
6
MD Time 1890.00
C          -0.56274057       -0.00000000        0.00000000
C           0.56274057        0.00000000       -0.00000000
H          -0.99213080        1.01305961        0.14089861
H          -0.99213079       -1.01305961       -0.14089861
H           0.99213078        1.01305960       -0.14089880
H           0.99213078       -1.01305960        0.14089879
6
MD Time 1900.00
C          -0.56844593       -0.00000000        0.00000000
C           0.56844593        0.00000000       -0.00000000
H          -0.99753422        1.01089105        0.12966515
H          -0.99753421       -1.01089105       -0.12966514
H           0.99753420        1.01089104       -0.12966533
H           0.99753420       -1.01089104        0.12966533
6
MD Time 1910.00
C          -0.57522725       -0.00000000        0.00000000
C           0.57522725        0.00000000       -0.00000000
H          -1.00393065        1.00818246        0.11805147
H          -1.00393065       -1.00818246       -0.11805146
H           1.00393063        1.00818245       -0.11805165
H           1.00393063       -1.00818245        0.11805164
6
MD Time 1920.00
C          -0.58296704       -0.00000000        0.00000000
C           0.58296704        0.00000000       -0.00000000
H          -1.01131508        1.00499070        0.10609863
H          -1.01131508       -1.00499071       -0.10609862
H           1.01131507        1.00499070       -0.10609881
H           1.01131507       -1.00499070        0.10609880
6
MD Time 1930.00
C          -0.59154064       -0.00000000        0.00000000
C           0.59154065        0.00000000       -0.00000000
H          -1.01968206        1.00138163        0.09384843
H          -1.01968205       -1.00138163       -0.09384842
H           1.01968204        1.00138163       -0.09384862
H           1.01968204       -1.00138163        0.09384861
6
MD Time 1940.00
C          -0.60082081       -0.00000000        0.00000000
C           0.60082081        0.00000000       -0.00000000
H          -1.02902537        0.99742870        0.08134273
H          -1.02902537       -0.99742870       -0.08134271
H           1.02902536        0.99742870       -0.08134291
H           1.02902536       -0.99742870        0.08134290
6
MD Time 1950.00
C          -0.61068171       -0.00000000        0.00000000
C           0.61068172        0.00000000       -0.00000000
H          -1.03933766        0.99321120        0.06862275
H          -1.03933766       -0.99321120       -0.06862274
H           1.03933765        0.99321121       -0.06862293
H           1.03933765       -0.99321121        0.06862292
6
MD Time 1960.00
C          -0.62100214       -0.00000000        0.00000000
C           0.62100214        0.00000000       -0.00000000
H          -1.05060979        0.98881215        0.05572847
H          -1.05060979       -0.98881215       -0.05572846
H           1.05060977        0.98881216       -0.05572866
H           1.05060977       -0.98881216        0.05572865
6
MD Time 1970.00
C          -0.63166792       -0.00000000        0.00000000
C           0.63166792        0.00000000       -0.00000000
H          -1.06283016        0.98431579        0.04269805
H          -1.06283016       -0.98431579       -0.04269803
H           1.06283015        0.98431581       -0.04269823
H           1.06283015       -0.98431581        0.04269822
6
MD Time 1980.00
C          -0.64257360       -0.00000000        0.00000000
C           0.64257360        0.00000000       -0.00000000
H          -1.07598389        0.97980489        0.02956734
H          -1.07598389       -0.97980489       -0.02956733
H           1.07598388        0.97980491       -0.02956753
H           1.07598388       -0.97980491        0.02956751
6
MD Time 1990.00
C          -0.65362348       -0.00000000        0.00000000
C           0.65362348        0.00000000       -0.00000000
H          -1.09005187        0.97535783        0.01636966
H          -1.09005187       -0.97535783       -0.01636964
H           1.09005186        0.97535785       -0.01636984
H           1.09005186       -0.97535785        0.01636983
6
MD Time 2000.00
C          -0.66473208       -0.00000000        0.00000000
C           0.66473208        0.00000000       -0.00000000
H          -1.10500980        0.97104570        0.00313557
H          -1.10500980       -0.97104571       -0.00313555
H           1.10500979        0.97104573       -0.00313575
H           1.10500979       -0.97104573        0.00313574
6
MD Time 2010.00
C          -0.67582433       -0.00000000        0.00000000
C           0.67582433        0.00000000       -0.00000000
H          -1.12082724        0.96692959       -0.01010699
H          -1.12082724       -0.96692959        0.01010701
H           1.12082723        0.96692961        0.01010681
H           1.12082723       -0.96692961       -0.01010682
6
MD Time 2020.00
C          -0.68683527       -0.00000000        0.00000000
C           0.68683527        0.00000000       -0.00000000
H          -1.13746669        0.96305810       -0.02333253
H          -1.13746669       -0.96305811        0.02333255
H           1.13746668        0.96305813        0.02333234
H           1.13746667       -0.96305813       -0.02333236
6
MD Time 2030.00
C          -0.69770972       -0.00000000        0.00000000
C           0.69770973        0.00000000       -0.00000000
H          -1.15488285        0.95946552       -0.03651758
H          -1.15488285       -0.95946552        0.03651760
H           1.15488284        0.95946555        0.03651740
H           1.15488284       -0.95946555       -0.03651742
6
MD Time 2040.00
C          -0.70840170       -0.00000000        0.00000000
C           0.70840170        0.00000000       -0.00000000
H          -1.17302206        0.95617047       -0.04964026
H          -1.17302206       -0.95617047        0.04964028
H           1.17302204        0.95617050        0.04964008
H           1.17302204       -0.95617050       -0.04964010
6
MD Time 2050.00
C          -0.71887374       -0.00000000        0.00000000
C           0.71887374        0.00000000       -0.00000000
H          -1.19182199        0.95317545       -0.06267967
H          -1.19182198       -0.95317546        0.06267969
H           1.19182197        0.95317549        0.06267949
H           1.19182197       -0.95317549       -0.06267951
6
MD Time 2060.00
C          -0.72909622       -0.00000000        0.00000000
C           0.72909622        0.00000000       -0.00000000
H          -1.21121163        0.95046708       -0.07561537
H          -1.21121163       -0.95046708        0.07561539
H           1.21121161        0.95046712        0.07561518
H           1.21121161       -0.95046711       -0.07561520
6
MD Time 2070.00
C          -0.73904660       -0.00000000        0.00000000
C           0.73904661        0.00000000       -0.00000000
H          -1.23111167        0.94801710       -0.08842683
H          -1.23111167       -0.94801711        0.08842685
H           1.23111165        0.94801714        0.08842665
H           1.23111165       -0.94801714       -0.08842667
6
MD Time 2080.00
C          -0.74870868       -0.00000000        0.00000000
C           0.74870868        0.00000000       -0.00000000
H          -1.25143508        0.94578409       -0.10109310
H          -1.25143508       -0.94578409        0.10109312
H           1.25143506        0.94578413        0.10109292
H           1.25143506       -0.94578412       -0.10109294
6
MD Time 2090.00
C          -0.75807179       -0.00000000        0.00000000
C           0.75807179        0.00000000       -0.00000000
H          -1.27208809        0.94371565       -0.11359245
H          -1.27208809       -0.94371565        0.11359247
H           1.27208807        0.94371569        0.11359226
H           1.27208807       -0.94371568       -0.11359229
6
MD Time 2100.00
C          -0.76713009       -0.00000000        0.00000000
C           0.76713010        0.00000000       -0.00000000
H          -1.29297137        0.94175100       -0.12590228
H          -1.29297137       -0.94175100        0.12590231
H           1.29297135        0.94175104        0.12590210
H           1.29297135       -0.94175103       -0.12590213
6
MD Time 2110.00
C          -0.77588184       -0.00000000        0.00000000
C           0.77588184        0.00000000       -0.00000000
H          -1.31398137        0.93982370       -0.13799917
H          -1.31398136       -0.93982370        0.13799919
H           1.31398134        0.93982374        0.13799899
H           1.31398134       -0.93982373       -0.13799902
6
MD Time 2120.00
C          -0.78432868       -0.00000000        0.00000000
C           0.78432868        0.00000000       -0.00000000
H          -1.33501181        0.93786442       -0.14985894
H          -1.33501181       -0.93786442        0.14985897
H           1.33501179        0.93786446        0.14985876
H           1.33501179       -0.93786445       -0.14985879
6
MD Time 2130.00
C          -0.79247504       -0.00000000        0.00000000
C           0.79247505        0.00000000       -0.00000000
H          -1.35595520        0.93580354       -0.16145701
H          -1.35595519       -0.93580354        0.16145703
H           1.35595518        0.93580358        0.16145683
H           1.35595518       -0.93580357       -0.16145686
6
MD Time 2140.00
C          -0.80032752       -0.00000000        0.00000000
C           0.80032753        0.00000000       -0.00000000
H          -1.37670427        0.93357349       -0.17276866
H          -1.37670427       -0.93357349        0.17276869
H           1.37670425        0.93357353        0.17276849
H           1.37670425       -0.93357352       -0.17276852
6
MD Time 2150.00
C          -0.80789435       -0.00000000        0.00000000
C           0.80789436        0.00000000       -0.00000000
H          -1.39715339        0.93111081       -0.18376948
H          -1.39715339       -0.93111081        0.18376951
H           1.39715337        0.93111085        0.18376931
H           1.39715337       -0.93111084       -0.18376935
6
MD Time 2160.00
C          -0.81518495       -0.00000000        0.00000000
C           0.81518495        0.00000000       -0.00000000
H          -1.41719981        0.92835778       -0.19443572
H          -1.41719981       -0.92835778        0.19443575
H           1.41719979        0.92835782        0.19443555
H           1.41719979       -0.92835781       -0.19443558
6
MD Time 2170.00
C          -0.82220948       -0.00000000        0.00000000
C           0.82220948        0.00000000       -0.00000000
H          -1.43674476        0.92526373       -0.20474470
H          -1.43674475       -0.92526373        0.20474473
H           1.43674474        0.92526377        0.20474453
H           1.43674474       -0.92526376       -0.20474457
6
MD Time 2180.00
C          -0.82897850       -0.00000000        0.00000000
C           0.82897851        0.00000000       -0.00000000
H          -1.45569438        0.92178602       -0.21467522
H          -1.45569437       -0.92178602        0.21467525
H           1.45569436        0.92178606        0.21467505
H           1.45569436       -0.92178605       -0.21467509
6
MD Time 2190.00
C          -0.83550270       -0.00000000        0.00000000
C           0.83550271        0.00000000       -0.00000000
H          -1.47396052        0.91789066       -0.22420786
H          -1.47396052       -0.91789066        0.22420789
H           1.47396051        0.91789070        0.22420770
H           1.47396050       -0.91789069       -0.22420774
6
MD Time 2200.00
C          -0.84179259       -0.00000000        0.00000000
C           0.84179259        0.00000000       -0.00000000
H          -1.49146137        0.91355273       -0.23332533
H          -1.49146137       -0.91355273        0.23332536
H           1.49146136        0.91355277        0.23332518
H           1.49146135       -0.91355276       -0.23332521
6
MD Time 2210.00
C          -0.84785830       -0.00000000        0.00000000
C           0.84785831        0.00000000       -0.00000000
H          -1.50812192        0.90875654       -0.24201268
H          -1.50812192       -0.90875653        0.24201272
H           1.50812191        0.90875657        0.24201253
H           1.50812191       -0.90875657       -0.24201257
6
MD Time 2220.00
C          -0.85370946       -0.00000000        0.00000000
C           0.85370946        0.00000000       -0.00000000
H          -1.52387439        0.90349569       -0.25025758
H          -1.52387438       -0.90349569        0.25025761
H           1.52387438        0.90349573        0.25025744
H           1.52387438       -0.90349572       -0.25025747
6
MD Time 2230.00
C          -0.85935496       -0.00000000        0.00000000
C           0.85935496        0.00000000       -0.00000000
H          -1.53865849        0.89777298       -0.25805046
H          -1.53865849       -0.89777298        0.25805050
H           1.53865848        0.89777302        0.25805032
H           1.53865848       -0.89777301       -0.25805036
6
MD Time 2240.00
C          -0.86480290       -0.00000000        0.00000000
C           0.86480290        0.00000000       -0.00000000
H          -1.55242171        0.89160026       -0.26538473
H          -1.55242171       -0.89160025        0.26538476
H           1.55242171        0.89160029        0.26538460
H           1.55242171       -0.89160029       -0.26538463
6
MD Time 2250.00
C          -0.87006045       -0.00000000        0.00000000
C           0.87006045        0.00000000       -0.00000000
H          -1.56511948        0.88499819       -0.27225687
H          -1.56511948       -0.88499819        0.27225691
H           1.56511948        0.88499823        0.27225674
H           1.56511947       -0.88499822       -0.27225678
6
MD Time 2260.00
C          -0.87513378       -0.00000000        0.00000000
C           0.87513378        0.00000000       -0.00000000
H          -1.57671535        0.87799608       -0.27866660
H          -1.57671534       -0.87799608        0.27866663
H           1.57671534        0.87799612        0.27866647
H           1.57671534       -0.87799611       -0.27866651
6
MD Time 2270.00
C          -0.88002795       -0.00000000        0.00000000
C           0.88002795        0.00000000       -0.00000000
H          -1.58718114        0.87063159       -0.28461696
H          -1.58718114       -0.87063159        0.28461699
H           1.58718114        0.87063163        0.28461684
H           1.58718114       -0.87063163       -0.28461687
6
MD Time 2280.00
C          -0.88474684       -0.00000000        0.00000000
C           0.88474684        0.00000000       -0.00000000
H          -1.59649716        0.86295056       -0.29011443
H          -1.59649715       -0.86295056        0.29011446
H           1.59649716        0.86295060        0.29011431
H           1.59649716       -0.86295059       -0.29011435
6
MD Time 2290.00
C          -0.88929312       -0.00000000        0.00000000
C           0.88929312        0.00000000       -0.00000000
H          -1.60465227        0.85500671       -0.29516900
H          -1.60465226       -0.85500671        0.29516903
H           1.60465227        0.85500675        0.29516889
H           1.60465227       -0.85500674       -0.29516892
6
MD Time 2300.00
C          -0.89366815       -0.00000000        0.00000001
C           0.89366815        0.00000000       -0.00000000
H          -1.61164411        0.84686143       -0.29979427
H          -1.61164410       -0.84686143        0.29979430
H           1.61164411        0.84686147        0.29979416
H           1.61164411       -0.84686146       -0.29979420
6
MD Time 2310.00
C          -0.89787192       -0.00000000        0.00000001
C           0.89787192        0.00000000       -0.00000000
H          -1.61747921        0.83858350       -0.30400747
H          -1.61747921       -0.83858350        0.30400750
H           1.61747922        0.83858354        0.30400737
H           1.61747922       -0.83858353       -0.30400741
6
MD Time 2320.00
C          -0.90190304       -0.00000000        0.00000001
C           0.90190304        0.00000000       -0.00000000
H          -1.62217311        0.83024878       -0.30782951
H          -1.62217310       -0.83024878        0.30782954
H           1.62217312        0.83024882        0.30782941
H           1.62217312       -0.83024881       -0.30782945
6
MD Time 2330.00
C          -0.90575868       -0.00000000        0.00000001
C           0.90575867        0.00000000       -0.00000000
H          -1.62575039        0.82193980       -0.31128492
H          -1.62575039       -0.82193979        0.31128496
H           1.62575041        0.82193984        0.31128483
H           1.62575041       -0.82193983       -0.31128487
6
MD Time 2340.00
C          -0.90943453       -0.00000000        0.00000001
C           0.90943453        0.00000000       -0.00000001
H          -1.62824469        0.81374530       -0.31440184
H          -1.62824469       -0.81374529        0.31440188
H           1.62824471        0.81374534        0.31440176
H           1.62824471       -0.81374533       -0.31440179
6
MD Time 2350.00
C          -0.91292487       -0.00000000        0.00000001
C           0.91292487        0.00000000       -0.00000001
H          -1.62969851        0.80575958       -0.31721180
H          -1.62969850       -0.80575958        0.31721183
H           1.62969852        0.80575962        0.31721172
H           1.62969852       -0.80575962       -0.31721176
6
MD Time 2360.00
C          -0.91622254       -0.00000000        0.00000001
C           0.91622254        0.00000000       -0.00000001
H          -1.63016289        0.79808173       -0.31974950
H          -1.63016288       -0.79808173        0.31974954
H           1.63016290        0.79808177        0.31974943
H           1.63016290       -0.79808176       -0.31974946
6
MD Time 2370.00
C          -0.91931907       -0.00000000        0.00000001
C           0.91931906        0.00000000       -0.00000001
H          -1.62969690        0.79081454       -0.32205247
H          -1.62969690       -0.79081453        0.32205250
H           1.62969692        0.79081458        0.32205240
H           1.62969692       -0.79081457       -0.32205243
6
MD Time 2380.00
C          -0.92220473       -0.00000000        0.00000001
C           0.92220473        0.00000000       -0.00000001
H          -1.62836686        0.78406325       -0.32416050
H          -1.62836686       -0.78406325        0.32416053
H           1.62836688        0.78406329        0.32416043
H           1.62836688       -0.78406328       -0.32416047
6
MD Time 2390.00
C          -0.92486878       -0.00000000        0.00000001
C           0.92486877        0.00000000       -0.00000001
H          -1.62624520        0.77793397       -0.32611503
H          -1.62624520       -0.77793396        0.32611506
H           1.62624522        0.77793400        0.32611496
H           1.62624522       -0.77793400       -0.32611500
6
MD Time 2400.00
C          -0.92729962       -0.00000000        0.00000001
C           0.92729962        0.00000000       -0.00000001
H          -1.62340910        0.77253177       -0.32795828
H          -1.62340910       -0.77253176        0.32795831
H           1.62340912        0.77253180        0.32795822
H           1.62340912       -0.77253179       -0.32795825
6
MD Time 2410.00
C          -0.92948513       -0.00000000        0.00000001
C           0.92948513        0.00000000       -0.00000001
H          -1.61993872        0.76795848       -0.32973224
H          -1.61993872       -0.76795847        0.32973227
H           1.61993874        0.76795851        0.32973219
H           1.61993874       -0.76795850       -0.32973222
6
MD Time 2420.00
C          -0.93141298       -0.00000000        0.00000001
C           0.93141298        0.00000000       -0.00000001
H          -1.61591520        0.76431021       -0.33147748
H          -1.61591520       -0.76431021        0.33147752
H           1.61591522        0.76431024        0.33147743
H           1.61591522       -0.76431023       -0.33147747
6
MD Time 2430.00
C          -0.93307098       -0.00000000        0.00000001
C           0.93307098        0.00000000       -0.00000001
H          -1.61141835        0.76167464       -0.33323184
H          -1.61141835       -0.76167463        0.33323187
H           1.61141837        0.76167467        0.33323179
H           1.61141837       -0.76167466       -0.33323182
6
MD Time 2440.00
C          -0.93444753       -0.00000000        0.00000001
C           0.93444752        0.00000000       -0.00000001
H          -1.60652427        0.76012817       -0.33502898
H          -1.60652427       -0.76012817        0.33502901
H           1.60652429        0.76012820        0.33502894
H           1.60652429       -0.76012819       -0.33502897
6
MD Time 2450.00
C          -0.93553197       -0.00000000        0.00000001
C           0.93553196        0.00000000       -0.00000001
H          -1.60130290        0.75973314       -0.33689701
H          -1.60130290       -0.75973314        0.33689704
H           1.60130292        0.75973317        0.33689696
H           1.60130292       -0.75973316       -0.33689700
6
MD Time 2460.00
C          -0.93631500       -0.00000000        0.00000001
C           0.93631500        0.00000000       -0.00000001
H          -1.59581575        0.76053513       -0.33885707
H          -1.59581575       -0.76053512        0.33885710
H           1.59581577        0.76053515        0.33885704
H           1.59581577       -0.76053514       -0.33885707
6
MD Time 2470.00
C          -0.93678899       -0.00000000        0.00000001
C           0.93678899        0.00000000       -0.00000001
H          -1.59011396        0.76256070       -0.34092220
H          -1.59011396       -0.76256070        0.34092223
H           1.59011398        0.76256072        0.34092217
H           1.59011398       -0.76256071       -0.34092220
6
MD Time 2480.00
C          -0.93694822       -0.00000000        0.00000001
C           0.93694822        0.00000000       -0.00000001
H          -1.58423683        0.76581566       -0.34309635
H          -1.58423682       -0.76581566        0.34309638
H           1.58423684        0.76581568        0.34309631
H           1.58423684       -0.76581567       -0.34309634
6
MD Time 2490.00
C          -0.93678903       -0.00000000        0.00000001
C           0.93678903        0.00000000       -0.00000001
H          -1.57821090        0.77028395       -0.34537381
H          -1.57821090       -0.77028395        0.34537384
H           1.57821091        0.77028396        0.34537378
H           1.57821091       -0.77028396       -0.34537381
6
MD Time 2500.00
C          -0.93630986       -0.00000000        0.00000001
C           0.93630986        0.00000000       -0.00000001
H          -1.57204985        0.77592744       -0.34773908
H          -1.57204985       -0.77592743        0.34773911
H           1.57204986        0.77592745        0.34773905
H           1.57204986       -0.77592744       -0.34773908
6
MD Time 2510.00
C          -0.93551114       -0.00000000        0.00000001
C           0.93551114        0.00000000       -0.00000001
H          -1.56575492        0.78268647       -0.35016708
H          -1.56575492       -0.78268646        0.35016711
H           1.56575493        0.78268648        0.35016705
H           1.56575493       -0.78268647       -0.35016708
6
MD Time 2520.00
C          -0.93439513       -0.00000000        0.00000001
C           0.93439513        0.00000000       -0.00000001
H          -1.55931609        0.79048131       -0.35262386
H          -1.55931609       -0.79048131        0.35262389
H           1.55931609        0.79048132        0.35262383
H           1.55931609       -0.79048131       -0.35262386
6
MD Time 2530.00
C          -0.93296563       -0.00000000        0.00000001
C           0.93296563        0.00000000       -0.00000001
H          -1.55271371        0.79921431       -0.35506765
H          -1.55271371       -0.79921430        0.35506768
H           1.55271371        0.79921431        0.35506762
H           1.55271371       -0.79921430       -0.35506765
6
MD Time 2540.00
C          -0.93122762       -0.00000000        0.00000001
C           0.93122762        0.00000000       -0.00000001
H          -1.54592054        0.80877261       -0.35745023
H          -1.54592054       -0.80877261        0.35745025
H           1.54592054        0.80877261        0.35745020
H           1.54592054       -0.80877260       -0.35745023
6
MD Time 2550.00
C          -0.92918694       -0.00000000        0.00000001
C           0.92918694        0.00000000       -0.00000001
H          -1.53890395        0.81903133       -0.35971843
H          -1.53890395       -0.81903132        0.35971846
H           1.53890395        0.81903133        0.35971841
H           1.53890395       -0.81903132       -0.35971843
6
MD Time 2560.00
C          -0.92684987       -0.00000000        0.00000001
C           0.92684987        0.00000000       -0.00000001
H          -1.53162816        0.82985688       -0.36181582
H          -1.53162816       -0.82985687        0.36181585
H           1.53162815        0.82985687        0.36181580
H           1.53162815       -0.82985687       -0.36181582
6
MD Time 2570.00
C          -0.92422279       -0.00000000        0.00000001
C           0.92422279        0.00000000       -0.00000001
H          -1.52405636        0.84111034       -0.36368428
H          -1.52405636       -0.84111034        0.36368430
H           1.52405635        0.84111034        0.36368426
H           1.52405636       -0.84111033       -0.36368428
6
MD Time 2580.00
C          -0.92131187       -0.00000000        0.00000001
C           0.92131188        0.00000000       -0.00000001
H          -1.51615266        0.85265067       -0.36526551
H          -1.51615266       -0.85265067        0.36526554
H           1.51615265        0.85265067        0.36526549
H           1.51615266       -0.85265066       -0.36526551
6
MD Time 2590.00
C          -0.91812283       -0.00000000        0.00000001
C           0.91812284        0.00000000       -0.00000001
H          -1.50788364        0.86433763       -0.36650245
H          -1.50788364       -0.86433762        0.36650248
H           1.50788363        0.86433762        0.36650243
H           1.50788363       -0.86433761       -0.36650245
6
MD Time 2600.00
C          -0.91466069       -0.00000000        0.00000001
C           0.91466069        0.00000000       -0.00000001
H          -1.49921968        0.87603433       -0.36734038
H          -1.49921968       -0.87603433        0.36734041
H           1.49921966        0.87603433        0.36734036
H           1.49921967       -0.87603432       -0.36734038
6
MD Time 2610.00
C          -0.91092964       -0.00000000        0.00000001
C           0.91092964        0.00000000       -0.00000001
H          -1.49013588        0.88760945       -0.36772789
H          -1.49013588       -0.88760945        0.36772792
H           1.49013587        0.88760944        0.36772788
H           1.49013587       -0.88760944       -0.36772790
6
MD Time 2620.00
C          -0.90693294       -0.00000000        0.00000001
C           0.90693294        0.00000000       -0.00000001
H          -1.48061281        0.89893895       -0.36761763
H          -1.48061281       -0.89893895        0.36761765
H           1.48061279        0.89893895        0.36761761
H           1.48061280       -0.89893894       -0.36761763
6
MD Time 2630.00
C          -0.90267290       -0.00000000        0.00000001
C           0.90267290        0.00000000       -0.00000001
H          -1.47063682        0.90990749       -0.36696679
H          -1.47063683       -0.90990749        0.36696682
H           1.47063681        0.90990748        0.36696678
H           1.47063681       -0.90990748       -0.36696680
6
MD Time 2640.00
C          -0.89815081       -0.00000000        0.00000001
C           0.89815082        0.00000000       -0.00000001
H          -1.46020033        0.92040942       -0.36573753
H          -1.46020033       -0.92040942        0.36573755
H           1.46020031        0.92040942        0.36573751
H           1.46020032       -0.92040941       -0.36573753
6
MD Time 2650.00
C          -0.89336704       -0.00000000        0.00000001
C           0.89336704        0.00000000       -0.00000001
H          -1.44930179        0.93034958       -0.36389711
H          -1.44930179       -0.93034958        0.36389713
H           1.44930177        0.93034958        0.36389710
H           1.44930178       -0.93034957       -0.36389712
6
MD Time 2660.00
C          -0.88832099       -0.00000000        0.00000001
C           0.88832099        0.00000000       -0.00000001
H          -1.43794565        0.93964376       -0.36141804
H          -1.43794566       -0.93964376        0.36141807
H           1.43794564        0.93964376        0.36141803
H           1.43794564       -0.93964375       -0.36141805
6
MD Time 2670.00
C          -0.88301123       -0.00000000        0.00000001
C           0.88301123        0.00000000       -0.00000001
H          -1.42614221        0.94821906       -0.35827806
H          -1.42614222       -0.94821906        0.35827809
H           1.42614220        0.94821906        0.35827805
H           1.42614220       -0.94821905       -0.35827807
6
MD Time 2680.00
C          -0.87743554       -0.00000000        0.00000001
C           0.87743554        0.00000000       -0.00000001
H          -1.41390739        0.95601409       -0.35446007
H          -1.41390739       -0.95601409        0.35446010
H           1.41390737        0.95601410        0.35446006
H           1.41390738       -0.95601409       -0.35446008
6
MD Time 2690.00
C          -0.87159100       -0.00000000        0.00000001
C           0.87159100        0.00000000       -0.00000001
H          -1.40126251        0.96297911       -0.34995202
H          -1.40126251       -0.96297910        0.34995205
H           1.40126250        0.96297911        0.34995201
H           1.40126250       -0.96297910       -0.34995203
6
MD Time 2700.00
C          -0.86547407       -0.00000000        0.00000001
C           0.86547408        0.00000000       -0.00000001
H          -1.38823413        0.96907605       -0.34474677
H          -1.38823413       -0.96907605        0.34474680
H           1.38823411        0.96907605        0.34474677
H           1.38823412       -0.96907605       -0.34474679
6
MD Time 2710.00
C          -0.85908072       -0.00000000        0.00000001
C           0.85908072        0.00000000       -0.00000001
H          -1.37485379        0.97427865       -0.33884196
H          -1.37485379       -0.97427864        0.33884198
H           1.37485377        0.97427866        0.33884195
H           1.37485378       -0.97427865       -0.33884197
6
MD Time 2720.00
C          -0.85240648       -0.00000000        0.00000001
C           0.85240648        0.00000000       -0.00000001
H          -1.36115787        0.97857245       -0.33223977
H          -1.36115787       -0.97857245        0.33223980
H           1.36115786        0.97857246        0.33223977
H           1.36115787       -0.97857245       -0.33223979
6
MD Time 2730.00
C          -0.84544659       -0.00000000        0.00000001
C           0.84544660        0.00000000       -0.00000001
H          -1.34718743        0.98195488       -0.32494684
H          -1.34718743       -0.98195488        0.32494687
H           1.34718742        0.98195489        0.32494684
H           1.34718743       -0.98195489       -0.32494686
6
MD Time 2740.00
C          -0.83819612       -0.00000000        0.00000001
C           0.83819612        0.00000000       -0.00000001
H          -1.33298806        0.98443532       -0.31697400
H          -1.33298806       -0.98443531        0.31697403
H           1.33298805        0.98443533        0.31697400
H           1.33298806       -0.98443533       -0.31697402
6
MD Time 2750.00
C          -0.83065007       -0.00000000        0.00000001
C           0.83065007        0.00000000       -0.00000001
H          -1.31860976        0.98603514       -0.30833611
H          -1.31860976       -0.98603514        0.30833614
H           1.31860975        0.98603516        0.30833611
H           1.31860976       -0.98603515       -0.30833613
6
MD Time 2760.00
C          -0.82280354       -0.00000000        0.00000001
C           0.82280354        0.00000000       -0.00000001
H          -1.30410682        0.98678775       -0.29905181
H          -1.30410682       -0.98678775        0.29905184
H           1.30410681        0.98678777        0.29905182
H           1.30410682       -0.98678777       -0.29905183
6
MD Time 2770.00
C          -0.81465191       -0.00000000        0.00000001
C           0.81465191        0.00000000       -0.00000001
H          -1.28953768        0.98673853       -0.28914330
H          -1.28953769       -0.98673853        0.28914333
H           1.28953768        0.98673855        0.28914330
H           1.28953769       -0.98673855       -0.28914332
6
MD Time 2780.00
C          -0.80619104       -0.00000000        0.00000001
C           0.80619104        0.00000000       -0.00000001
H          -1.27496476        0.98594467       -0.27863599
H          -1.27496477       -0.98594467        0.27863601
H           1.27496476        0.98594469        0.27863599
H           1.27496477       -0.98594468       -0.27863601
6
MD Time 2790.00
C          -0.79741750       -0.00000000        0.00000001
C           0.79741750        0.00000000       -0.00000001
H          -1.26045421        0.98447485       -0.26755818
H          -1.26045422       -0.98447484        0.26755820
H           1.26045421        0.98447487        0.26755818
H           1.26045422       -0.98447486       -0.26755820
6
MD Time 2800.00
C          -0.78832885       -0.00000000        0.00000001
C           0.78832884        0.00000000       -0.00000001
H          -1.24607559        0.98240866       -0.25594063
H          -1.24607560       -0.98240866        0.25594066
H           1.24607559        0.98240868        0.25594064
H           1.24607560       -0.98240868       -0.25594066
6
MD Time 2810.00
C          -0.77892400       -0.00000000        0.00000001
C           0.77892400        0.00000000       -0.00000001
H          -1.23190146        0.97983576       -0.24381610
H          -1.23190147       -0.97983575        0.24381613
H           1.23190146        0.97983578        0.24381610
H           1.23190147       -0.97983578       -0.24381613
6
MD Time 2820.00
C          -0.76920365       -0.00000000        0.00000001
C           0.76920365        0.00000000       -0.00000001
H          -1.21800678        0.97685457       -0.23121873
H          -1.21800679       -0.97685457        0.23121876
H           1.21800678        0.97685459        0.23121873
H           1.21800679       -0.97685459       -0.23121875
6
MD Time 2830.00
C          -0.75917072       -0.00000000        0.00000001
C           0.75917072        0.00000000       -0.00000001
H          -1.20446817        0.97357065       -0.21818348
H          -1.20446818       -0.97357064        0.21818350
H           1.20446818        0.97357067        0.21818348
H           1.20446818       -0.97357067       -0.21818350
6
MD Time 2840.00
C          -0.74883100       -0.00000000        0.00000001
C           0.74883100        0.00000000       -0.00000001
H          -1.19136298        0.97009444       -0.20474544
H          -1.19136299       -0.97009444        0.20474546
H           1.19136298        0.97009447        0.20474544
H           1.19136299       -0.97009446       -0.20474546
6
MD Time 2850.00
C          -0.73819379       -0.00000000        0.00000001
C           0.73819379        0.00000000       -0.00000001
H          -1.17876811        0.96653867       -0.19093918
H          -1.17876812       -0.96653867        0.19093920
H           1.17876811        0.96653869        0.19093918
H           1.17876812       -0.96653869       -0.19093920
6
MD Time 2860.00
C          -0.72727270       -0.00000000        0.00000001
C           0.72727270        0.00000000       -0.00000001
H          -1.16675868        0.96301512       -0.17679810
H          -1.16675868       -0.96301512        0.17679812
H           1.16675868        0.96301514        0.17679810
H           1.16675869       -0.96301513       -0.17679812
6
MD Time 2870.00
C          -0.71608661       -0.00000000        0.00000001
C           0.71608661        0.00000000       -0.00000001
H          -1.15540646        0.95963113       -0.16235391
H          -1.15540646       -0.95963113        0.16235393
H           1.15540646        0.95963115        0.16235391
H           1.15540647       -0.95963115       -0.16235393
6
MD Time 2880.00
C          -0.70466058       -0.00000000        0.00000001
C           0.70466058        0.00000000       -0.00000001
H          -1.14477820        0.95648582       -0.14763622
H          -1.14477820       -0.95648582        0.14763625
H           1.14477820        0.95648584        0.14763623
H           1.14477821       -0.95648583       -0.14763625
6
MD Time 2890.00
C          -0.69302705       -0.00000000        0.00000001
C           0.69302705        0.00000000       -0.00000001
H          -1.13493384        0.95366624       -0.13267241
H          -1.13493384       -0.95366624        0.13267244
H           1.13493384        0.95366626        0.13267241
H           1.13493385       -0.95366625       -0.13267244
6
MD Time 2900.00
C          -0.68122693       -0.00000000        0.00000001
C           0.68122693        0.00000000       -0.00000001
H          -1.12592476        0.95124385       -0.11748766
H          -1.12592476       -0.95124385        0.11748768
H           1.12592476        0.95124386        0.11748766
H           1.12592476       -0.95124386       -0.11748768
6
MD Time 2910.00
C          -0.66931083       -0.00000000        0.00000001
C           0.66931083       -0.00000000       -0.00000001
H          -1.11779217        0.94927139       -0.10210535
H          -1.11779218       -0.94927139        0.10210538
H           1.11779217        0.94927140        0.10210535
H           1.11779218       -0.94927139       -0.10210538
6
MD Time 2920.00
C          -0.65734016       -0.00000000        0.00000001
C           0.65734016       -0.00000000       -0.00000001
H          -1.11056577        0.94778067       -0.08654771
H          -1.11056578       -0.94778067        0.08654774
H           1.11056577        0.94778068        0.08654771
H           1.11056578       -0.94778067       -0.08654774
6
MD Time 2930.00
C          -0.64538821       -0.00000000        0.00000001
C           0.64538821       -0.00000000       -0.00000001
H          -1.10426276        0.94678132       -0.07083667
H          -1.10426276       -0.94678131        0.07083670
H           1.10426275        0.94678132        0.07083668
H           1.10426276       -0.94678131       -0.07083670
6
MD Time 2940.00
C          -0.63354093       -0.00000000        0.00000001
C           0.63354093       -0.00000000       -0.00000001
H          -1.09888734        0.94626070       -0.05499489
H          -1.09888735       -0.94626070        0.05499492
H           1.09888734        0.94626070        0.05499490
H           1.09888735       -0.94626069       -0.05499492
6
MD Time 2950.00
C          -0.62189737       -0.00000000        0.00000001
C           0.62189737       -0.00000000       -0.00000001
H          -1.09443087        0.94618513       -0.03904680
H          -1.09443088       -0.94618512        0.03904683
H           1.09443087        0.94618512        0.03904681
H           1.09443088       -0.94618511       -0.03904683
6
MD Time 2960.00
C          -0.61056970       -0.00000000        0.00000001
C           0.61056971       -0.00000000       -0.00000001
H          -1.09087248        0.94650211       -0.02301960
H          -1.09087248       -0.94650210        0.02301963
H           1.09087247        0.94650210        0.02301961
H           1.09087248       -0.94650209       -0.02301963
6
MD Time 2970.00
C          -0.59968248       -0.00000000        0.00000001
C           0.59968248       -0.00000000       -0.00000001
H          -1.08818027        0.94714360       -0.00694402
H          -1.08818028       -0.94714359        0.00694405
H           1.08818027        0.94714359        0.00694403
H           1.08818027       -0.94714358       -0.00694405
6
MD Time 2980.00
C          -0.58937114       -0.00000000        0.00000001
C           0.58937114       -0.00000000       -0.00000001
H          -1.08631310        0.94802988        0.00914514
H          -1.08631310       -0.94802988       -0.00914511
H           1.08631309        0.94802986       -0.00914513
H           1.08631310       -0.94802986        0.00914511
6
MD Time 2990.00
C          -0.57977952       -0.00000000        0.00000001
C           0.57977952       -0.00000000       -0.00000001
H          -1.08522252        0.94907378        0.02520888
H          -1.08522252       -0.94907378       -0.02520885
H           1.08522251        0.94907376       -0.02520887
H           1.08522252       -0.94907376        0.02520885
