6
MD Time 0.00
C          -1.00424993        0.00000000        0.00000000
C           1.00424993        0.00000000        0.00000000
H          -1.57974221        0.85087473        0.35244385
H          -1.57974221       -0.85087473       -0.35244385
H           1.57974221        0.85087473       -0.35244385
H           1.57974221       -0.85087473        0.35244385
6
MD Time 10.00
C          -1.00412682       -0.00000000        0.00000000
C           1.00412682       -0.00000000       -0.00000000
H          -1.57961009        0.85105466        0.35239056
H          -1.57961009       -0.85105466       -0.35239056
H           1.57961009        0.85105466       -0.35239056
H           1.57961009       -0.85105466        0.35239056
6
MD Time 20.00
C          -1.00375759       -0.00000000        0.00000000
C           1.00375759       -0.00000000       -0.00000000
H          -1.57921279        0.85159199        0.35222973
H          -1.57921279       -0.85159199       -0.35222973
H           1.57921279        0.85159199       -0.35222973
H           1.57921279       -0.85159199        0.35222973
6
MD Time 30.00
C          -1.00314252       -0.00000000        0.00000000
C           1.00314252       -0.00000000       -0.00000000
H          -1.57854753        0.85247927        0.35195849
H          -1.57854753       -0.85247927       -0.35195849
H           1.57854753        0.85247927       -0.35195849
H           1.57854753       -0.85247927        0.35195849
6
MD Time 40.00
C          -1.00228207       -0.00000000        0.00000000
C           1.00228207       -0.00000000       -0.00000000
H          -1.57760980        0.85370434        0.35157212
H          -1.57760980       -0.85370434       -0.35157212
H           1.57760980        0.85370434       -0.35157212
H           1.57760980       -0.85370434        0.35157212
6
MD Time 50.00
C          -1.00117684       -0.00000000        0.00000000
C           1.00117684       -0.00000000       -0.00000000
H          -1.57639351        0.85525053        0.35106422
H          -1.57639351       -0.85525053       -0.35106422
H           1.57639351        0.85525053       -0.35106422
H           1.57639351       -0.85525053        0.35106422
6
MD Time 60.00
C          -0.99982755       -0.00000000        0.00000000
C           0.99982755       -0.00000000       -0.00000000
H          -1.57489119        0.85709707        0.35042685
H          -1.57489119       -0.85709707       -0.35042685
H           1.57489119        0.85709707       -0.35042684
H           1.57489119       -0.85709707        0.35042684
6
MD Time 70.00
C          -0.99823495       -0.00000000        0.00000000
C           0.99823495       -0.00000000       -0.00000000
H          -1.57309429        0.85921956        0.34965071
H          -1.57309429       -0.85921956       -0.34965071
H           1.57309429        0.85921956       -0.34965071
H           1.57309429       -0.85921956        0.34965071
6
MD Time 80.00
C          -0.99639985       -0.00000000        0.00000000
C           0.99639985       -0.00000000       -0.00000000
H          -1.57099346        0.86159046        0.34872542
H          -1.57099346       -0.86159046       -0.34872542
H           1.57099346        0.86159046       -0.34872542
H           1.57099346       -0.86159046        0.34872542
6
MD Time 90.00
C          -0.99432297       -0.00000000        0.00000000
C           0.99432297       -0.00000000       -0.00000000
H          -1.56857886        0.86417970        0.34763974
H          -1.56857886       -0.86417970       -0.34763974
H           1.56857887        0.86417970       -0.34763974
H           1.56857887       -0.86417970        0.34763974
6
MD Time 100.00
C          -0.99200496       -0.00000000        0.00000000
C           0.99200496       -0.00000000       -0.00000000
H          -1.56584052        0.86695527        0.34638184
H          -1.56584052       -0.86695527       -0.34638184
H           1.56584053        0.86695527       -0.34638184
H           1.56584053       -0.86695527        0.34638184
6
MD Time 110.00
C          -0.98944630       -0.00000000        0.00000000
C           0.98944630       -0.00000000       -0.00000000
H          -1.56276867        0.86988386        0.34493954
H          -1.56276867       -0.86988386       -0.34493954
H           1.56276868        0.86988385       -0.34493954
H           1.56276868       -0.86988385        0.34493954
6
MD Time 120.00
C          -0.98664727       -0.00000000        0.00000000
C           0.98664727       -0.00000000       -0.00000000
H          -1.55935405        0.87293146        0.34330061
H          -1.55935405       -0.87293146       -0.34330061
H           1.55935406        0.87293146       -0.34330060
H           1.55935406       -0.87293146        0.34330060
6
MD Time 130.00
C          -0.98360786       -0.00000000        0.00000000
C           0.98360786       -0.00000000       -0.00000000
H          -1.55558826        0.87606402        0.34145296
H          -1.55558826       -0.87606402       -0.34145296
H           1.55558827        0.87606402       -0.34145295
H           1.55558827       -0.87606402        0.34145295
6
MD Time 140.00
C          -0.98032776       -0.00000000        0.00000000
C           0.98032776       -0.00000000       -0.00000000
H          -1.55146401        0.87924799        0.33938491
H          -1.55146401       -0.87924799       -0.33938491
H           1.55146402        0.87924799       -0.33938491
H           1.55146402       -0.87924799        0.33938491
6
MD Time 150.00
C          -0.97680630       -0.00000000        0.00000000
C           0.97680630       -0.00000000       -0.00000000
H          -1.54697542        0.88245090        0.33708538
H          -1.54697542       -0.88245090       -0.33708538
H           1.54697544        0.88245090       -0.33708537
H           1.54697544       -0.88245090        0.33708537
6
MD Time 160.00
C          -0.97304241       -0.00000000        0.00000000
C           0.97304240       -0.00000000       -0.00000000
H          -1.54211825        0.88564185        0.33454405
H          -1.54211825       -0.88564185       -0.33454405
H           1.54211826        0.88564184       -0.33454404
H           1.54211826       -0.88564184        0.33454404
6
MD Time 170.00
C          -0.96903458       -0.00000000        0.00000000
C           0.96903458       -0.00000000       -0.00000000
H          -1.53689004        0.88879197        0.33175153
H          -1.53689004       -0.88879197       -0.33175153
H           1.53689006        0.88879196       -0.33175152
H           1.53689006       -0.88879196        0.33175152
6
MD Time 180.00
C          -0.96478086       -0.00000000        0.00000000
C           0.96478086       -0.00000000       -0.00000000
H          -1.53129035        0.89187483        0.32869946
H          -1.53129035       -0.89187483       -0.32869946
H           1.53129037        0.89187483       -0.32869945
H           1.53129037       -0.89187483        0.32869945
6
MD Time 190.00
C          -0.96027882       -0.00000000        0.00000000
C           0.96027882       -0.00000000       -0.00000000
H          -1.52532081        0.89486679        0.32538062
H          -1.52532081       -0.89486679       -0.32538062
H           1.52532083        0.89486679       -0.32538061
H           1.52532083       -0.89486679        0.32538061
6
MD Time 200.00
C          -0.95552555       -0.00000000        0.00000000
C           0.95552555       -0.00000000       -0.00000000
H          -1.51898523        0.89774727        0.32178896
H          -1.51898524       -0.89774727       -0.32178896
H           1.51898526        0.89774726       -0.32178896
H           1.51898526       -0.89774726        0.32178896
6
MD Time 210.00
C          -0.95051764       -0.00000000        0.00000000
C           0.95051764       -0.00000000       -0.00000000
H          -1.51228967        0.90049896        0.31791968
H          -1.51228967       -0.90049896       -0.31791968
H           1.51228969        0.90049895       -0.31791967
H           1.51228969       -0.90049895        0.31791967
6
MD Time 220.00
C          -0.94525123       -0.00000000        0.00000000
C           0.94525122       -0.00000000       -0.00000000
H          -1.50524239        0.90310803        0.31376915
H          -1.50524239       -0.90310803       -0.31376915
H           1.50524241        0.90310802       -0.31376914
H           1.50524241       -0.90310802        0.31376914
6
MD Time 230.00
C          -0.93972195       -0.00000000        0.00000000
C           0.93972195       -0.00000000       -0.00000000
H          -1.49785389        0.90556420        0.30933497
H          -1.49785389       -0.90556420       -0.30933497
H           1.49785391        0.90556419       -0.30933496
H           1.49785391       -0.90556419        0.30933496
6
MD Time 240.00
C          -0.93392503       -0.00000000        0.00000000
C           0.93392502       -0.00000000       -0.00000000
H          -1.49013679        0.90786077        0.30461586
H          -1.49013679       -0.90786077       -0.30461586
H           1.49013681        0.90786076       -0.30461585
H           1.49013681       -0.90786076        0.30461585
6
MD Time 250.00
C          -0.92785524       -0.00000000        0.00000000
C           0.92785524       -0.00000000       -0.00000000
H          -1.48210580        0.90999463        0.29961162
H          -1.48210580       -0.90999463       -0.29961162
H           1.48210582        0.90999462       -0.29961161
H           1.48210582       -0.90999462        0.29961161
6
MD Time 260.00
C          -0.92150703       -0.00000000        0.00000000
C           0.92150702       -0.00000000       -0.00000000
H          -1.47377752        0.91196611        0.29432300
H          -1.47377752       -0.91196611       -0.29432300
H           1.47377754        0.91196610       -0.29432299
H           1.47377754       -0.91196610        0.29432299
6
MD Time 270.00
C          -0.91487447       -0.00000000        0.00000000
C           0.91487447       -0.00000000       -0.00000000
H          -1.46517035        0.91377891        0.28875163
H          -1.46517035       -0.91377891       -0.28875163
H           1.46517037        0.91377890       -0.28875162
H           1.46517037       -0.91377890        0.28875162
6
MD Time 280.00
C          -0.90795143       -0.00000000        0.00000000
C           0.90795142       -0.00000000       -0.00000000
H          -1.45630424        0.91543978        0.28289983
H          -1.45630424       -0.91543978       -0.28289983
H           1.45630427        0.91543976       -0.28289982
H           1.45630427       -0.91543976        0.28289982
6
MD Time 290.00
C          -0.90073155       -0.00000000        0.00000000
C           0.90073154       -0.00000000       -0.00000000
H          -1.44720052        0.91695830        0.27677053
H          -1.44720052       -0.91695830       -0.27677053
H           1.44720055        0.91695828       -0.27677052
H           1.44720055       -0.91695828        0.27677052
6
MD Time 300.00
C          -0.89320840       -0.00000000        0.00000000
C           0.89320840       -0.00000000       -0.00000000
H          -1.43788161        0.91834650        0.27036708
H          -1.43788161       -0.91834650       -0.27036708
H           1.43788164        0.91834649       -0.27036707
H           1.43788164       -0.91834649        0.27036707
6
MD Time 310.00
C          -0.88537558       -0.00000000        0.00000000
C           0.88537558       -0.00000000       -0.00000000
H          -1.42837076        0.91961846        0.26369309
H          -1.42837076       -0.91961846       -0.26369309
H           1.42837079        0.91961845       -0.26369308
H           1.42837079       -0.91961845        0.26369308
6
MD Time 320.00
C          -0.87722682       -0.00000000        0.00000000
C           0.87722682       -0.00000000       -0.00000000
H          -1.41869174        0.92078981        0.25675230
H          -1.41869174       -0.92078981       -0.25675230
H           1.41869177        0.92078979       -0.25675229
H           1.41869177       -0.92078979        0.25675229
6
MD Time 330.00
C          -0.86875612       -0.00000000        0.00000000
C           0.86875612       -0.00000000       -0.00000000
H          -1.40886853        0.92187720        0.24954841
H          -1.40886853       -0.92187720       -0.24954841
H           1.40886856        0.92187719       -0.24954840
H           1.40886856       -0.92187719        0.24954840
6
MD Time 340.00
C          -0.85995797       -0.00000000        0.00000000
C           0.85995797       -0.00000000       -0.00000000
H          -1.39892498        0.92289776        0.24208496
H          -1.39892498       -0.92289776       -0.24208496
H           1.39892500        0.92289775       -0.24208495
H           1.39892500       -0.92289775        0.24208495
6
MD Time 350.00
C          -0.85082747       -0.00000000        0.00000000
C           0.85082747       -0.00000000       -0.00000000
H          -1.38888444        0.92386846        0.23436521
H          -1.38888444       -0.92386846       -0.23436521
H           1.38888446        0.92386844       -0.23436520
H           1.38888446       -0.92386844        0.23436520
6
MD Time 360.00
C          -0.84136063       -0.00000000        0.00000000
C           0.84136062       -0.00000000       -0.00000000
H          -1.37876946        0.92480549        0.22639207
H          -1.37876946       -0.92480549       -0.22639207
H           1.37876948        0.92480547       -0.22639205
H           1.37876948       -0.92480547        0.22639206
6
MD Time 370.00
C          -0.83155454       -0.00000000        0.00000000
C           0.83155454       -0.00000000       -0.00000000
H          -1.36860139        0.92572364        0.21816803
H          -1.36860139       -0.92572364       -0.21816803
H           1.36860141        0.92572363       -0.21816801
H           1.36860141       -0.92572363        0.21816801
6
MD Time 380.00
C          -0.82140774       -0.00000000        0.00000000
C           0.82140774       -0.00000000       -0.00000000
H          -1.35840011        0.92663570        0.20969517
H          -1.35840011       -0.92663570       -0.20969517
H           1.35840013        0.92663569       -0.20969516
H           1.35840013       -0.92663569        0.20969516
6
MD Time 390.00
C          -0.81092050       -0.00000000        0.00000000
C           0.81092050       -0.00000000       -0.00000000
H          -1.34818368        0.92755185        0.20097521
H          -1.34818369       -0.92755185       -0.20097521
H           1.34818370        0.92755184       -0.20097519
H           1.34818371       -0.92755184        0.20097519
6
MD Time 400.00
C          -0.80009521       -0.00000000        0.00000000
C           0.80009521       -0.00000000       -0.00000000
H          -1.33796814        0.92847919        0.19200957
H          -1.33796814       -0.92847919       -0.19200957
H           1.33796816        0.92847918       -0.19200955
H           1.33796816       -0.92847918        0.19200956
6
MD Time 410.00
C          -0.78893680       -0.00000000        0.00000000
C           0.78893680       -0.00000000       -0.00000000
H          -1.32776722        0.92942130        0.18279955
H          -1.32776722       -0.92942130       -0.18279955
H           1.32776724        0.92942129       -0.18279954
H           1.32776724       -0.92942129        0.18279954
6
MD Time 420.00
C          -0.77745325       -0.00000000        0.00000000
C           0.77745324       -0.00000000       -0.00000000
H          -1.31759225        0.93037787        0.17334652
H          -1.31759225       -0.93037787       -0.17334652
H           1.31759227        0.93037786       -0.17334650
H           1.31759227       -0.93037786        0.17334650
6
MD Time 430.00
C          -0.76565610       -0.00000000        0.00000000
C           0.76565610       -0.00000000       -0.00000000
H          -1.30745206        0.93134457        0.16365214
H          -1.30745206       -0.93134457       -0.16365214
H           1.30745207        0.93134456       -0.16365213
H           1.30745207       -0.93134456        0.16365213
6
MD Time 440.00
C          -0.75356112       -0.00000000        0.00000000
C           0.75356112       -0.00000000       -0.00000000
H          -1.29735293        0.93231289        0.15371869
H          -1.29735293       -0.93231289       -0.15371869
H           1.29735295        0.93231289       -0.15371867
H           1.29735295       -0.93231288        0.15371867
6
MD Time 450.00
C          -0.74118895       -0.00000000        0.00000000
C           0.74118895       -0.00000000       -0.00000000
H          -1.28729874        0.93327029        0.14354935
H          -1.28729874       -0.93327029       -0.14354935
H           1.28729875        0.93327029       -0.14354933
H           1.28729875       -0.93327029        0.14354933
6
MD Time 460.00
C          -0.72856593       -0.00000000        0.00000000
C           0.72856593       -0.00000000       -0.00000000
H          -1.27729106        0.93420037        0.13314858
H          -1.27729106       -0.93420037       -0.13314858
H           1.27729107        0.93420037       -0.13314856
H           1.27729107       -0.93420037        0.13314856
6
MD Time 470.00
C          -0.71572491       -0.00000000        0.00000000
C           0.71572491       -0.00000000       -0.00000000
H          -1.26732947        0.93508324        0.12252244
H          -1.26732947       -0.93508324       -0.12252244
H           1.26732948        0.93508324       -0.12252243
H           1.26732948       -0.93508324        0.12252243
6
MD Time 480.00
C          -0.70270620       -0.00000000        0.00000000
C           0.70270620       -0.00000000       -0.00000000
H          -1.25741189        0.93589606        0.11167897
H          -1.25741189       -0.93589606       -0.11167897
H           1.25741190        0.93589606       -0.11167896
H           1.25741190       -0.93589606        0.11167896
6
MD Time 490.00
C          -0.68955856       -0.00000000        0.00000000
C           0.68955856       -0.00000000       -0.00000000
H          -1.24753504        0.93661366        0.10062848
H          -1.24753504       -0.93661366       -0.10062848
H           1.24753505        0.93661366       -0.10062846
H           1.24753505       -0.93661366        0.10062846
6
MD Time 500.00
C          -0.67634023       -0.00000000        0.00000000
C           0.67634023       -0.00000000       -0.00000000
H          -1.23769498        0.93720930        0.08938384
H          -1.23769499       -0.93720930       -0.08938384
H           1.23769499        0.93720930       -0.08938382
H           1.23769499       -0.93720930        0.08938382
6
MD Time 510.00
C          -0.66311992       -0.00000000        0.00000000
C           0.66311992       -0.00000000       -0.00000000
H          -1.22788778        0.93765556        0.07796073
H          -1.22788778       -0.93765556       -0.07796073
H           1.22788779        0.93765556       -0.07796071
H           1.22788779       -0.93765556        0.07796071
6
MD Time 520.00
C          -0.64997781       -0.00000000        0.00000000
C           0.64997781       -0.00000000       -0.00000000
H          -1.21811021        0.93792528        0.06637779
H          -1.21811021       -0.93792527       -0.06637779
H           1.21811022        0.93792528       -0.06637777
H           1.21811022       -0.93792528        0.06637777
6
MD Time 530.00
C          -0.63700624       -0.00000000        0.00000000
C           0.63700624       -0.00000000       -0.00000000
H          -1.20836059        0.93799254        0.05465673
H          -1.20836059       -0.93799254       -0.05465673
H           1.20836059        0.93799254       -0.05465671
H           1.20836059       -0.93799254        0.05465671
6
MD Time 540.00
C          -0.62431027       -0.00000000        0.00000000
C           0.62431027       -0.00000000       -0.00000000
H          -1.19863961        0.93783379        0.04282231
H          -1.19863961       -0.93783379       -0.04282231
H           1.19863961        0.93783379       -0.04282230
H           1.19863961       -0.93783379        0.04282230
6
MD Time 550.00
C          -0.61200765       -0.00000000        0.00000000
C           0.61200765       -0.00000000       -0.00000000
H          -1.18895130        0.93742889        0.03090229
H          -1.18895130       -0.93742889       -0.03090229
H           1.18895130        0.93742889       -0.03090227
H           1.18895130       -0.93742889        0.03090227
6
MD Time 560.00
C          -0.60022820       -0.00000000        0.00000000
C           0.60022820       -0.00000000       -0.00000000
H          -1.17930397        0.93676224        0.01892721
H          -1.17930397       -0.93676224       -0.01892721
H           1.17930397        0.93676225       -0.01892719
H           1.17930397       -0.93676225        0.01892719
6
MD Time 570.00
C          -0.58911233       -0.00000000        0.00000000
C           0.58911233       -0.00000000       -0.00000000
H          -1.16971116        0.93582394        0.00693015
H          -1.16971116       -0.93582394       -0.00693015
H           1.16971116        0.93582394       -0.00693013
H           1.16971116       -0.93582394        0.00693014
6
MD Time 580.00
C          -0.57880847       -0.00000000        0.00000000
C           0.57880847       -0.00000000       -0.00000000
H          -1.16019258        0.93461082       -0.00505363
H          -1.16019258       -0.93461082        0.00505363
H           1.16019257        0.93461083        0.00505365
H           1.16019257       -0.93461083       -0.00505364
6
MD Time 590.00
C          -0.56946932       -0.00000000        0.00000000
C           0.56946933       -0.00000000       -0.00000000
H          -1.15077497        0.93312765       -0.01698715
H          -1.15077497       -0.93312765        0.01698715
H           1.15077496        0.93312766        0.01698717
H           1.15077496       -0.93312766       -0.01698717
6
MD Time 600.00
C          -0.56124678       -0.00000000        0.00000000
C           0.56124678       -0.00000000       -0.00000000
H          -1.14149292        0.93138810       -0.02883225
H          -1.14149292       -0.93138810        0.02883224
H           1.14149291        0.93138811        0.02883227
H           1.14149291       -0.93138811       -0.02883227
6
MD Time 610.00
C          -0.55428571       -0.00000000        0.00000000
C           0.55428572        0.00000000       -0.00000000
H          -1.13238943        0.92941582       -0.04055011
H          -1.13238943       -0.92941582        0.04055011
H           1.13238942        0.92941583        0.04055013
H           1.13238942       -0.92941583       -0.04055013
6
MD Time 620.00
C          -0.54871692       -0.00000000        0.00000000
C           0.54871692        0.00000000       -0.00000000
H          -1.12351641        0.92724530       -0.05210197
H          -1.12351641       -0.92724530        0.05210197
H           1.12351640        0.92724531        0.05210199
H           1.12351640       -0.92724531       -0.05210199
6
MD Time 630.00
C          -0.54464973       -0.00000000        0.00000000
C           0.54464973        0.00000000       -0.00000000
H          -1.11493480        0.92492263       -0.06344976
H          -1.11493481       -0.92492263        0.06344975
H           1.11493479        0.92492264        0.06344978
H           1.11493479       -0.92492264       -0.06344978
6
MD Time 640.00
C          -0.54216507       -0.00000000        0.00000000
C           0.54216507        0.00000000       -0.00000000
H          -1.10671451        0.92250595       -0.07455682
H          -1.10671451       -0.92250595        0.07455682
H           1.10671449        0.92250596        0.07455685
H           1.10671450       -0.92250596       -0.07455685
6
MD Time 650.00
C          -0.54130980       -0.00000000        0.00000000
C           0.54130981        0.00000000       -0.00000000
H          -1.09893388        0.92006561       -0.08538864
H          -1.09893388       -0.92006561        0.08538864
H           1.09893386        0.92006562        0.08538867
H           1.09893386       -0.92006562       -0.08538867
6
MD Time 660.00
C          -0.54209313       -0.00000000        0.00000000
C           0.54209313        0.00000000       -0.00000000
H          -1.09167881        0.91768375       -0.09591348
H          -1.09167881       -0.91768375        0.09591348
H           1.09167879        0.91768377        0.09591351
H           1.09167879       -0.91768377       -0.09591351
6
MD Time 670.00
C          -0.54448554       -0.00000000        0.00000000
C           0.54448554        0.00000000       -0.00000000
H          -1.08504133        0.91545333       -0.10610303
H          -1.08504133       -0.91545333        0.10610303
H           1.08504131        0.91545334        0.10610306
H           1.08504132       -0.91545334       -0.10610305
6
MD Time 680.00
C          -0.54842058       -0.00000000        0.00000000
C           0.54842058        0.00000000       -0.00000000
H          -1.07911774        0.91347624       -0.11593286
H          -1.07911774       -0.91347624        0.11593285
H           1.07911772        0.91347625        0.11593288
H           1.07911772       -0.91347625       -0.11593288
6
MD Time 690.00
C          -0.55379911       -0.00000000        0.00000000
C           0.55379912        0.00000000       -0.00000000
H          -1.07400610        0.91186066       -0.12538275
H          -1.07400610       -0.91186066        0.12538275
H           1.07400608        0.91186068        0.12538278
H           1.07400608       -0.91186068       -0.12538278
6
MD Time 700.00
C          -0.56049555       -0.00000000        0.00000000
C           0.56049556        0.00000000       -0.00000000
H          -1.06980337        0.91071742       -0.13443674
H          -1.06980337       -0.91071742        0.13443674
H           1.06980335        0.91071743        0.13443677
H           1.06980335       -0.91071743       -0.13443677
6
MD Time 710.00
C          -0.56836523       -0.00000000        0.00000000
C           0.56836524        0.00000000       -0.00000000
H          -1.06660208        0.91015547       -0.14308288
H          -1.06660208       -0.91015547        0.14308288
H           1.06660205        0.91015548        0.14308291
H           1.06660206       -0.91015548       -0.14308291
6
MD Time 720.00
C          -0.57725207       -0.00000000        0.00000000
C           0.57725208        0.00000000       -0.00000000
H          -1.06448688        0.91027670       -0.15131263
H          -1.06448688       -0.91027670        0.15131263
H           1.06448686        0.91027671        0.15131266
H           1.06448686       -0.91027671       -0.15131266
6
MD Time 730.00
C          -0.58699584       -0.00000000        0.00000000
C           0.58699584        0.00000000       -0.00000000
H          -1.06353115        0.91117040       -0.15912000
H          -1.06353115       -0.91117040        0.15912000
H           1.06353113        0.91117041        0.15912004
H           1.06353113       -0.91117041       -0.15912004
6
MD Time 740.00
C          -0.59743839       -0.00000000        0.00000000
C           0.59743839        0.00000000       -0.00000000
H          -1.06379388        0.91290769       -0.16650042
H          -1.06379388       -0.91290769        0.16650042
H           1.06379385        0.91290770        0.16650046
H           1.06379385       -0.91290770       -0.16650045
6
MD Time 750.00
C          -0.60842869       -0.00000000        0.00000000
C           0.60842869        0.00000000       -0.00000000
H          -1.06531721        0.91553656       -0.17344941
H          -1.06531721       -0.91553656        0.17344941
H           1.06531718        0.91553657        0.17344945
H           1.06531718       -0.91553658       -0.17344944
6
MD Time 760.00
C          -0.61982638       -0.00000000        0.00000000
C           0.61982639        0.00000000       -0.00000000
H          -1.06812478        0.91907791       -0.17996134
H          -1.06812478       -0.91907791        0.17996134
H           1.06812475        0.91907792        0.17996138
H           1.06812475       -0.91907792       -0.17996137
6
MD Time 770.00
C          -0.63150413       -0.00000000        0.00000000
C           0.63150413        0.00000000       -0.00000000
H          -1.07222099        0.92352296       -0.18602827
H          -1.07222098       -0.92352296        0.18602827
H           1.07222096        0.92352297        0.18602831
H           1.07222096       -0.92352297       -0.18602831
6
MD Time 780.00
C          -0.64334873       -0.00000000        0.00000000
C           0.64334873        0.00000000       -0.00000000
H          -1.07759122        0.92883247       -0.19163912
H          -1.07759122       -0.92883247        0.19163912
H           1.07759120        0.92883247        0.19163917
H           1.07759120       -0.92883247       -0.19163916
6
MD Time 790.00
C          -0.65526133       -0.00000000        0.00000000
C           0.65526134        0.00000000       -0.00000000
H          -1.08420300        0.93493759       -0.19677921
H          -1.08420300       -0.93493759        0.19677921
H           1.08420297        0.93493759        0.19677925
H           1.08420297       -0.93493759       -0.19677925
6
MD Time 800.00
C          -0.66715703       -0.00000000        0.00000000
C           0.66715703        0.00000000       -0.00000000
H          -1.09200775        0.94174247       -0.20143017
H          -1.09200775       -0.94174247        0.20143017
H           1.09200773        0.94174247        0.20143021
H           1.09200773       -0.94174247       -0.20143021
6
MD Time 810.00
C          -0.67896387       -0.00000000        0.00000000
C           0.67896387        0.00000000       -0.00000000
H          -1.10094317        0.94912812       -0.20557032
H          -1.10094317       -0.94912812        0.20557032
H           1.10094315        0.94912812        0.20557037
H           1.10094315       -0.94912812       -0.20557037
6
MD Time 820.00
C          -0.69062172       -0.00000000        0.00000000
C           0.69062172        0.00000000       -0.00000000
H          -1.11093576        0.95695721       -0.20917535
H          -1.11093576       -0.95695721        0.20917535
H           1.11093574        0.95695721        0.20917540
H           1.11093574       -0.95695722       -0.20917540
6
MD Time 830.00
C          -0.70208090       -0.00000000        0.00000000
C           0.70208090        0.00000000       -0.00000000
H          -1.12190347        0.96507939       -0.21221919
H          -1.12190347       -0.96507939        0.21221920
H           1.12190344        0.96507940        0.21221925
H           1.12190344       -0.96507940       -0.21221924
6
MD Time 840.00
C          -0.71330087       -0.00000000        0.00000000
C           0.71330087        0.00000000       -0.00000000
H          -1.13375817        0.97333661       -0.21467505
H          -1.13375817       -0.97333661        0.21467505
H           1.13375815        0.97333661        0.21467510
H           1.13375815       -0.97333661       -0.21467510
6
MD Time 850.00
C          -0.72424895       -0.00000000        0.00000000
C           0.72424895        0.00000000       -0.00000000
H          -1.14640796        0.98156816       -0.21651640
H          -1.14640796       -0.98156816        0.21651640
H           1.14640794        0.98156816        0.21651646
H           1.14640794       -0.98156816       -0.21651646
6
MD Time 860.00
C          -0.73489913       -0.00000000        0.00000000
C           0.73489913        0.00000000       -0.00000000
H          -1.15975905        0.98961519       -0.21771802
H          -1.15975905       -0.98961519        0.21771802
H           1.15975902        0.98961519        0.21771808
H           1.15975903       -0.98961519       -0.21771807
6
MD Time 870.00
C          -0.74523103       -0.00000000        0.00000000
C           0.74523104        0.00000000       -0.00000000
H          -1.17371740        0.99732450       -0.21825673
H          -1.17371740       -0.99732450        0.21825673
H           1.17371738        0.99732450        0.21825679
H           1.17371738       -0.99732450       -0.21825679
6
MD Time 880.00
C          -0.75522901       -0.00000000        0.00000000
C           0.75522902        0.00000000       -0.00000000
H          -1.18819004        1.00455159       -0.21811213
H          -1.18819004       -1.00455159        0.21811213
H           1.18819002        1.00455159        0.21811218
H           1.18819002       -1.00455159       -0.21811218
6
MD Time 890.00
C          -0.76488133       -0.00000000        0.00000000
C           0.76488134        0.00000000       -0.00000000
H          -1.20308599        1.01116302       -0.21726705
H          -1.20308599       -1.01116303        0.21726706
H           1.20308597        1.01116302        0.21726711
H           1.20308597       -1.01116302       -0.21726711
6
MD Time 900.00
C          -0.77417950       -0.00000000        0.00000000
C           0.77417950        0.00000000       -0.00000000
H          -1.21831703        1.01703808       -0.21570797
H          -1.21831703       -1.01703808        0.21570798
H           1.21831701        1.01703808        0.21570804
H           1.21831701       -1.01703808       -0.21570804
6
MD Time 910.00
C          -0.78311768       -0.00000000        0.00000000
C           0.78311768        0.00000000       -0.00000000
H          -1.23379821        1.02206990       -0.21342515
H          -1.23379821       -1.02206990        0.21342515
H           1.23379820        1.02206989        0.21342521
H           1.23379820       -1.02206989       -0.21342521
6
MD Time 920.00
C          -0.79169225       -0.00000000        0.00000000
C           0.79169225        0.00000000       -0.00000000
H          -1.24944824        1.02616615       -0.21041275
H          -1.24944824       -1.02616615        0.21041275
H           1.24944823        1.02616614        0.21041281
H           1.24944823       -1.02616614       -0.21041281
6
MD Time 930.00
C          -0.79990132       -0.00000000        0.00000000
C           0.79990132        0.00000000       -0.00000000
H          -1.26518968        1.02924939       -0.20666882
H          -1.26518968       -1.02924939        0.20666882
H           1.26518967        1.02924939        0.20666888
H           1.26518967       -1.02924939       -0.20666888
6
MD Time 940.00
C          -0.80774443       -0.00000000        0.00000000
C           0.80774443        0.00000000       -0.00000000
H          -1.28094915        1.03125720       -0.20219522
H          -1.28094915       -1.03125720        0.20219522
H           1.28094914        1.03125719        0.20219529
H           1.28094914       -1.03125719       -0.20219529
6
MD Time 950.00
C          -0.81522223       -0.00000000        0.00000000
C           0.81522223        0.00000000       -0.00000000
H          -1.29665740        1.03214209       -0.19699751
H          -1.29665740       -1.03214209        0.19699752
H           1.29665739        1.03214208        0.19699758
H           1.29665739       -1.03214208       -0.19699758
6
MD Time 960.00
C          -0.82233621       -0.00000000        0.00000000
C           0.82233621        0.00000000       -0.00000000
H          -1.31224945        1.03187146       -0.19108477
H          -1.31224945       -1.03187146        0.19108478
H           1.31224944        1.03187145        0.19108484
H           1.31224944       -1.03187145       -0.19108484
6
MD Time 970.00
C          -0.82908847       -0.00000000        0.00000000
C           0.82908847        0.00000000       -0.00000000
H          -1.32766462        1.03042737       -0.18446941
H          -1.32766462       -1.03042737        0.18446941
H           1.32766461        1.03042736        0.18446948
H           1.32766461       -1.03042736       -0.18446948
6
MD Time 980.00
C          -0.83548153       -0.00000000        0.00000000
C           0.83548153        0.00000000       -0.00000000
H          -1.34284668        1.02780647       -0.17716697
H          -1.34284668       -1.02780647        0.17716697
H           1.34284667        1.02780646        0.17716704
H           1.34284667       -1.02780645       -0.17716704
6
MD Time 990.00
C          -0.84151815       -0.00000000        0.00000000
C           0.84151815        0.00000000       -0.00000000
H          -1.35774396        1.02401977       -0.16919590
H          -1.35774396       -1.02401978        0.16919591
H           1.35774396        1.02401976        0.16919597
H           1.35774396       -1.02401976       -0.16919598
6
MD Time 1000.00
C          -0.84720113       -0.00000000        0.00000000
C           0.84720113        0.00000000       -0.00000000
H          -1.37230951        1.01909265       -0.16057734
H          -1.37230951       -1.01909266        0.16057735
H           1.37230952        1.01909264        0.16057742
H           1.37230952       -1.01909264       -0.16057742
6
MD Time 1010.00
C          -0.85253321       -0.00000000        0.00000000
C           0.85253321        0.00000000       -0.00000000
H          -1.38650131        1.01306468       -0.15133483
H          -1.38650131       -1.01306468        0.15133484
H           1.38650131        1.01306467        0.15133490
H           1.38650131       -1.01306467       -0.15133490
6
MD Time 1020.00
C          -0.85751688       -0.00000000        0.00000000
C           0.85751688        0.00000000       -0.00000000
H          -1.40028243        1.00598956       -0.14149401
H          -1.40028243       -1.00598956        0.14149402
H           1.40028244        1.00598955        0.14149408
H           1.40028244       -1.00598955       -0.14149409
6
MD Time 1030.00
C          -0.86215431       -0.00000000        0.00000000
C           0.86215431        0.00000000       -0.00000000
H          -1.41362136        0.99793499       -0.13108236
H          -1.41362136       -0.99793499        0.13108237
H           1.41362137        0.99793498        0.13108243
H           1.41362137       -0.99793498       -0.13108244
6
MD Time 1040.00
C          -0.86644720       -0.00000000        0.00000000
C           0.86644720        0.00000000       -0.00000000
H          -1.42649214        0.98898246       -0.12012877
H          -1.42649214       -0.98898246        0.12012878
H           1.42649215        0.98898245        0.12012884
H           1.42649215       -0.98898244       -0.12012885
6
MD Time 1050.00
C          -0.87039671       -0.00000000        0.00000000
C           0.87039671        0.00000000       -0.00000000
H          -1.43887464        0.97922685       -0.10866318
H          -1.43887464       -0.97922685        0.10866319
H           1.43887466        0.97922684        0.10866326
H           1.43887466       -0.97922684       -0.10866326
6
MD Time 1060.00
C          -0.87400340       -0.00000000        0.00000000
C           0.87400340        0.00000000       -0.00000000
H          -1.45075468        0.96877592       -0.09671611
H          -1.45075468       -0.96877592        0.09671612
H           1.45075470        0.96877590        0.09671618
H           1.45075470       -0.96877590       -0.09671619
6
MD Time 1070.00
C          -0.87726716       -0.00000000        0.00000000
C           0.87726716        0.00000000       -0.00000000
H          -1.46212405        0.95774942       -0.08431814
H          -1.46212405       -0.95774942        0.08431815
H           1.46212407        0.95774940        0.08431822
H           1.46212407       -0.95774940       -0.08431822
6
MD Time 1080.00
C          -0.88018726       -0.00000000        0.00000000
C           0.88018725        0.00000000       -0.00000000
H          -1.47298039        0.94627793       -0.07149942
H          -1.47298039       -0.94627793        0.07149943
H           1.47298041        0.94627791        0.07149949
H           1.47298041       -0.94627791       -0.07149950
6
MD Time 1090.00
C          -0.88276232       -0.00000000        0.00000000
C           0.88276231        0.00000000       -0.00000000
H          -1.48332693        0.93450127       -0.05828906
H          -1.48332692       -0.93450127        0.05828907
H           1.48332695        0.93450125        0.05828913
H           1.48332695       -0.93450125       -0.05828914
6
MD Time 1100.00
C          -0.88499047       -0.00000000        0.00000000
C           0.88499047        0.00000000       -0.00000000
H          -1.49317184        0.92256645       -0.04471463
H          -1.49317184       -0.92256644        0.04471464
H           1.49317186        0.92256643        0.04471470
H           1.49317186       -0.92256643       -0.04471471
6
MD Time 1110.00
C          -0.88686946       -0.00000000        0.00000000
C           0.88686946        0.00000000       -0.00000000
H          -1.50252743        0.91062510       -0.03080164
H          -1.50252743       -0.91062510        0.03080165
H           1.50252746        0.91062508        0.03080171
H           1.50252746       -0.91062508       -0.03080172
6
MD Time 1120.00
C          -0.88839687       -0.00000000        0.00000000
C           0.88839686        0.00000000       -0.00000000
H          -1.51140894        0.89883052       -0.01657313
H          -1.51140894       -0.89883052        0.01657315
H           1.51140897        0.89883050        0.01657321
H           1.51140897       -0.89883050       -0.01657322
6
MD Time 1130.00
C          -0.88957037       -0.00000000        0.00000000
C           0.88957037        0.00000000       -0.00000000
H          -1.51983306        0.88733424       -0.00204943
H          -1.51983306       -0.88733424        0.00204945
H           1.51983309        0.88733423        0.00204951
H           1.51983309       -0.88733422       -0.00204952
6
MD Time 1140.00
C          -0.89038806       -0.00000000        0.00000000
C           0.89038805        0.00000000       -0.00000000
H          -1.52781612        0.87628231        0.01275192
H          -1.52781611       -0.87628231       -0.01275191
H           1.52781615        0.87628230       -0.01275185
H           1.52781615       -0.87628230        0.01275184
6
MD Time 1150.00
C          -0.89084877       -0.00000000        0.00000000
C           0.89084876        0.00000000       -0.00000000
H          -1.53537213        0.86581145        0.02781601
H          -1.53537213       -0.86581145       -0.02781600
H           1.53537216        0.86581143       -0.02781594
H           1.53537217       -0.86581143        0.02781593
6
MD Time 1160.00
C          -0.89095246       -0.00000000        0.00000000
C           0.89095246        0.00000000       -0.00000000
H          -1.54251074        0.85604524        0.04313009
H          -1.54251074       -0.85604524       -0.04313008
H           1.54251077        0.85604523       -0.04313002
H           1.54251077       -0.85604523        0.04313001
6
MD Time 1170.00
C          -0.89070057       -0.00000000        0.00000000
C           0.89070056        0.00000000       -0.00000000
H          -1.54923517        0.84709067        0.05868286
H          -1.54923517       -0.84709067       -0.05868284
H           1.54923520        0.84709066       -0.05868279
H           1.54923521       -0.84709065        0.05868277
6
MD Time 1180.00
C          -0.89009628       -0.00000000        0.00000000
C           0.89009628        0.00000000       -0.00000000
H          -1.55554050        0.83903511        0.07446350
H          -1.55554050       -0.83903511       -0.07446349
H           1.55554053        0.83903509       -0.07446343
H           1.55554054       -0.83903509        0.07446342
6
MD Time 1190.00
C          -0.88914479       -0.00000000        0.00000000
C           0.88914479        0.00000000       -0.00000000
H          -1.56141226        0.83194412        0.09046056
H          -1.56141226       -0.83194412       -0.09046055
H           1.56141229        0.83194411       -0.09046049
H           1.56141230       -0.83194410        0.09046048
6
MD Time 1200.00
C          -0.88785343       -0.00000000        0.00000000
C           0.88785342        0.00000000       -0.00000000
H          -1.56682563        0.82586011        0.10666065
H          -1.56682563       -0.82586011       -0.10666063
H           1.56682567        0.82586010       -0.10666058
H           1.56682567       -0.82586009        0.10666056
6
MD Time 1210.00
C          -0.88623165       -0.00000000        0.00000000
C           0.88623165        0.00000000       -0.00000000
H          -1.57174525        0.82080195        0.12304720
H          -1.57174526       -0.82080195       -0.12304719
H           1.57174529        0.82080194       -0.12304713
H           1.57174529       -0.82080194        0.12304712
6
MD Time 1220.00
C          -0.88429098       -0.00000000        0.00000000
C           0.88429097        0.00000000       -0.00000000
H          -1.57612574        0.81676562        0.13959934
H          -1.57612574       -0.81676562       -0.13959932
H           1.57612577        0.81676561       -0.13959927
H           1.57612578       -0.81676561        0.13959926
6
MD Time 1230.00
C          -0.88204475       -0.00000000        0.00000000
C           0.88204474        0.00000000       -0.00000000
H          -1.57991280        0.81372566        0.15629090
H          -1.57991280       -0.81372566       -0.15629088
H           1.57991283        0.81372565       -0.15629083
H           1.57991283       -0.81372565        0.15629081
6
MD Time 1240.00
C          -0.87950782       -0.00000000        0.00000000
C           0.87950782        0.00000000       -0.00000000
H          -1.58304494        0.81163742        0.17308975
H          -1.58304494       -0.81163742       -0.17308974
H           1.58304497        0.81163741       -0.17308969
H           1.58304498       -0.81163741        0.17308967
6
MD Time 1250.00
C          -0.87669619       -0.00000000        0.00000000
C           0.87669618        0.00000000       -0.00000000
H          -1.58545557        0.81043984        0.18995750
H          -1.58545557       -0.81043984       -0.18995748
H           1.58545560        0.81043983       -0.18995743
H           1.58545560       -0.81043983        0.18995741
6
MD Time 1260.00
C          -0.87362656       -0.00000000        0.00000000
C           0.87362656        0.00000000       -0.00000000
H          -1.58707528        0.81005851        0.20684939
H          -1.58707528       -0.81005851       -0.20684937
H           1.58707531        0.81005850       -0.20684932
H           1.58707531       -0.81005850        0.20684930
6
MD Time 1270.00
C          -0.87031594       -0.00000000        0.00000000
C           0.87031594        0.00000000       -0.00000000
H          -1.58783430        0.81040890        0.22371466
H          -1.58783430       -0.81040890       -0.22371464
H           1.58783433        0.81040890       -0.22371459
H           1.58783433       -0.81040890        0.22371457
6
MD Time 1280.00
C          -0.86678121       -0.00000000        0.00000000
C           0.86678121        0.00000000       -0.00000000
H          -1.58766474        0.81139951        0.24049706
H          -1.58766475       -0.81139951       -0.24049704
H           1.58766477        0.81139950       -0.24049699
H           1.58766477       -0.81139950        0.24049697
6
MD Time 1290.00
C          -0.86303876       -0.00000000        0.00000000
C           0.86303875        0.00000000       -0.00000000
H          -1.58650275        0.81293480        0.25713564
H          -1.58650275       -0.81293480       -0.25713562
H           1.58650277        0.81293480       -0.25713557
H           1.58650277       -0.81293480        0.25713555
6
MD Time 1300.00
C          -0.85910416       -0.00000000        0.00000000
C           0.85910415        0.00000000       -0.00000000
H          -1.58429027        0.81491788        0.27356564
H          -1.58429027       -0.81491788       -0.27356562
H           1.58429029        0.81491788       -0.27356557
H           1.58429030       -0.81491788        0.27356556
6
MD Time 1310.00
C          -0.85499193       -0.00000000        0.00000000
C           0.85499193        0.00000000       -0.00000000
H          -1.58097659        0.81725282        0.28971948
H          -1.58097659       -0.81725282       -0.28971946
H           1.58097661        0.81725282       -0.28971942
H           1.58097661       -0.81725282        0.28971940
6
MD Time 1320.00
C          -0.85071534       -0.00000000        0.00000000
C           0.85071534        0.00000000       -0.00000000
H          -1.57651945        0.81984658        0.30552778
H          -1.57651945       -0.81984658       -0.30552776
H           1.57651946        0.81984658       -0.30552772
H           1.57651947       -0.81984658        0.30552770
6
MD Time 1330.00
C          -0.84628626       -0.00000000        0.00000000
C           0.84628626        0.00000000       -0.00000000
H          -1.57088591        0.82261065        0.32092033
H          -1.57088592       -0.82261066       -0.32092031
H           1.57088593        0.82261066       -0.32092027
H           1.57088593       -0.82261066        0.32092025
6
MD Time 1340.00
C          -0.84171509       -0.00000000        0.00000000
C           0.84171509        0.00000000       -0.00000000
H          -1.56405293        0.82546235        0.33582705
H          -1.56405294       -0.82546235       -0.33582704
H           1.56405294        0.82546236       -0.33582699
H           1.56405295       -0.82546236        0.33582697
6
MD Time 1350.00
C          -0.83701073       -0.00000000        0.00000000
C           0.83701073        0.00000000       -0.00000000
H          -1.55600766        0.82832578        0.35017888
H          -1.55600767       -0.82832578       -0.35017886
H           1.55600767        0.82832579       -0.35017882
H           1.55600768       -0.82832579        0.35017880
6
MD Time 1360.00
C          -0.83218058       -0.00000000        0.00000000
C           0.83218057        0.00000000       -0.00000000
H          -1.54674762        0.83113265        0.36390853
H          -1.54674762       -0.83113265       -0.36390851
H           1.54674762        0.83113266       -0.36390847
H           1.54674763       -0.83113266        0.36390845
6
MD Time 1370.00
C          -0.82723057       -0.00000000        0.00000000
C           0.82723056        0.00000000       -0.00000000
H          -1.53628068        0.83382286        0.37695125
H          -1.53628068       -0.83382287       -0.37695123
H           1.53628068        0.83382288       -0.37695119
H           1.53628069       -0.83382288        0.37695118
6
MD Time 1380.00
C          -0.82216522       -0.00000000        0.00000000
C           0.82216522        0.00000000       -0.00000000
H          -1.52462501        0.83634497        0.38924546
H          -1.52462501       -0.83634498       -0.38924545
H           1.52462501        0.83634499       -0.38924541
H           1.52462501       -0.83634499        0.38924539
6
MD Time 1390.00
C          -0.81698771       -0.00000000        0.00000000
C           0.81698771        0.00000000       -0.00000000
H          -1.51180890        0.83865654        0.40073334
H          -1.51180891       -0.83865654       -0.40073333
H           1.51180891        0.83865656       -0.40073329
H           1.51180891       -0.83865656        0.40073327
6
MD Time 1400.00
C          -0.81169996       -0.00000000        0.00000000
C           0.81169996        0.00000000       -0.00000000
H          -1.49787062        0.84072443        0.41136134
H          -1.49787062       -0.84072443       -0.41136132
H           1.49787062        0.84072445       -0.41136129
H           1.49787063       -0.84072445        0.41136127
6
MD Time 1410.00
C          -0.80630272       -0.00000000        0.00000000
C           0.80630272        0.00000000       -0.00000000
H          -1.48285815        0.84252505        0.42108067
H          -1.48285816       -0.84252506       -0.42108065
H           1.48285815        0.84252508       -0.42108063
H           1.48285816       -0.84252508        0.42108061
6
MD Time 1420.00
C          -0.80079567       -0.00000000        0.00000000
C           0.80079567        0.00000000       -0.00000000
H          -1.46682905        0.84404463        0.42984777
H          -1.46682905       -0.84404463       -0.42984775
H           1.46682904        0.84404465       -0.42984773
H           1.46682905       -0.84404465        0.42984771
6
MD Time 1430.00
C          -0.79517750       -0.00000000        0.00000000
C           0.79517750        0.00000000       -0.00000000
H          -1.44985016        0.84527937        0.43762469
H          -1.44985016       -0.84527937       -0.43762468
H           1.44985016        0.84527940       -0.43762466
H           1.44985016       -0.84527940        0.43762464
6
MD Time 1440.00
C          -0.78944607       -0.00000000        0.00000000
C           0.78944607        0.00000000       -0.00000000
H          -1.43199745        0.84623572        0.44437951
H          -1.43199745       -0.84623572       -0.44437949
H           1.43199744        0.84623575       -0.44437948
H           1.43199745       -0.84623575        0.44437946
6
MD Time 1450.00
C          -0.78359849       -0.00000000        0.00000000
C           0.78359849        0.00000000       -0.00000000
H          -1.41335569        0.84693053        0.45008664
H          -1.41335570       -0.84693053       -0.45008663
H           1.41335569        0.84693056       -0.45008661
H           1.41335569       -0.84693056        0.45008659
6
MD Time 1460.00
C          -0.77763128       -0.00000000        0.00000001
C           0.77763128        0.00000000       -0.00000000
H          -1.39401820        0.84739123        0.45472718
H          -1.39401820       -0.84739123       -0.45472716
H           1.39401819        0.84739126       -0.45472715
H           1.39401820       -0.84739126        0.45472713
6
MD Time 1470.00
C          -0.77154049       -0.00000000        0.00000001
C           0.77154049        0.00000000       -0.00000000
H          -1.37408641        0.84765590        0.45828911
H          -1.37408641       -0.84765590       -0.45828909
H           1.37408640        0.84765593       -0.45828908
H           1.37408640       -0.84765593        0.45828906
6
MD Time 1480.00
C          -0.76532192       -0.00000000        0.00000001
C           0.76532193        0.00000000       -0.00000000
H          -1.35366942        0.84777326        0.46076746
H          -1.35366942       -0.84777326       -0.46076745
H           1.35366941        0.84777329       -0.46076744
H           1.35366941       -0.84777329        0.46076742
6
MD Time 1490.00
C          -0.75897130       -0.00000000        0.00000001
C           0.75897131        0.00000000       -0.00000001
H          -1.33288338        0.84780252        0.46216438
H          -1.33288338       -0.84780252       -0.46216437
H           1.33288337        0.84780255       -0.46216436
H           1.33288337       -0.84780255        0.46216435
6
MD Time 1500.00
C          -0.75248454       -0.00000000        0.00000001
C           0.75248454        0.00000000       -0.00000001
H          -1.31185070        0.84781296        0.46248899
H          -1.31185070       -0.84781296       -0.46248897
H           1.31185069        0.84781299       -0.46248897
H           1.31185069       -0.84781299        0.46248895
6
MD Time 1510.00
C          -0.74585801       -0.00000000        0.00000001
C           0.74585801        0.00000000       -0.00000001
H          -1.29069907        0.84788327        0.46175707
H          -1.29069907       -0.84788327       -0.46175705
H           1.29069906        0.84788330       -0.46175706
H           1.29069906       -0.84788330        0.46175704
6
MD Time 1520.00
C          -0.73908887       -0.00000000        0.00000001
C           0.73908888        0.00000000       -0.00000001
H          -1.26956028        0.84810053        0.45999059
H          -1.26956028       -0.84810053       -0.45999058
H           1.26956027        0.84810056       -0.45999058
H           1.26956027       -0.84810056        0.45999057
6
MD Time 1530.00
C          -0.73217549       -0.00000000        0.00000001
C           0.73217549        0.00000000       -0.00000001
H          -1.24856878        0.84855871        0.45721691
H          -1.24856878       -0.84855871       -0.45721690
H           1.24856876        0.84855874       -0.45721690
H           1.24856877       -0.84855874        0.45721689
6
MD Time 1540.00
C          -0.72511782       -0.00000000        0.00000001
C           0.72511783        0.00000000       -0.00000001
H          -1.22786000        0.84935676        0.45346771
H          -1.22786001       -0.84935676       -0.45346770
H           1.22785999        0.84935679       -0.45346771
H           1.22785999       -0.84935679        0.45346769
6
MD Time 1550.00
C          -0.71791797       -0.00000000        0.00000001
C           0.71791798        0.00000000       -0.00000001
H          -1.20756853        0.85059609        0.44877772
H          -1.20756853       -0.85059609       -0.44877770
H           1.20756851        0.85059612       -0.44877771
H           1.20756851       -0.85059612        0.44877770
6
MD Time 1560.00
C          -0.71058067       -0.00000000        0.00000001
C           0.71058067        0.00000000       -0.00000001
H          -1.18782596        0.85237759        0.44318314
H          -1.18782597       -0.85237759       -0.44318313
H           1.18782595        0.85237762       -0.44318314
H           1.18782595       -0.85237762        0.44318313
6
MD Time 1570.00
C          -0.70311388       -0.00000000        0.00000001
C           0.70311388        0.00000000       -0.00000001
H          -1.16875882        0.85479808        0.43671998
H          -1.16875882       -0.85479808       -0.43671996
H           1.16875880        0.85479811       -0.43671998
H           1.16875880       -0.85479811        0.43671996
6
MD Time 1580.00
C          -0.69552939       -0.00000000        0.00000001
C           0.69552940        0.00000000       -0.00000001
H          -1.15048627        0.85794647        0.42942222
H          -1.15048627       -0.85794647       -0.42942221
H           1.15048625        0.85794650       -0.42942222
H           1.15048626       -0.85794650        0.42942221
6
MD Time 1590.00
C          -0.68784342       -0.00000000        0.00000001
C           0.68784342        0.00000000       -0.00000001
H          -1.13311805        0.86189965        0.42132017
H          -1.13311805       -0.86189965       -0.42132016
H           1.13311803        0.86189968       -0.42132017
H           1.13311803       -0.86189968        0.42132016
6
MD Time 1600.00
C          -0.68007715       -0.00000000        0.00000001
C           0.68007715        0.00000000       -0.00000001
H          -1.11675245        0.86671837        0.41243894
H          -1.11675246       -0.86671837       -0.41243893
H           1.11675243        0.86671839       -0.41243895
H           1.11675244       -0.86671839        0.41243893
6
MD Time 1610.00
C          -0.67225731       -0.00000000        0.00000001
C           0.67225732        0.00000000       -0.00000001
H          -1.10147472        0.87244346        0.40279736
H          -1.10147472       -0.87244346       -0.40279735
H           1.10147469        0.87244348       -0.40279737
H           1.10147470       -0.87244347        0.40279736
6
MD Time 1620.00
C          -0.66441656       -0.00000000        0.00000001
C           0.66441656        0.00000000       -0.00000001
H          -1.08735569        0.87909254        0.39240739
H          -1.08735569       -0.87909254       -0.39240738
H           1.08735567        0.87909256       -0.39240740
H           1.08735567       -0.87909256        0.39240738
6
MD Time 1630.00
C          -0.65659380       -0.00000000        0.00000001
C           0.65659380        0.00000000       -0.00000001
H          -1.07445103        0.88665769        0.38127412
H          -1.07445103       -0.88665769       -0.38127411
H           1.07445101        0.88665770       -0.38127413
H           1.07445101       -0.88665770        0.38127412
6
MD Time 1640.00
C          -0.64883436       -0.00000000        0.00000001
C           0.64883437        0.00000000       -0.00000001
H          -1.06280087        0.89510404        0.36939650
H          -1.06280088       -0.89510404       -0.36939649
H           1.06280085        0.89510405       -0.36939651
H           1.06280085       -0.89510405        0.36939650
6
MD Time 1650.00
C          -0.64118994       -0.00000000        0.00000001
C           0.64118995        0.00000000       -0.00000001
H          -1.05242999        0.90436971        0.35676855
H          -1.05242999       -0.90436970       -0.35676854
H           1.05242996        0.90436971       -0.35676857
H           1.05242997       -0.90436971        0.35676855
6
MD Time 1660.00
C          -0.63371837       -0.00000000        0.00000001
C           0.63371837        0.00000000       -0.00000001
H          -1.04334842        0.91436688        0.34338121
H          -1.04334842       -0.91436688       -0.34338120
H           1.04334840        0.91436688       -0.34338123
H           1.04334840       -0.91436688        0.34338122
6
MD Time 1670.00
C          -0.62648307       -0.00000000        0.00000001
C           0.62648307        0.00000000       -0.00000001
H          -1.03555254        0.92498413        0.32922440
H          -1.03555254       -0.92498413       -0.32922439
H           1.03555251        0.92498413       -0.32922442
H           1.03555252       -0.92498413        0.32922441
6
MD Time 1680.00
C          -0.61955229       -0.00000000        0.00000001
C           0.61955229        0.00000000       -0.00000001
H          -1.02902638        0.93608968        0.31428930
H          -1.02902638       -0.93608968       -0.31428929
H           1.02902635        0.93608968       -0.31428931
H           1.02902636       -0.93608968        0.31428930
6
MD Time 1690.00
C          -0.61299803       -0.00000000        0.00000001
C           0.61299803        0.00000000       -0.00000001
H          -1.02374322        0.94753544        0.29857054
H          -1.02374322       -0.94753544       -0.29857053
H           1.02374320        0.94753543       -0.29857056
H           1.02374320       -0.94753543        0.29857055
6
MD Time 1700.00
C          -0.60689461       -0.00000000        0.00000001
C           0.60689461        0.00000000       -0.00000001
H          -1.01966730        0.95916145        0.28206819
H          -1.01966730       -0.95916144       -0.28206818
H           1.01966728        0.95916144       -0.28206821
H           1.01966728       -0.95916144        0.28206820
6
MD Time 1710.00
C          -0.60131704       -0.00000000        0.00000001
C           0.60131704        0.00000000       -0.00000001
H          -1.01675551        0.97080054        0.26478934
H          -1.01675551       -0.97080054       -0.26478933
H           1.01675549        0.97080053       -0.26478936
H           1.01675549       -0.97080053        0.26478935
6
MD Time 1720.00
C          -0.59633904       -0.00000000        0.00000001
C           0.59633904        0.00000000       -0.00000001
H          -1.01495908        0.98228288        0.24674926
H          -1.01495908       -0.98228288       -0.24674926
H           1.01495906        0.98228287       -0.24674929
H           1.01495906       -0.98228287        0.24674928
6
MD Time 1730.00
C          -0.59203090       -0.00000000        0.00000001
C           0.59203090        0.00000000       -0.00000001
H          -1.01422516        0.99344015        0.22797213
H          -1.01422516       -0.99344015       -0.22797212
H           1.01422514        0.99344014       -0.22797215
H           1.01422514       -0.99344013        0.22797214
6
MD Time 1740.00
C          -0.58845725       -0.00000000        0.00000001
C           0.58845725        0.00000000       -0.00000001
H          -1.01449821        1.00410931        0.20849120
H          -1.01449821       -1.00410931       -0.20849119
H           1.01449819        1.00410930       -0.20849123
H           1.01449819       -1.00410930        0.20849122
6
MD Time 1750.00
C          -0.58567478       -0.00000000        0.00000001
C           0.58567478        0.00000000       -0.00000001
H          -1.01572126        1.01413582        0.18834873
H          -1.01572126       -1.01413582       -0.18834873
H           1.01572124        1.01413581       -0.18834876
H           1.01572124       -1.01413580        0.18834875
6
MD Time 1760.00
C          -0.58373015       -0.00000000        0.00000001
C           0.58373015        0.00000000       -0.00000001
H          -1.01783696        1.02337622        0.16759546
H          -1.01783696       -1.02337622       -0.16759545
H           1.01783695        1.02337620       -0.16759548
H           1.01783695       -1.02337620        0.16759547
6
MD Time 1770.00
C          -0.58265814       -0.00000000        0.00000001
C           0.58265814        0.00000000       -0.00000001
H          -1.02078849        1.03170015        0.14628988
H          -1.02078850       -1.03170015       -0.14628987
H           1.02078848        1.03170013       -0.14628991
H           1.02078849       -1.03170013        0.14628990
6
MD Time 1780.00
C          -0.58248027       -0.00000000        0.00000001
C           0.58248027        0.00000000       -0.00000001
H          -1.02452027        1.03899189        0.12449742
H          -1.02452027       -1.03899190       -0.12449741
H           1.02452026        1.03899188       -0.12449745
H           1.02452027       -1.03899188        0.12449744
6
MD Time 1790.00
C          -0.58320388       -0.00000000        0.00000001
C           0.58320388        0.00000000       -0.00000001
H          -1.02897856        1.04515140        0.10228944
H          -1.02897856       -1.04515140       -0.10228943
H           1.02897855        1.04515139       -0.10228947
H           1.02897855       -1.04515139        0.10228946
6
MD Time 1800.00
C          -0.58482193       -0.00000000        0.00000001
C           0.58482193        0.00000000       -0.00000001
H          -1.03411194        1.05009494        0.07974221
H          -1.03411194       -1.05009494       -0.07974221
H           1.03411194        1.05009493       -0.07974225
H           1.03411194       -1.05009493        0.07974224
6
MD Time 1810.00
C          -0.58731327       -0.00000000        0.00000001
C           0.58731327        0.00000000       -0.00000001
H          -1.03987174        1.05375545        0.05693596
H          -1.03987174       -1.05375546       -0.05693595
H           1.03987173        1.05375544       -0.05693600
H           1.03987174       -1.05375544        0.05693599
6
MD Time 1820.00
C          -0.59064364       -0.00000000        0.00000001
C           0.59064364        0.00000000       -0.00000001
H          -1.04621231        1.05608267        0.03395382
H          -1.04621231       -1.05608267       -0.03395381
H           1.04621231        1.05608265       -0.03395386
H           1.04621232       -1.05608265        0.03395384
6
MD Time 1830.00
C          -0.59476706       -0.00000000        0.00000001
C           0.59476706        0.00000000       -0.00000001
H          -1.05309136        1.05704303        0.01088087
H          -1.05309136       -1.05704303       -0.01088086
H           1.05309136        1.05704302       -0.01088091
H           1.05309137       -1.05704302        0.01088090
6
MD Time 1840.00
C          -0.59962762       -0.00000000        0.00000001
C           0.59962762        0.00000000       -0.00000001
H          -1.06047013        1.05661954       -0.01219677
H          -1.06047013       -1.05661954        0.01219678
H           1.06047014        1.05661953        0.01219673
H           1.06047014       -1.05661953       -0.01219674
6
MD Time 1850.00
C          -0.60516154       -0.00000000        0.00000001
C           0.60516154        0.00000000       -0.00000001
H          -1.06831362        1.05481144       -0.03519291
H          -1.06831362       -1.05481144        0.03519292
H           1.06831363        1.05481143        0.03519288
H           1.06831363       -1.05481143       -0.03519289
6
MD Time 1860.00
C          -0.61129926       -0.00000000        0.00000001
C           0.61129926        0.00000000       -0.00000001
H          -1.07659073        1.05163392       -0.05802217
H          -1.07659073       -1.05163392        0.05802218
H           1.07659074        1.05163391        0.05802213
H           1.07659074       -1.05163391       -0.05802214
6
MD Time 1870.00
C          -0.61796749       -0.00000000        0.00000001
C           0.61796748        0.00000000       -0.00000001
H          -1.08527436        1.04711768       -0.08060086
H          -1.08527436       -1.04711769        0.08060087
H           1.08527437        1.04711768        0.08060082
H           1.08527437       -1.04711768       -0.08060083
6
MD Time 1880.00
C          -0.62509113       -0.00000000        0.00000001
C           0.62509113        0.00000000       -0.00000001
H          -1.09434151        1.04130854       -0.10284787
H          -1.09434151       -1.04130855        0.10284789
H           1.09434152        1.04130854        0.10284783
H           1.09434153       -1.04130854       -0.10284785
6
MD Time 1890.00
C          -0.63259498       -0.00000000        0.00000001
C           0.63259498        0.00000000       -0.00000001
H          -1.10377328        1.03426688       -0.12468557
H          -1.10377328       -1.03426689        0.12468558
H           1.10377329        1.03426688        0.12468553
H           1.10377330       -1.03426688       -0.12468554
6
MD Time 1900.00
C          -0.64040510       -0.00000000        0.00000001
C           0.64040509        0.00000000       -0.00000001
H          -1.11355482        1.02606707       -0.14604060
H          -1.11355482       -1.02606707        0.14604061
H           1.11355484        1.02606707        0.14604056
H           1.11355484       -1.02606707       -0.14604057
6
MD Time 1910.00
C          -0.64844997       -0.00000000        0.00000001
C           0.64844997        0.00000000       -0.00000001
H          -1.12367524        1.01679675       -0.16684471
H          -1.12367524       -1.01679675        0.16684472
H           1.12367526        1.01679675        0.16684466
H           1.12367527       -1.01679675       -0.16684468
6
MD Time 1920.00
C          -0.65666137       -0.00000000        0.00000001
C           0.65666137        0.00000000       -0.00000001
H          -1.13412744        1.00655599       -0.18703552
H          -1.13412744       -1.00655599        0.18703553
H           1.13412746        1.00655599        0.18703548
H           1.13412746       -1.00655599       -0.18703549
6
MD Time 1930.00
C          -0.66497492       -0.00000000        0.00000001
C           0.66497491        0.00000000       -0.00000001
H          -1.14490778        0.99545623       -0.20655720
H          -1.14490778       -0.99545624        0.20655721
H           1.14490781        0.99545624        0.20655716
H           1.14490781       -0.99545624       -0.20655718
6
MD Time 1940.00
C          -0.67333053       -0.00000000        0.00000001
C           0.67333052        0.00000000       -0.00000001
H          -1.15601579        0.98361905       -0.22536103
H          -1.15601579       -0.98361905        0.22536105
H           1.15601582        0.98361906        0.22536099
H           1.15601582       -0.98361905       -0.22536101
6
MD Time 1950.00
C          -0.68167258       -0.00000000        0.00000001
C           0.68167258        0.00000000       -0.00000001
H          -1.16745361        0.97117460       -0.24340582
H          -1.16745361       -0.97117461        0.24340584
H           1.16745364        0.97117461        0.24340578
H           1.16745364       -0.97117461       -0.24340580
6
MD Time 1960.00
C          -0.68995005       -0.00000000        0.00000001
C           0.68995004        0.00000000       -0.00000001
H          -1.17922540        0.95825989       -0.26065816
H          -1.17922539       -0.95825990        0.26065818
H           1.17922542        0.95825990        0.26065813
H           1.17922543       -0.95825990       -0.26065814
6
MD Time 1970.00
C          -0.69811645       -0.00000000        0.00000001
C           0.69811644        0.00000000       -0.00000001
H          -1.19133657        0.94501667       -0.27709244
H          -1.19133657       -0.94501667        0.27709246
H           1.19133660        0.94501668        0.27709241
H           1.19133661       -0.94501668       -0.27709242
6
MD Time 1980.00
C          -0.70612978       -0.00000000        0.00000001
C           0.70612978        0.00000000       -0.00000001
H          -1.20379294        0.93158911       -0.29269062
H          -1.20379294       -0.93158911        0.29269064
H           1.20379297        0.93158912        0.29269058
H           1.20379297       -0.93158912       -0.29269060
6
MD Time 1990.00
C          -0.71395245       -0.00000000        0.00000001
C           0.71395245        0.00000000       -0.00000001
H          -1.21659959        0.91812129       -0.30744173
H          -1.21659959       -0.91812129        0.30744175
H           1.21659962        0.91812130        0.30744170
H           1.21659962       -0.91812130       -0.30744172
6
MD Time 2000.00
C          -0.72155111       -0.00000000        0.00000001
C           0.72155110        0.00000000       -0.00000001
H          -1.22975980        0.90475444       -0.32134114
H          -1.22975980       -0.90475445        0.32134116
H           1.22975983        0.90475446        0.32134110
H           1.22975983       -0.90475446       -0.32134112
6
MD Time 2010.00
C          -0.72889654       -0.00000000        0.00000001
C           0.72889653        0.00000000       -0.00000001
H          -1.24327372        0.89162423       -0.33438946
H          -1.24327372       -0.89162423        0.33438948
H           1.24327375        0.89162424        0.33438942
H           1.24327375       -0.89162424       -0.33438944
6
MD Time 2020.00
C          -0.73596357       -0.00000000        0.00000001
C           0.73596357        0.00000000       -0.00000001
H          -1.25713707        0.87885799       -0.34659138
H          -1.25713707       -0.87885799        0.34659141
H           1.25713710        0.87885801        0.34659135
H           1.25713711       -0.87885800       -0.34659137
6
MD Time 2030.00
C          -0.74273094       -0.00000000        0.00000001
C           0.74273093        0.00000000       -0.00000001
H          -1.27133984        0.86657228       -0.35795423
H          -1.27133984       -0.86657229        0.35795425
H           1.27133987        0.86657230        0.35795420
H           1.27133988       -0.86657229       -0.35795422
6
MD Time 2040.00
C          -0.74918117       -0.00000000        0.00000001
C           0.74918117        0.00000000       -0.00000001
H          -1.28586504        0.85487065       -0.36848649
H          -1.28586504       -0.85487065        0.36848652
H           1.28586507        0.85487066        0.36848646
H           1.28586507       -0.85487066       -0.36848648
6
MD Time 2050.00
C          -0.75530049       -0.00000000        0.00000001
C           0.75530048        0.00000000       -0.00000001
H          -1.30068764        0.84384192       -0.37819640
H          -1.30068763       -0.84384192        0.37819643
H           1.30068766        0.84384193        0.37819637
H           1.30068767       -0.84384193       -0.37819639
6
MD Time 2060.00
C          -0.76107866       -0.00000000        0.00000001
C           0.76107865        0.00000000       -0.00000001
H          -1.31577371        0.83355903       -0.38709061
H          -1.31577370       -0.83355903        0.38709063
H           1.31577373        0.83355903        0.38709057
H           1.31577374       -0.83355903       -0.38709060
6
MD Time 2070.00
C          -0.76650882       -0.00000000        0.00000001
C           0.76650882        0.00000000       -0.00000001
H          -1.33107994        0.82407847       -0.39517308
H          -1.33107993       -0.82407847        0.39517311
H           1.33107996        0.82407848        0.39517305
H           1.33107996       -0.82407848       -0.39517308
6
MD Time 2080.00
C          -0.77158731       -0.00000000        0.00000001
C           0.77158730        0.00000000       -0.00000001
H          -1.34655344        0.81544037       -0.40244434
H          -1.34655343       -0.81544037        0.40244437
H           1.34655346        0.81544038        0.40244431
H           1.34655346       -0.81544037       -0.40244434
6
MD Time 2090.00
C          -0.77631336       -0.00000000        0.00000001
C           0.77631336        0.00000000       -0.00000001
H          -1.36213198        0.80766914       -0.40890097
H          -1.36213198       -0.80766914        0.40890100
H           1.36213201        0.80766914        0.40890094
H           1.36213201       -0.80766914       -0.40890097
6
MD Time 2100.00
C          -0.78068889       -0.00000000        0.00000001
C           0.78068889        0.00000000       -0.00000001
H          -1.37774462        0.80077467       -0.41453554
H          -1.37774462       -0.80077467        0.41453558
H           1.37774464        0.80077467        0.41453551
H           1.37774464       -0.80077466       -0.41453554
6
MD Time 2110.00
C          -0.78471812       -0.00000000        0.00000001
C           0.78471811        0.00000000       -0.00000001
H          -1.39331262        0.79475389       -0.41933683
H          -1.39331261       -0.79475389        0.41933687
H           1.39331264        0.79475389        0.41933680
H           1.39331264       -0.79475388       -0.41933684
6
MD Time 2120.00
C          -0.78840724       -0.00000000        0.00000001
C           0.78840724        0.00000000       -0.00000001
H          -1.40875072        0.78959265       -0.42329035
H          -1.40875072       -0.78959264        0.42329039
H           1.40875074        0.78959264        0.42329032
H           1.40875074       -0.78959264       -0.42329035
6
MD Time 2130.00
C          -0.79176407       -0.00000000        0.00000001
C           0.79176407        0.00000000       -0.00000001
H          -1.42396863        0.78526767       -0.42637903
H          -1.42396863       -0.78526766        0.42637907
H           1.42396865        0.78526766        0.42637900
H           1.42396865       -0.78526765       -0.42637904
6
MD Time 2140.00
C          -0.79479766       -0.00000000        0.00000001
C           0.79479765        0.00000000       -0.00000001
H          -1.43887258        0.78174858       -0.42858416
H          -1.43887258       -0.78174857        0.42858420
H           1.43887260        0.78174856        0.42858413
H           1.43887260       -0.78174856       -0.42858417
6
MD Time 2150.00
C          -0.79751793       -0.00000000        0.00000001
C           0.79751793        0.00000000       -0.00000001
H          -1.45336698        0.77899979       -0.42988624
H          -1.45336697       -0.77899978        0.42988628
H           1.45336700        0.77899977        0.42988621
H           1.45336700       -0.77899976       -0.42988625
6
MD Time 2160.00
C          -0.79993535       -0.00000000        0.00000001
C           0.79993535        0.00000000       -0.00000001
H          -1.46735600        0.77698225       -0.43026592
H          -1.46735599       -0.77698225        0.43026596
H           1.46735601        0.77698223        0.43026589
H           1.46735601       -0.77698223       -0.43026593
6
MD Time 2170.00
C          -0.80206063       -0.00000000        0.00000001
C           0.80206063        0.00000000       -0.00000001
H          -1.48074509        0.77565500       -0.42970485
H          -1.48074508       -0.77565499        0.42970490
H           1.48074510        0.77565498        0.42970483
H           1.48074510       -0.77565497       -0.42970487
6
MD Time 2180.00
C          -0.80390441       -0.00000000        0.00000001
C           0.80390441        0.00000000       -0.00000001
H          -1.49344233        0.77497637       -0.42818644
H          -1.49344232       -0.77497636        0.42818649
H           1.49344234        0.77497635        0.42818642
H           1.49344234       -0.77497634       -0.42818646
6
MD Time 2190.00
C          -0.80547708       -0.00000000        0.00000001
C           0.80547708       -0.00000000       -0.00000001
H          -1.50535960        0.77490512       -0.42569644
H          -1.50535960       -0.77490511        0.42569649
H           1.50535962        0.77490510        0.42569641
H           1.50535962       -0.77490509       -0.42569646
6
MD Time 2200.00
C          -0.80678852       -0.00000000        0.00000001
C           0.80678852       -0.00000000       -0.00000001
H          -1.51641362        0.77540114       -0.42222344
H          -1.51641362       -0.77540113        0.42222349
H           1.51641364        0.77540112        0.42222342
H           1.51641364       -0.77540111       -0.42222346
6
MD Time 2210.00
C          -0.80784801       -0.00000000        0.00000001
C           0.80784800       -0.00000000       -0.00000001
H          -1.52652670        0.77642610       -0.41775925
H          -1.52652670       -0.77642609        0.41775930
H           1.52652672        0.77642607        0.41775923
H           1.52652672       -0.77642606       -0.41775927
6
MD Time 2220.00
C          -0.80866404       -0.00000000        0.00000001
C           0.80866403       -0.00000000       -0.00000001
H          -1.53562746        0.77794382       -0.41229908
H          -1.53562745       -0.77794381        0.41229914
H           1.53562747        0.77794379        0.41229907
H           1.53562747       -0.77794378       -0.41229911
6
MD Time 2230.00
C          -0.80924426       -0.00000000        0.00000001
C           0.80924426       -0.00000000       -0.00000001
H          -1.54365127        0.77992054       -0.40584173
H          -1.54365127       -0.77992053        0.40584179
H           1.54365129        0.77992052        0.40584172
H           1.54365129       -0.77992050       -0.40584177
6
MD Time 2240.00
C          -0.80959541       -0.00000000        0.00000001
C           0.80959541       -0.00000000       -0.00000001
H          -1.55054069        0.78232505       -0.39838958
H          -1.55054069       -0.78232504        0.39838964
H           1.55054072        0.78232502        0.39838957
H           1.55054072       -0.78232501       -0.39838962
6
MD Time 2250.00
C          -0.80972326       -0.00000000        0.00000001
C           0.80972326       -0.00000000       -0.00000001
H          -1.55624569        0.78512871       -0.38994860
H          -1.55624569       -0.78512870        0.38994866
H           1.55624572        0.78512868        0.38994860
H           1.55624572       -0.78512866       -0.38994865
6
MD Time 2260.00
C          -0.80963259       -0.00000000        0.00000001
C           0.80963258       -0.00000000       -0.00000001
H          -1.56072385        0.78830543       -0.38052825
H          -1.56072385       -0.78830542        0.38052832
H           1.56072388        0.78830540        0.38052826
H           1.56072388       -0.78830538       -0.38052831
6
MD Time 2270.00
C          -0.80932716       -0.00000000        0.00000001
C           0.80932715       -0.00000000       -0.00000001
H          -1.56394053        0.79183159       -0.37014141
H          -1.56394053       -0.79183158        0.37014148
H           1.56394056        0.79183156        0.37014142
H           1.56394056       -0.79183154       -0.37014147
6
MD Time 2280.00
C          -0.80880976       -0.00000000        0.00000001
C           0.80880975       -0.00000000       -0.00000001
H          -1.56586890        0.79568592       -0.35880421
H          -1.56586890       -0.79568591        0.35880427
H           1.56586894        0.79568589        0.35880422
H           1.56586894       -0.79568587       -0.35880428
6
MD Time 2290.00
C          -0.80808215       -0.00000000        0.00000001
C           0.80808215       -0.00000000       -0.00000001
H          -1.56649006        0.79984934       -0.34653589
H          -1.56649006       -0.79984933        0.34653596
H           1.56649010        0.79984930        0.34653591
H           1.56649010       -0.79984929       -0.34653597
6
MD Time 2300.00
C          -0.80714515       -0.00000000        0.00000001
C           0.80714514       -0.00000000       -0.00000001
H          -1.56579301        0.80430480       -0.33335868
H          -1.56579301       -0.80430479        0.33335875
H           1.56579306        0.80430476        0.33335871
H           1.56579306       -0.80430475       -0.33335877
6
MD Time 2310.00
C          -0.80599860       -0.00000000        0.00000001
C           0.80599860       -0.00000000       -0.00000001
H          -1.56377471        0.80903713       -0.31929761
H          -1.56377471       -0.80903711        0.31929768
H           1.56377476        0.80903709        0.31929765
H           1.56377476       -0.80903707       -0.31929770
6
MD Time 2320.00
C          -0.80464146       -0.00000000        0.00000001
C           0.80464145       -0.00000000       -0.00000001
H          -1.56044001        0.81403279       -0.30438037
H          -1.56044001       -0.81403278        0.30438044
H           1.56044006        0.81403275        0.30438042
H           1.56044007       -0.81403273       -0.30438047
6
MD Time 2330.00
C          -0.80307179       -0.00000000        0.00000001
C           0.80307178       -0.00000000       -0.00000001
H          -1.55580162        0.81927971       -0.28863716
H          -1.55580163       -0.81927970        0.28863723
H           1.55580169        0.81927967        0.28863722
H           1.55580169       -0.81927965       -0.28863728
6
MD Time 2340.00
C          -0.80128690       -0.00000000        0.00000001
C           0.80128689       -0.00000000       -0.00000001
H          -1.54988002        0.82476703       -0.27210056
H          -1.54988003       -0.82476702        0.27210063
H           1.54988009        0.82476699        0.27210062
H           1.54988009       -0.82476697       -0.27210068
6
MD Time 2350.00
C          -0.79928336       -0.00000000        0.00000001
C           0.79928334       -0.00000000       -0.00000001
H          -1.54270327        0.83048482       -0.25480534
H          -1.54270328       -0.83048480        0.25480541
H           1.54270334        0.83048477        0.25480542
H           1.54270335       -0.83048475       -0.25480547
6
MD Time 2360.00
C          -0.79705710       -0.00000000        0.00000001
C           0.79705709       -0.00000000       -0.00000001
H          -1.53430679        0.83642378       -0.23678838
H          -1.53430679       -0.83642376        0.23678845
H           1.53430686        0.83642373        0.23678846
H           1.53430687       -0.83642371       -0.23678852
6
MD Time 2370.00
C          -0.79460359       -0.00000000        0.00000001
C           0.79460358       -0.00000000       -0.00000001
H          -1.52473305        0.84257489       -0.21808849
H          -1.52473305       -0.84257487        0.21808856
H           1.52473312        0.84257483        0.21808858
H           1.52473313       -0.84257482       -0.21808864
6
MD Time 2380.00
C          -0.79191792       -0.00000000        0.00000001
C           0.79191790       -0.00000000       -0.00000001
H          -1.51403113        0.84892896       -0.19874631
H          -1.51403114       -0.84892895        0.19874638
H           1.51403121        0.84892891        0.19874642
H           1.51403122       -0.84892889       -0.19874648
6
MD Time 2390.00
C          -0.78899499       -0.00000000        0.00000001
C           0.78899497       -0.00000000       -0.00000001
H          -1.50225623        0.85547621       -0.17880423
H          -1.50225624       -0.85547619        0.17880430
H           1.50225631        0.85547616        0.17880434
H           1.50225632       -0.85547614       -0.17880441
6
MD Time 2400.00
C          -0.78582972       -0.00000000        0.00000001
C           0.78582970       -0.00000000       -0.00000001
H          -1.48946898        0.86220564       -0.15830624
H          -1.48946899       -0.86220563        0.15830631
H           1.48946907        0.86220559        0.15830637
H           1.48946907       -0.86220557       -0.15830643
6
MD Time 2410.00
C          -0.78241724       -0.00000000        0.00000001
C           0.78241723       -0.00000000       -0.00000001
H          -1.47573473        0.86910451       -0.13729795
H          -1.47573474       -0.86910450        0.13729802
H           1.47573482        0.86910445        0.13729809
H           1.47573482       -0.86910444       -0.13729815
6
MD Time 2420.00
C          -0.77875316       -0.00000000        0.00000001
C           0.77875315       -0.00000000       -0.00000001
H          -1.46112269        0.87615762       -0.11582653
H          -1.46112270       -0.87615761        0.11582661
H           1.46112278        0.87615756        0.11582668
H           1.46112279       -0.87615755       -0.11582675
6
MD Time 2430.00
C          -0.77483379       -0.00000000        0.00000001
C           0.77483378       -0.00000000       -0.00000001
H          -1.44570506        0.88334669       -0.09394079
H          -1.44570507       -0.88334667        0.09394087
H           1.44570515        0.88334663        0.09394095
H           1.44570516       -0.88334661       -0.09394102
6
MD Time 2440.00
C          -0.77065642       -0.00000000        0.00000001
C           0.77065641       -0.00000000       -0.00000001
H          -1.42955605        0.89064965       -0.07169122
H          -1.42955606       -0.89064964        0.07169129
H           1.42955614        0.89064959        0.07169139
H           1.42955615       -0.89064957       -0.07169145
6
MD Time 2450.00
C          -0.76621960       -0.00000000        0.00000001
C           0.76621959       -0.00000000       -0.00000001
H          -1.41275103        0.89804008       -0.04913015
H          -1.41275104       -0.89804007        0.04913022
H           1.41275111        0.89804002        0.04913033
H           1.41275113       -0.89804000       -0.04913039
6
MD Time 2460.00
C          -0.76152337       -0.00000000        0.00000001
C           0.76152335       -0.00000000       -0.00000001
H          -1.39536560        0.90548667       -0.02631195
H          -1.39536561       -0.90548665        0.02631203
H           1.39536569        0.90548660        0.02631214
H           1.39536570       -0.90548659       -0.02631221
6
MD Time 2470.00
C          -0.75656952       -0.00000000        0.00000001
C           0.75656950       -0.00000000       -0.00000001
H          -1.37747491        0.91295287       -0.00329325
H          -1.37747492       -0.91295286        0.00329333
H           1.37747499        0.91295281        0.00329345
H           1.37747500       -0.91295280       -0.00329352
6
MD Time 2480.00
C          -0.75136182       -0.00000000        0.00000001
C           0.75136181       -0.00000000       -0.00000001
H          -1.35915300        0.92039679        0.01986686
H          -1.35915301       -0.92039678       -0.01986679
H           1.35915308        0.92039672       -0.01986665
H           1.35915309       -0.92039671        0.01986659
6
MD Time 2490.00
C          -0.74590620       -0.00000000        0.00000001
C           0.74590619       -0.00000000       -0.00000001
H          -1.34047241        0.92777124        0.04310660
H          -1.34047243       -0.92777123       -0.04310652
H           1.34047249        0.92777117       -0.04310638
H           1.34047251       -0.92777117        0.04310631
6
MD Time 2500.00
C          -0.74021094       -0.00000000        0.00000001
C           0.74021093       -0.00000000       -0.00000001
H          -1.32150394        0.93502416        0.06636131
H          -1.32150396       -0.93502416       -0.06636124
H           1.32150401        0.93502410       -0.06636109
H           1.32150403       -0.93502409        0.06636102
6
MD Time 2510.00
C          -0.73428677       -0.00000000        0.00000001
C           0.73428676       -0.00000000       -0.00000001
H          -1.30231656        0.94209929        0.08956343
H          -1.30231658       -0.94209928       -0.08956336
H           1.30231664        0.94209923       -0.08956319
H           1.30231665       -0.94209922        0.08956313
6
MD Time 2520.00
C          -0.72814703       -0.00000000        0.00000001
C           0.72814702       -0.00000000       -0.00000001
H          -1.28297759        0.94893704        0.11264245
H          -1.28297761       -0.94893703       -0.11264238
H           1.28297766        0.94893698       -0.11264221
H           1.28297768       -0.94893697        0.11264214
6
MD Time 2530.00
C          -0.72180773       -0.00000000        0.00000001
C           0.72180772       -0.00000000       -0.00000001
H          -1.26355289        0.95547570        0.13552512
H          -1.26355291       -0.95547570       -0.13552506
H           1.26355295        0.95547565       -0.13552487
H           1.26355297       -0.95547564        0.13552481
6
MD Time 2540.00
C          -0.71528763       -0.00000000        0.00000001
C           0.71528762       -0.00000000       -0.00000001
H          -1.24410727        0.96165278        0.15813574
H          -1.24410729       -0.96165277       -0.15813568
H           1.24410733        0.96165273       -0.15813548
H           1.24410735       -0.96165272        0.15813542
6
MD Time 2550.00
C          -0.70860831       -0.00000000        0.00000001
C           0.70860830        0.00000000       -0.00000001
H          -1.22470487        0.96740641        0.18039659
H          -1.22470489       -0.96740641       -0.18039652
H           1.22470492        0.96740637       -0.18039632
H           1.22470494       -0.96740637        0.18039625
6
MD Time 2560.00
C          -0.70179423       -0.00000000        0.00000001
C           0.70179423        0.00000000       -0.00000001
H          -1.20540958        0.97267688        0.20222849
H          -1.20540960       -0.97267688       -0.20222843
H           1.20540963        0.97267684       -0.20222822
H           1.20540966       -0.97267684        0.20222815
6
MD Time 2570.00
C          -0.69487280       -0.00000000        0.00000001
C           0.69487279        0.00000000       -0.00000001
H          -1.18628547        0.97740805        0.22355153
H          -1.18628549       -0.97740805       -0.22355147
H           1.18628552        0.97740802       -0.22355125
H           1.18628554       -0.97740802        0.22355119
6
MD Time 2580.00
C          -0.68787436       -0.00000000        0.00000001
C           0.68787435        0.00000000       -0.00000001
H          -1.16739710        0.98154875        0.24428580
H          -1.16739712       -0.98154875       -0.24428573
H           1.16739714        0.98154873       -0.24428551
H           1.16739717       -0.98154873        0.24428544
6
MD Time 2590.00
C          -0.68083228        0.00000000        0.00000001
C           0.68083227        0.00000000       -0.00000001
H          -1.14880979        0.98505397        0.26435217
H          -1.14880982       -0.98505397       -0.26435211
H           1.14880983        0.98505395       -0.26435188
H           1.14880986       -0.98505395        0.26435181
6
MD Time 2600.00
C          -0.67378291        0.00000000        0.00000001
C           0.67378291        0.00000000       -0.00000001
H          -1.13058984        0.98788592        0.28367321
H          -1.13058986       -0.98788592       -0.28367314
H           1.13058988        0.98788592       -0.28367291
H           1.13058990       -0.98788592        0.28367285
6
MD Time 2610.00
C          -0.66676560        0.00000000        0.00000001
C           0.66676559        0.00000000       -0.00000001
H          -1.11280457        0.99001492        0.30217392
H          -1.11280460       -0.99001492       -0.30217386
H           1.11280461        0.99001492       -0.30217361
H           1.11280463       -0.99001493        0.30217355
6
MD Time 2620.00
C          -0.65982255        0.00000000        0.00000001
C           0.65982255        0.00000000       -0.00000001
H          -1.09552239        0.99142000        0.31978257
H          -1.09552241       -0.99142000       -0.31978251
H           1.09552242        0.99142002       -0.31978226
H           1.09552244       -0.99142002        0.31978220
6
MD Time 2630.00
C          -0.65299872        0.00000000        0.00000001
C           0.65299872        0.00000000       -0.00000001
H          -1.07881265        0.99208941        0.33643142
H          -1.07881268       -0.99208941       -0.33643136
H           1.07881268        0.99208944       -0.33643111
H           1.07881271       -0.99208944        0.33643105
6
MD Time 2640.00
C          -0.64634155        0.00000000        0.00000001
C           0.64634154        0.00000000       -0.00000001
H          -1.06274558        0.99202088        0.35205736
H          -1.06274560       -0.99202089       -0.35205730
H           1.06274560        0.99202092       -0.35205704
H           1.06274563       -0.99202093        0.35205698
6
MD Time 2650.00
C          -0.63990058        0.00000000        0.00000001
C           0.63990058        0.00000000       -0.00000001
H          -1.04739198        0.99122176        0.36660250
H          -1.04739200       -0.99122177       -0.36660245
H           1.04739200        0.99122182       -0.36660219
H           1.04739203       -0.99122182        0.36660213
6
MD Time 2660.00
C          -0.63372705        0.00000000        0.00000001
C           0.63372705        0.00000000       -0.00000001
H          -1.03282306        0.98970902        0.38001470
H          -1.03282309       -0.98970902       -0.38001464
H           1.03282308        0.98970908       -0.38001438
H           1.03282311       -0.98970909        0.38001432
6
MD Time 2670.00
C          -0.62787319        0.00000000        0.00000001
C           0.62787319        0.00000000       -0.00000001
H          -1.01911008        0.98750910        0.39224793
H          -1.01911010       -0.98750911       -0.39224788
H           1.01911010        0.98750918       -0.39224762
H           1.01911012       -0.98750918        0.39224756
6
MD Time 2680.00
C          -0.62239152        0.00000000        0.00000001
C           0.62239152        0.00000000       -0.00000001
H          -1.00632402        0.98465773        0.40326269
H          -1.00632404       -0.98465774       -0.40326263
H           1.00632403        0.98465783       -0.40326237
H           1.00632405       -0.98465783        0.40326231
6
MD Time 2690.00
C          -0.61733391        0.00000000        0.00000002
C           0.61733391        0.00000000       -0.00000001
H          -0.99453521        0.98119963        0.41302620
H          -0.99453523       -0.98119963       -0.41302615
H           0.99453522        0.98119973       -0.41302588
H           0.99453524       -0.98119974        0.41302583
6
MD Time 2700.00
C          -0.61275055        0.00000000        0.00000002
C           0.61275054        0.00000000       -0.00000001
H          -0.98381296        0.97718813        0.42151269
H          -0.98381298       -0.97718813       -0.42151264
H           0.98381297        0.97718825       -0.42151238
H           0.98381299       -0.97718825        0.42151232
6
MD Time 2710.00
C          -0.60868880        0.00000000        0.00000002
C           0.60868880        0.00000000       -0.00000002
H          -0.97422511        0.97268479        0.42870348
H          -0.97422513       -0.97268479       -0.42870343
H           0.97422512        0.97268492       -0.42870317
H           0.97422514       -0.97268492        0.42870311
6
MD Time 2720.00
C          -0.60519203        0.00000000        0.00000002
C           0.60519203        0.00000000       -0.00000002
H          -0.96583759        0.96775890        0.43458710
H          -0.96583761       -0.96775891       -0.43458705
H           0.96583759        0.96775905       -0.43458679
H           0.96583761       -0.96775905        0.43458673
6
MD Time 2730.00
C          -0.60229835        0.00000000        0.00000002
C           0.60229835        0.00000000       -0.00000002
H          -0.95871394        0.96248697        0.43915928
H          -0.95871396       -0.96248698       -0.43915923
H           0.95871394        0.96248713       -0.43915897
H           0.95871396       -0.96248713        0.43915891
6
MD Time 2740.00
C          -0.60003948        0.00000000        0.00000002
C           0.60003948        0.00000000       -0.00000002
H          -0.95291481        0.95695207        0.44242292
H          -0.95291483       -0.95695207       -0.44242288
H           0.95291481        0.95695223       -0.44242262
H           0.95291483       -0.95695224        0.44242256
6
MD Time 2750.00
C          -0.59843968        0.00000000        0.00000002
C           0.59843968        0.00000000       -0.00000002
H          -0.94849742        0.95124309        0.44438798
H          -0.94849744       -0.95124309       -0.44438794
H           0.94849742        0.95124326       -0.44438768
H           0.94849743       -0.95124326        0.44438762
6
MD Time 2760.00
C          -0.59751492        0.00000000        0.00000002
C           0.59751492        0.00000000       -0.00000002
H          -0.94551495        0.94545390        0.44507122
H          -0.94551496       -0.94545390       -0.44507118
H           0.94551494        0.94545408       -0.44507092
H           0.94551496       -0.94545409        0.44507086
6
MD Time 2770.00
C          -0.59727224        0.00000000        0.00000002
C           0.59727224        0.00000000       -0.00000002
H          -0.94401594        0.93968229        0.44449590
H          -0.94401595       -0.93968229       -0.44449585
H           0.94401592        0.93968248       -0.44449560
H           0.94401594       -0.93968248        0.44449555
6
MD Time 2780.00
C          -0.59770943        0.00000000        0.00000002
C           0.59770943        0.00000000       -0.00000002
H          -0.94404359        0.93402867        0.44269130
H          -0.94404360       -0.93402867       -0.44269126
H           0.94404357        0.93402886       -0.44269100
H           0.94404359       -0.93402887        0.44269095
6
MD Time 2790.00
C          -0.59881506        0.00000000        0.00000002
C           0.59881506       -0.00000000       -0.00000002
H          -0.94563504        0.92859458        0.43969213
H          -0.94563505       -0.92859458       -0.43969208
H           0.94563502        0.92859478       -0.43969183
H           0.94563503       -0.92859478        0.43969178
6
MD Time 2800.00
C          -0.60056876        0.00000000        0.00000002
C           0.60056876       -0.00000000       -0.00000002
H          -0.94882054        0.92348086        0.43553770
H          -0.94882055       -0.92348086       -0.43553765
H           0.94882052        0.92348106       -0.43553740
H           0.94882053       -0.92348107        0.43553735
6
MD Time 2810.00
C          -0.60294192        0.00000000        0.00000002
C           0.60294192       -0.00000000       -0.00000002
H          -0.95362259        0.91878554        0.43027099
H          -0.95362260       -0.91878554       -0.43027095
H           0.95362256        0.91878574       -0.43027070
H           0.95362257       -0.91878575        0.43027065
6
MD Time 2820.00
C          -0.60589861        0.00000000        0.00000002
C           0.60589861       -0.00000000       -0.00000002
H          -0.96005498        0.91460139        0.42393756
H          -0.96005499       -0.91460139       -0.42393751
H           0.96005495        0.91460160       -0.42393727
H           0.96005496       -0.91460160        0.42393721
6
MD Time 2830.00
C          -0.60939671        0.00000000        0.00000002
C           0.60939672       -0.00000000       -0.00000002
H          -0.96812180        0.91101327        0.41658420
H          -0.96812180       -0.91101327       -0.41658415
H           0.96812176        0.91101348       -0.41658391
H           0.96812177       -0.91101348        0.41658386
6
MD Time 2840.00
C          -0.61338929        0.00000000        0.00000002
C           0.61338929       -0.00000000       -0.00000002
H          -0.97781632        0.90809520        0.40825771
H          -0.97781632       -0.90809520       -0.40825766
H           0.97781628        0.90809541       -0.40825742
H           0.97781628       -0.90809541        0.40825737
6
MD Time 2850.00
C          -0.61782595        0.00000000        0.00000002
C           0.61782595       -0.00000000       -0.00000002
H          -0.98911996        0.90590748        0.39900352
H          -0.98911996       -0.90590748       -0.39900347
H           0.98911992        0.90590768       -0.39900323
H           0.98911992       -0.90590769        0.39900318
6
MD Time 2860.00
C          -0.62265434        0.00000000        0.00000002
C           0.62265435       -0.00000000       -0.00000002
H          -1.00200120        0.90449380        0.38886452
H          -1.00200120       -0.90449380       -0.38886447
H           1.00200115        0.90449400       -0.38886423
H           1.00200115       -0.90449400        0.38886418
6
MD Time 2870.00
C          -0.62782152        0.00000000        0.00000002
C           0.62782153       -0.00000000       -0.00000002
H          -1.01641459        0.90387876        0.37788007
H          -1.01641459       -0.90387876       -0.37788003
H           1.01641453        0.90387895       -0.37787979
H           1.01641453       -0.90387895        0.37787973
6
MD Time 2880.00
C          -0.63327528        0.00000000        0.00000002
C           0.63327529       -0.00000000       -0.00000002
H          -1.03229992        0.90406584        0.36608537
H          -1.03229992       -0.90406584       -0.36608532
H           1.03229986        0.90406603       -0.36608508
H           1.03229986       -0.90406603        0.36608502
6
MD Time 2890.00
C          -0.63896526        0.00000000        0.00000002
C           0.63896527       -0.00000000       -0.00000002
H          -1.04958170        0.90503617        0.35351120
H          -1.04958170       -0.90503616       -0.35351115
H           1.04958163        0.90503634       -0.35351091
H           1.04958163       -0.90503634        0.35351085
6
MD Time 2900.00
C          -0.64484394        0.00000000        0.00000002
C           0.64484396       -0.00000000       -0.00000002
H          -1.06816887        0.90674812        0.34018419
H          -1.06816887       -0.90674812       -0.34018414
H           1.06816880        0.90674829       -0.34018390
H           1.06816880       -0.90674829        0.34018385
6
MD Time 2910.00
C          -0.65086738        0.00000000        0.00000002
C           0.65086740       -0.00000000       -0.00000002
H          -1.08795507        0.90913802        0.32612751
H          -1.08795506       -0.90913802       -0.32612746
H           1.08795499        0.90913818       -0.32612722
H           1.08795499       -0.90913818        0.32612716
6
MD Time 2920.00
C          -0.65699574        0.00000000        0.00000002
C           0.65699576       -0.00000000       -0.00000002
H          -1.10881926        0.91212179        0.31136188
H          -1.10881925       -0.91212179       -0.31136183
H           1.10881917        0.91212194       -0.31136158
H           1.10881917       -0.91212194        0.31136153
6
MD Time 2930.00
C          -0.66319359        0.00000000        0.00000002
C           0.66319361        0.00000000       -0.00000002
H          -1.13062696        0.91559756        0.29590700
H          -1.13062696       -0.91559755       -0.29590695
H           1.13062687        0.91559769       -0.29590670
H           1.13062687       -0.91559769        0.29590664
6
MD Time 2940.00
C          -0.66943001        0.00000000        0.00000003
C           0.66943002        0.00000000       -0.00000002
H          -1.15323191        0.91944905        0.27978301
H          -1.15323190       -0.91944904       -0.27978296
H           1.15323182        0.91944917       -0.27978271
H           1.15323181       -0.91944917        0.27978265
6
MD Time 2950.00
C          -0.67567848        0.00000000        0.00000003
C           0.67567849        0.00000000       -0.00000002
H          -1.17647815        0.92354952        0.26301199
H          -1.17647814       -0.92354952       -0.26301194
H           1.17647805        0.92354963       -0.26301170
H           1.17647805       -0.92354964        0.26301164
6
MD Time 2960.00
C          -0.68191667        0.00000000        0.00000003
C           0.68191668        0.00000000       -0.00000003
H          -1.20020246        0.92776597        0.24561933
H          -1.20020245       -0.92776597       -0.24561928
H           1.20020236        0.92776606       -0.24561904
H           1.20020236       -0.92776607        0.24561897
6
MD Time 2970.00
C          -0.68812606        0.00000000        0.00000003
C           0.68812608        0.00000000       -0.00000003
H          -1.22423697        0.93196327        0.22763476
H          -1.22423696       -0.93196327       -0.22763471
H           1.22423687        0.93196335       -0.22763447
H           1.22423686       -0.93196336        0.22763440
6
MD Time 2980.00
C          -0.69429154        0.00000000        0.00000003
C           0.69429156        0.00000000       -0.00000003
H          -1.24841182        0.93600818        0.20909317
H          -1.24841181       -0.93600818       -0.20909311
H           1.24841172        0.93600825       -0.20909287
H           1.24841171       -0.93600826        0.20909281
6
MD Time 2990.00
C          -0.70040092        0.00000000        0.00000003
C           0.70040094        0.00000000       -0.00000003
H          -1.27255777        0.93977283        0.19003497
H          -1.27255776       -0.93977283       -0.19003492
H           1.27255767        0.93977289       -0.19003468
H           1.27255766       -0.93977290        0.19003461
