6
MD Time 0.00
C          -1.00424993        0.00000000        0.00000000
C           1.00424993        0.00000000        0.00000000
H          -1.57974221        0.85087473        0.35244385
H          -1.57974221       -0.85087473       -0.35244385
H           1.57974221        0.85087473       -0.35244385
H           1.57974221       -0.85087473        0.35244385
6
MD Time 10.00
C          -1.00413378       -0.00000000        0.00000000
C           1.00413378       -0.00000000       -0.00000000
H          -1.57959972        0.85102801        0.35240037
H          -1.57959972       -0.85102801       -0.35240037
H           1.57959972        0.85102801       -0.35240037
H           1.57959972       -0.85102801        0.35240037
6
MD Time 20.00
C          -1.00378537       -0.00000000        0.00000000
C           1.00378537       -0.00000000       -0.00000000
H          -1.57917168        0.85148607        0.35226903
H          -1.57917168       -0.85148607       -0.35226903
H           1.57917168        0.85148607       -0.35226903
H           1.57917168       -0.85148607        0.35226903
6
MD Time 30.00
C          -1.00320473       -0.00000000        0.00000000
C           1.00320473       -0.00000000       -0.00000000
H          -1.57845636        0.85224361        0.35204716
H          -1.57845636       -0.85224361       -0.35204716
H           1.57845636        0.85224361       -0.35204716
H           1.57845636       -0.85224361        0.35204716
6
MD Time 40.00
C          -1.00239195       -0.00000000        0.00000000
C           1.00239194       -0.00000000       -0.00000000
H          -1.57745094        0.85329190        0.35173035
H          -1.57745094       -0.85329190       -0.35173035
H           1.57745095        0.85329190       -0.35173035
H           1.57745095       -0.85329190        0.35173035
6
MD Time 50.00
C          -1.00134708       -0.00000000        0.00000000
C           1.00134708       -0.00000000       -0.00000000
H          -1.57615166        0.85461900        0.35131260
H          -1.57615166       -0.85461900       -0.35131260
H           1.57615167        0.85461900       -0.35131259
H           1.57615167       -0.85461900        0.35131259
6
MD Time 60.00
C          -1.00007019       -0.00000000        0.00000000
C           1.00007019       -0.00000000       -0.00000000
H          -1.57455390        0.85620996        0.35078635
H          -1.57455390       -0.85620996       -0.35078635
H           1.57455391        0.85620996       -0.35078634
H           1.57455391       -0.85620996        0.35078634
6
MD Time 70.00
C          -0.99856129       -0.00000000        0.00000000
C           0.99856129       -0.00000000       -0.00000000
H          -1.57265239        0.85804717        0.35014272
H          -1.57265239       -0.85804717       -0.35014273
H           1.57265240        0.85804717       -0.35014272
H           1.57265240       -0.85804717        0.35014272
6
MD Time 80.00
C          -0.99682030       -0.00000000        0.00000000
C           0.99682029       -0.00000000       -0.00000000
H          -1.57044140        0.86011068        0.34937165
H          -1.57044140       -0.86011068       -0.34937165
H           1.57044141        0.86011068       -0.34937164
H           1.57044141       -0.86011068        0.34937164
6
MD Time 90.00
C          -0.99484704       -0.00000000        0.00000000
C           0.99484703       -0.00000000       -0.00000000
H          -1.56791495        0.86237860        0.34846205
H          -1.56791495       -0.86237860       -0.34846205
H           1.56791497        0.86237860       -0.34846203
H           1.56791497       -0.86237860        0.34846204
6
MD Time 100.00
C          -0.99264117       -0.00000000        0.00000000
C           0.99264117       -0.00000000       -0.00000000
H          -1.56506705        0.86482750        0.34740206
H          -1.56506705       -0.86482750       -0.34740207
H           1.56506707        0.86482749       -0.34740205
H           1.56506707       -0.86482749        0.34740205
6
MD Time 110.00
C          -0.99020219       -0.00000000        0.00000000
C           0.99020219       -0.00000000       -0.00000000
H          -1.56189191        0.86743285        0.34617924
H          -1.56189191       -0.86743285       -0.34617924
H           1.56189194        0.86743284       -0.34617922
H           1.56189194       -0.86743284        0.34617923
6
MD Time 120.00
C          -0.98752935       -0.00000000        0.00000000
C           0.98752935       -0.00000000       -0.00000000
H          -1.55838418        0.87016944        0.34478075
H          -1.55838418       -0.87016944       -0.34478075
H           1.55838421        0.87016944       -0.34478073
H           1.55838421       -0.87016943        0.34478073
6
MD Time 130.00
C          -0.98462166       -0.00000000        0.00000000
C           0.98462165       -0.00000000       -0.00000000
H          -1.55453916        0.87301183        0.34319357
H          -1.55453915       -0.87301183       -0.34319357
H           1.55453918        0.87301182       -0.34319355
H           1.55453918       -0.87301182        0.34319355
6
MD Time 140.00
C          -0.98147785       -0.00000000        0.00000000
C           0.98147784       -0.00000000       -0.00000000
H          -1.55035299        0.87593472        0.34140470
H          -1.55035299       -0.87593472       -0.34140470
H           1.55035302        0.87593472       -0.34140467
H           1.55035302       -0.87593471        0.34140467
6
MD Time 150.00
C          -0.97809632       -0.00000000        0.00000000
C           0.97809631       -0.00000000       -0.00000000
H          -1.54582287        0.87891339        0.33940131
H          -1.54582287       -0.87891339       -0.33940131
H           1.54582290        0.87891338       -0.33940127
H           1.54582290       -0.87891338        0.33940128
6
MD Time 160.00
C          -0.97447516       -0.00000000        0.00000000
C           0.97447515       -0.00000000       -0.00000000
H          -1.54094719        0.88192401        0.33717093
H          -1.54094719       -0.88192401       -0.33717093
H           1.54094723        0.88192400       -0.33717089
H           1.54094723       -0.88192400        0.33717089
6
MD Time 170.00
C          -0.97061210       -0.00000000        0.00000000
C           0.97061209       -0.00000000       -0.00000000
H          -1.53572568        0.88494402        0.33470158
H          -1.53572568       -0.88494402       -0.33470159
H           1.53572572        0.88494401       -0.33470154
H           1.53572572       -0.88494401        0.33470154
6
MD Time 180.00
C          -0.96650449       -0.00000000        0.00000000
C           0.96650448       -0.00000000       -0.00000000
H          -1.53015952        0.88795239        0.33198190
H          -1.53015952       -0.88795238       -0.33198190
H           1.53015957        0.88795238       -0.33198186
H           1.53015957       -0.88795238        0.33198186
6
MD Time 190.00
C          -0.96214932       -0.00000000        0.00000000
C           0.96214932       -0.00000000       -0.00000000
H          -1.52425144        0.89092988        0.32900124
H          -1.52425143       -0.89092987       -0.32900124
H           1.52425148        0.89092987       -0.32900119
H           1.52425148       -0.89092987        0.32900119
6
MD Time 200.00
C          -0.95754322       -0.00000000        0.00000000
C           0.95754321       -0.00000000       -0.00000000
H          -1.51800573        0.89385926        0.32574974
H          -1.51800573       -0.89385926       -0.32574974
H           1.51800578        0.89385925       -0.32574968
H           1.51800577       -0.89385925        0.32574969
6
MD Time 210.00
C          -0.95268242       -0.00000000        0.00000000
C           0.95268241       -0.00000000       -0.00000000
H          -1.51142835        0.89672547        0.32221841
H          -1.51142835       -0.89672547       -0.32221841
H           1.51142840        0.89672546       -0.32221835
H           1.51142840       -0.89672546        0.32221836
6
MD Time 220.00
C          -0.94756281       -0.00000000        0.00000000
C           0.94756280       -0.00000000       -0.00000000
H          -1.50452688        0.89951575        0.31839916
H          -1.50452688       -0.89951575       -0.31839916
H           1.50452693        0.89951574       -0.31839910
H           1.50452693       -0.89951574        0.31839910
6
MD Time 230.00
C          -0.94217993       -0.00000000        0.00000000
C           0.94217992       -0.00000000       -0.00000000
H          -1.49731052        0.90221969        0.31428481
H          -1.49731052       -0.90221969       -0.31428482
H           1.49731057        0.90221969       -0.31428475
H           1.49731057       -0.90221968        0.31428475
6
MD Time 240.00
C          -0.93652900       -0.00000000        0.00000000
C           0.93652899       -0.00000000       -0.00000000
H          -1.48979002        0.90482931        0.30986911
H          -1.48979002       -0.90482931       -0.30986912
H           1.48979007        0.90482930       -0.30986904
H           1.48979007       -0.90482930        0.30986905
6
MD Time 250.00
C          -0.93060497       -0.00000000        0.00000000
C           0.93060496       -0.00000000       -0.00000000
H          -1.48197766        0.90733899        0.30514670
H          -1.48197766       -0.90733899       -0.30514671
H           1.48197771        0.90733898       -0.30514663
H           1.48197771       -0.90733898        0.30514663
6
MD Time 260.00
C          -0.92440253       -0.00000000        0.00000000
C           0.92440252       -0.00000000       -0.00000000
H          -1.47388712        0.90974544        0.30011311
H          -1.47388711       -0.90974544       -0.30011312
H           1.47388717        0.90974543       -0.30011303
H           1.47388717       -0.90974543        0.30011304
6
MD Time 270.00
C          -0.91791615       -0.00000000        0.00000000
C           0.91791614       -0.00000000       -0.00000000
H          -1.46553336        0.91204759        0.29476469
H          -1.46553336       -0.91204759       -0.29476470
H           1.46553341        0.91204758       -0.29476461
H           1.46553341       -0.91204758        0.29476462
6
MD Time 280.00
C          -0.91114020       -0.00000000        0.00000000
C           0.91114019       -0.00000000       -0.00000000
H          -1.45693253        0.91424644        0.28909859
H          -1.45693253       -0.91424643       -0.28909859
H           1.45693258        0.91424643       -0.28909850
H           1.45693258       -0.91424642        0.28909851
6
MD Time 290.00
C          -0.90406895       -0.00000000        0.00000000
C           0.90406894       -0.00000000       -0.00000000
H          -1.44810178        0.91634483        0.28311265
H          -1.44810177       -0.91634483       -0.28311265
H           1.44810183        0.91634482       -0.28311256
H           1.44810182       -0.91634482        0.28311256
6
MD Time 300.00
C          -0.89669667       -0.00000000        0.00000000
C           0.89669666       -0.00000000       -0.00000000
H          -1.43905906        0.91834725        0.27680539
H          -1.43905906       -0.91834725       -0.27680539
H           1.43905911        0.91834724       -0.27680529
H           1.43905911       -0.91834724        0.27680530
6
MD Time 310.00
C          -0.88901775       -0.00000000        0.00000000
C           0.88901774       -0.00000000       -0.00000000
H          -1.42982303        0.92025951        0.27017590
H          -1.42982302       -0.92025951       -0.27017591
H           1.42982307        0.92025950       -0.27017581
H           1.42982307       -0.92025950        0.27017582
6
MD Time 320.00
C          -0.88102676       -0.00000000        0.00000000
C           0.88102675       -0.00000000       -0.00000000
H          -1.42041272        0.92208846        0.26322382
H          -1.42041272       -0.92208845       -0.26322383
H           1.42041277        0.92208845       -0.26322372
H           1.42041277       -0.92208845        0.26322373
6
MD Time 330.00
C          -0.87271860       -0.00000000        0.00000000
C           0.87271859       -0.00000000       -0.00000000
H          -1.41084744        0.92384160        0.25594922
H          -1.41084744       -0.92384160       -0.25594922
H           1.41084749        0.92384160       -0.25594911
H           1.41084749       -0.92384159        0.25594912
6
MD Time 340.00
C          -0.86408864       -0.00000000        0.00000000
C           0.86408863       -0.00000000       -0.00000000
H          -1.40114649        0.92552676        0.24835260
H          -1.40114649       -0.92552675       -0.24835260
H           1.40114654        0.92552675       -0.24835249
H           1.40114654       -0.92552675        0.24835250
6
MD Time 350.00
C          -0.85513288       -0.00000000        0.00000000
C           0.85513287       -0.00000000       -0.00000000
H          -1.39132894        0.92715162        0.24043484
H          -1.39132894       -0.92715162       -0.24043484
H           1.39132899        0.92715162       -0.24043473
H           1.39132899       -0.92715162        0.24043474
6
MD Time 360.00
C          -0.84584812       -0.00000000        0.00000000
C           0.84584812       -0.00000000       -0.00000000
H          -1.38141342        0.92872341        0.23219718
H          -1.38141342       -0.92872341       -0.23219719
H           1.38141346        0.92872341       -0.23219707
H           1.38141346       -0.92872341        0.23219708
6
MD Time 370.00
C          -0.83623220       -0.00000000        0.00000000
C           0.83623219       -0.00000000       -0.00000000
H          -1.37141787        0.93024840        0.22364124
H          -1.37141787       -0.93024840       -0.22364125
H           1.37141791        0.93024840       -0.22364112
H           1.37141791       -0.93024840        0.22364113
6
MD Time 380.00
C          -0.82628419       -0.00000000        0.00000000
C           0.82628418       -0.00000000       -0.00000000
H          -1.36135937        0.93173159        0.21476902
H          -1.36135937       -0.93173158       -0.21476903
H           1.36135941        0.93173159       -0.21476890
H           1.36135940       -0.93173158        0.21476891
6
MD Time 390.00
C          -0.81600472       -0.00000000        0.00000000
C           0.81600471       -0.00000000       -0.00000000
H          -1.35125390        0.93317627        0.20558297
H          -1.35125389       -0.93317627       -0.20558298
H           1.35125393        0.93317628       -0.20558285
H           1.35125393       -0.93317627        0.20558286
6
MD Time 400.00
C          -0.80539627       -0.00000000        0.00000000
C           0.80539626       -0.00000000       -0.00000000
H          -1.34111619        0.93458378        0.19608610
H          -1.34111619       -0.93458378       -0.19608611
H           1.34111622        0.93458378       -0.19608597
H           1.34111622       -0.93458378        0.19608599
6
MD Time 410.00
C          -0.79446353       -0.00000000        0.00000000
C           0.79446353       -0.00000000       -0.00000000
H          -1.33095958        0.93595313        0.18628204
H          -1.33095958       -0.93595313       -0.18628205
H           1.33095961        0.93595314       -0.18628192
H           1.33095961       -0.93595314        0.18628193
6
MD Time 420.00
C          -0.78321382       -0.00000000        0.00000000
C           0.78321381       -0.00000000       -0.00000000
H          -1.32079591        0.93728088        0.17617524
H          -1.32079590       -0.93728088       -0.17617525
H           1.32079593        0.93728088       -0.17617512
H           1.32079593       -0.93728088        0.17617513
6
MD Time 430.00
C          -0.77165751       -0.00000000        0.00000000
C           0.77165751       -0.00000000       -0.00000000
H          -1.31063542        0.93856091        0.16577110
H          -1.31063542       -0.93856091       -0.16577111
H           1.31063545        0.93856092       -0.16577097
H           1.31063545       -0.93856092        0.16577098
6
MD Time 440.00
C          -0.75980864       -0.00000000        0.00000000
C           0.75980863       -0.00000000       -0.00000000
H          -1.30048680        0.93978447        0.15507616
H          -1.30048680       -0.93978447       -0.15507617
H           1.30048682        0.93978448       -0.15507603
H           1.30048682       -0.93978448        0.15507604
6
MD Time 450.00
C          -0.74768541       -0.00000000        0.00000000
C           0.74768540       -0.00000000       -0.00000000
H          -1.29035718        0.94094014        0.14409831
H          -1.29035717       -0.94094014       -0.14409832
H           1.29035719        0.94094015       -0.14409818
H           1.29035719       -0.94094015        0.14409819
6
MD Time 460.00
C          -0.73531092       -0.00000000        0.00000000
C           0.73531092       -0.00000000       -0.00000000
H          -1.28025221        0.94201402        0.13284702
H          -1.28025221       -0.94201402       -0.13284703
H           1.28025223        0.94201403       -0.13284688
H           1.28025223       -0.94201403        0.13284689
6
MD Time 470.00
C          -0.72271391       -0.00000000        0.00000000
C           0.72271391        0.00000000       -0.00000000
H          -1.27017631        0.94298993        0.12133351
H          -1.27017631       -0.94298993       -0.12133352
H           1.27017632        0.94298995       -0.12133338
H           1.27017632       -0.94298995        0.12133339
6
MD Time 480.00
C          -0.70992953       -0.00000000        0.00000000
C           0.70992953        0.00000000       -0.00000000
H          -1.26013279        0.94384983        0.10957101
H          -1.26013279       -0.94384983       -0.10957102
H           1.26013280        0.94384985       -0.10957087
H           1.26013280       -0.94384985        0.10957088
6
MD Time 490.00
C          -0.69700026       -0.00000000        0.00000000
C           0.69700026        0.00000000       -0.00000000
H          -1.25012425        0.94457419        0.09757487
H          -1.25012425       -0.94457419       -0.09757488
H           1.25012425        0.94457421       -0.09757474
H           1.25012425       -0.94457421        0.09757475
6
MD Time 500.00
C          -0.68397686       -0.00000000        0.00000000
C           0.68397686        0.00000000       -0.00000000
H          -1.24015289        0.94514255        0.08536281
H          -1.24015288       -0.94514255       -0.08536282
H           1.24015288        0.94514257       -0.08536267
H           1.24015288       -0.94514257        0.08536269
6
MD Time 510.00
C          -0.67091926       -0.00000000        0.00000000
C           0.67091926        0.00000000       -0.00000000
H          -1.23022096        0.94553416        0.07295493
H          -1.23022095       -0.94553416       -0.07295494
H           1.23022095        0.94553418       -0.07295480
H           1.23022095       -0.94553418        0.07295481
6
MD Time 520.00
C          -0.65789756       -0.00000000        0.00000000
C           0.65789756        0.00000000       -0.00000000
H          -1.22033131        0.94572862        0.06037389
H          -1.22033131       -0.94572862       -0.06037391
H           1.22033130        0.94572864       -0.06037377
H           1.22033130       -0.94572864        0.06037378
6
MD Time 530.00
C          -0.64499280       -0.00000000        0.00000000
C           0.64499280        0.00000000       -0.00000000
H          -1.21048796        0.94570665        0.04764485
H          -1.21048795       -0.94570666       -0.04764486
H           1.21048794        0.94570668       -0.04764473
H           1.21048794       -0.94570668        0.04764474
6
MD Time 540.00
C          -0.63229763       -0.00000000        0.00000000
C           0.63229764        0.00000000       -0.00000000
H          -1.20069668        0.94545090        0.03479546
H          -1.20069668       -0.94545090       -0.03479547
H           1.20069666        0.94545093       -0.03479534
H           1.20069666       -0.94545093        0.03479535
6
MD Time 550.00
C          -0.61991663       -0.00000000        0.00000000
C           0.61991663        0.00000000       -0.00000000
H          -1.19096576        0.94494672        0.02185574
H          -1.19096576       -0.94494672       -0.02185575
H           1.19096573        0.94494675       -0.02185562
H           1.19096573       -0.94494675        0.02185563
6
MD Time 560.00
C          -0.60796613       -0.00000000        0.00000000
C           0.60796614        0.00000000       -0.00000000
H          -1.18130662        0.94418304        0.00885790
H          -1.18130662       -0.94418304       -0.00885791
H           1.18130659        0.94418306       -0.00885779
H           1.18130659       -0.94418306        0.00885780
6
MD Time 570.00
C          -0.59657344       -0.00000000        0.00000000
C           0.59657345        0.00000000       -0.00000000
H          -1.17173461        0.94315319       -0.00416388
H          -1.17173461       -0.94315319        0.00416387
H           1.17173457        0.94315322        0.00416399
H           1.17173457       -0.94315322       -0.00416398
6
MD Time 580.00
C          -0.58587515       -0.00000000        0.00000000
C           0.58587516        0.00000000       -0.00000000
H          -1.16226965        0.94185577       -0.01717382
H          -1.16226965       -0.94185577        0.01717381
H           1.16226961        0.94185580        0.01717392
H           1.16226960       -0.94185580       -0.01717392
6
MD Time 590.00
C          -0.57601448       -0.00000000        0.00000000
C           0.57601449        0.00000000       -0.00000000
H          -1.15293690        0.94029547       -0.03013488
H          -1.15293690       -0.94029547        0.03013487
H           1.15293685        0.94029550        0.03013498
H           1.15293685       -0.94029550       -0.03013498
6
MD Time 600.00
C          -0.56713741        0.00000000        0.00000000
C           0.56713742        0.00000000       -0.00000000
H          -1.14376734        0.93848386       -0.04300925
H          -1.14376734       -0.93848386        0.04300924
H           1.14376729        0.93848388        0.04300935
H           1.14376728       -0.93848388       -0.04300934
6
MD Time 610.00
C          -0.55938777        0.00000000        0.00000000
C           0.55938778        0.00000000       -0.00000000
H          -1.13479822        0.93644015       -0.05575882
H          -1.13479822       -0.93644016        0.05575881
H           1.13479816        0.93644018        0.05575891
H           1.13479816       -0.93644018       -0.05575891
6
MD Time 620.00
C          -0.55290114        0.00000000        0.00000000
C           0.55290115        0.00000000       -0.00000000
H          -1.12607336        0.93419194       -0.06834577
H          -1.12607336       -0.93419194        0.06834576
H           1.12607330        0.93419197        0.06834586
H           1.12607330       -0.93419197       -0.06834585
6
MD Time 630.00
C          -0.54779831        0.00000000        0.00000000
C           0.54779833        0.00000000       -0.00000000
H          -1.11764333        0.93177571       -0.08073315
H          -1.11764333       -0.93177572        0.08073315
H           1.11764326        0.93177574        0.08073323
H           1.11764326       -0.93177574       -0.08073323
6
MD Time 640.00
C          -0.54417841        0.00000000        0.00000000
C           0.54417842        0.00000000       -0.00000000
H          -1.10956529        0.92923736       -0.09288552
H          -1.10956529       -0.92923736        0.09288552
H           1.10956522        0.92923739        0.09288560
H           1.10956522       -0.92923739       -0.09288559
6
MD Time 650.00
C          -0.54211273        0.00000000        0.00000000
C           0.54211275        0.00000000       -0.00000000
H          -1.10190273        0.92663236       -0.10476960
H          -1.10190273       -0.92663236        0.10476959
H           1.10190266        0.92663239        0.10476966
H           1.10190266       -0.92663239       -0.10476966
6
MD Time 660.00
C          -0.54163989        0.00000000        0.00000000
C           0.54163991        0.00000000       -0.00000000
H          -1.09472484        0.92402569       -0.11635488
H          -1.09472484       -0.92402569        0.11635488
H           1.09472477        0.92402572        0.11635494
H           1.09472477       -0.92402572       -0.11635494
6
MD Time 670.00
C          -0.54276293        0.00000000        0.00000000
C           0.54276294        0.00000000       -0.00000000
H          -1.08810559        0.92149134       -0.12761431
H          -1.08810558       -0.92149134        0.12761430
H           1.08810551        0.92149137        0.12761436
H           1.08810550       -0.92149137       -0.12761436
6
MD Time 680.00
C          -0.54544885        0.00000000        0.00000000
C           0.54544886        0.00000000        0.00000000
H          -1.08212246        0.91911131       -0.13852476
H          -1.08212246       -0.91911131        0.13852475
H           1.08212238        0.91911134        0.13852481
H           1.08212238       -0.91911134       -0.13852480
6
MD Time 690.00
C          -0.54963072        0.00000000        0.00000000
C           0.54963073        0.00000000        0.00000000
H          -1.07685492        0.91697399       -0.14906750
H          -1.07685492       -0.91697399        0.14906749
H           1.07685484        0.91697402        0.14906753
H           1.07685484       -0.91697402       -0.14906753
6
MD Time 700.00
C          -0.55521190        0.00000000        0.00000000
C           0.55521192        0.00000000        0.00000000
H          -1.07238243        0.91517189       -0.15922840
H          -1.07238243       -0.91517189        0.15922840
H           1.07238235        0.91517193        0.15922843
H           1.07238235       -0.91517193       -0.15922843
6
MD Time 710.00
C          -0.56207202        0.00000000        0.00000000
C           0.56207203        0.00000000        0.00000000
H          -1.06878225        0.91379870       -0.16899802
H          -1.06878225       -0.91379871        0.16899801
H           1.06878216        0.91379874        0.16899804
H           1.06878216       -0.91379874       -0.16899804
6
MD Time 720.00
C          -0.57007377        0.00000000        0.00000000
C           0.57007379        0.00000000        0.00000000
H          -1.06612700        0.91294573       -0.17837125
H          -1.06612699       -0.91294573        0.17837124
H           1.06612691        0.91294577        0.17837126
H           1.06612691       -0.91294577       -0.17837126
6
MD Time 730.00
C          -0.57907001       -0.00000000        0.00000000
C           0.57907003        0.00000000        0.00000000
H          -1.06448214        0.91269785       -0.18734680
H          -1.06448214       -0.91269785        0.18734680
H           1.06448206        0.91269789        0.18734681
H           1.06448206       -0.91269789       -0.18734681
6
MD Time 740.00
C          -0.58891024       -0.00000000       -0.00000000
C           0.58891025        0.00000000        0.00000000
H          -1.06390356        0.91312925       -0.19592634
H          -1.06390356       -0.91312925        0.19592633
H           1.06390348        0.91312929        0.19592634
H           1.06390348       -0.91312929       -0.19592634
6
MD Time 750.00
C          -0.59944624       -0.00000000       -0.00000000
C           0.59944626        0.00000000        0.00000000
H          -1.06443538        0.91429922       -0.20411335
H          -1.06443538       -0.91429922        0.20411334
H           1.06443530        0.91429926        0.20411334
H           1.06443530       -0.91429927       -0.20411334
6
MD Time 760.00
C          -0.61053659       -0.00000000       -0.00000000
C           0.61053660        0.00000000        0.00000000
H          -1.06610824        0.91624837       -0.21191192
H          -1.06610824       -0.91624838        0.21191191
H           1.06610817        0.91624842        0.21191190
H           1.06610816       -0.91624842       -0.21191190
6
MD Time 770.00
C          -0.62204980       -0.00000000       -0.00000000
C           0.62204981        0.00000000        0.00000000
H          -1.06893816        0.91899558       -0.21932546
H          -1.06893815       -0.91899559        0.21932546
H           1.06893808        0.91899563        0.21932543
H           1.06893808       -0.91899563       -0.21932543
6
MD Time 780.00
C          -0.63386640       -0.00000000       -0.00000000
C           0.63386641        0.00000000        0.00000000
H          -1.07292602        0.92253600       -0.22635553
H          -1.07292602       -0.92253601        0.22635553
H           1.07292595        0.92253605        0.22635550
H           1.07292595       -0.92253605       -0.22635550
6
MD Time 790.00
C          -0.64587998       -0.00000000       -0.00000000
C           0.64588000        0.00000000        0.00000000
H          -1.07805784        0.92684030       -0.23300091
H          -1.07805784       -0.92684030        0.23300090
H           1.07805777        0.92684035        0.23300086
H           1.07805777       -0.92684035       -0.23300087
6
MD Time 800.00
C          -0.65799738       -0.00000000       -0.00000000
C           0.65799739        0.00000000        0.00000000
H          -1.08430554        0.93185516       -0.23925694
H          -1.08430554       -0.93185516        0.23925693
H           1.08430548        0.93185521        0.23925688
H           1.08430547       -0.93185521       -0.23925689
6
MD Time 810.00
C          -0.67013831       -0.00000000       -0.00000000
C           0.67013832        0.00000000        0.00000000
H          -1.09162835        0.93750508       -0.24511529
H          -1.09162835       -0.93750508        0.24511529
H           1.09162829        0.93750513        0.24511523
H           1.09162828       -0.93750513       -0.24511523
6
MD Time 820.00
C          -0.68223454       -0.00000000       -0.00000000
C           0.68223455        0.00000000        0.00000000
H          -1.09997450        0.94369514       -0.25056404
H          -1.09997450       -0.94369514        0.25056403
H           1.09997445        0.94369519        0.25056396
H           1.09997444       -0.94369519       -0.25056397
6
MD Time 830.00
C          -0.69422884       -0.00000000       -0.00000000
C           0.69422885        0.00000000        0.00000000
H          -1.10928322        0.95031453       -0.25558807
H          -1.10928322       -0.95031453        0.25558806
H           1.10928317        0.95031459        0.25558798
H           1.10928317       -0.95031458       -0.25558799
6
MD Time 840.00
C          -0.70607379       -0.00000000       -0.00000000
C           0.70607379        0.00000000        0.00000000
H          -1.11948671        0.95724060       -0.26016974
H          -1.11948671       -0.95724060        0.26016974
H           1.11948666        0.95724065        0.26016965
H           1.11948666       -0.95724065       -0.26016965
6
MD Time 850.00
C          -0.71773057       -0.00000000       -0.00000000
C           0.71773058        0.00000000        0.00000000
H          -1.13051209        0.96434294       -0.26428968
H          -1.13051209       -0.96434294        0.26428968
H           1.13051204        0.96434299        0.26428958
H           1.13051204       -0.96434299       -0.26428958
6
MD Time 860.00
C          -0.72916780       -0.00000000       -0.00000000
C           0.72916781        0.00000000        0.00000000
H          -1.14228320        0.97148745       -0.26792767
H          -1.14228320       -0.97148745        0.26792766
H           1.14228316        0.97148750        0.26792755
H           1.14228316       -0.97148750       -0.26792756
6
MD Time 870.00
C          -0.74036046       -0.00000000       -0.00000000
C           0.74036046        0.00000000        0.00000000
H          -1.15472219        0.97853997       -0.27106348
H          -1.15472219       -0.97853997        0.27106348
H           1.15472216        0.97854003        0.27106336
H           1.15472216       -0.97854003       -0.27106336
6
MD Time 880.00
C          -0.75128887       -0.00000000       -0.00000000
C           0.75128887        0.00000000        0.00000000
H          -1.16775083        0.98536953       -0.27367771
H          -1.16775082       -0.98536954        0.27367771
H           1.16775079        0.98536959        0.27367758
H           1.16775079       -0.98536959       -0.27367758
6
MD Time 890.00
C          -0.76193787       -0.00000000       -0.00000000
C           0.76193787        0.00000000        0.00000000
H          -1.18129156        0.99185099       -0.27575244
H          -1.18129156       -0.99185099        0.27575244
H           1.18129154        0.99185105        0.27575230
H           1.18129153       -0.99185104       -0.27575231
6
MD Time 900.00
C          -0.77229604       -0.00000000       -0.00000000
C           0.77229605        0.00000000        0.00000000
H          -1.19526843        0.99786716       -0.27727182
H          -1.19526843       -0.99786716        0.27727182
H           1.19526840        0.99786722        0.27727167
H           1.19526840       -0.99786722       -0.27727167
6
MD Time 910.00
C          -0.78235509       -0.00000000       -0.00000000
C           0.78235509        0.00000000        0.00000000
H          -1.20960763        1.00331046       -0.27822248
H          -1.20960763       -1.00331046        0.27822247
H           1.20960762        1.00331052        0.27822231
H           1.20960761       -1.00331051       -0.27822232
6
MD Time 920.00
C          -0.79210923       -0.00000000       -0.00000000
C           0.79210923        0.00000000        0.00000000
H          -1.22423808        1.00808401       -0.27859384
H          -1.22423807       -1.00808401        0.27859384
H           1.22423806        1.00808406        0.27859367
H           1.22423806       -1.00808406       -0.27859367
6
MD Time 930.00
C          -0.80155478       -0.00000000       -0.00000000
C           0.80155479        0.00000000        0.00000000
H          -1.23909165        1.01210244       -0.27837836
H          -1.23909165       -1.01210244        0.27837836
H           1.23909164        1.01210250        0.27837817
H           1.23909164       -1.01210249       -0.27837818
6
MD Time 940.00
C          -0.81068973       -0.00000000       -0.00000000
C           0.81068973        0.00000000        0.00000000
H          -1.25410348        1.01529239       -0.27757159
H          -1.25410348       -1.01529239        0.27757159
H           1.25410348        1.01529244        0.27757140
H           1.25410348       -1.01529244       -0.27757140
6
MD Time 950.00
C          -0.81951337       -0.00000000       -0.00000000
C           0.81951337        0.00000000        0.00000000
H          -1.26921210        1.01759269       -0.27617227
H          -1.26921210       -1.01759269        0.27617227
H           1.26921210        1.01759275        0.27617206
H           1.26921210       -1.01759274       -0.27617207
6
MD Time 960.00
C          -0.82802608       -0.00000000       -0.00000000
C           0.82802608        0.00000000        0.00000000
H          -1.28435953        1.01895454       -0.27418230
H          -1.28435953       -1.01895454        0.27418229
H           1.28435953        1.01895460        0.27418208
H           1.28435953       -1.01895459       -0.27418208
6
MD Time 970.00
C          -0.83622899       -0.00000000       -0.00000000
C           0.83622899        0.00000000        0.00000000
H          -1.29949134        1.01934146       -0.27160669
H          -1.29949134       -1.01934146        0.27160669
H           1.29949135        1.01934151        0.27160646
H           1.29949135       -1.01934151       -0.27160647
6
MD Time 980.00
C          -0.84412381       -0.00000000       -0.00000000
C           0.84412381        0.00000000        0.00000000
H          -1.31455678        1.01872924       -0.26845355
H          -1.31455678       -1.01872924        0.26845354
H           1.31455679        1.01872929        0.26845331
H           1.31455679       -1.01872929       -0.26845332
6
MD Time 990.00
C          -0.85171264       -0.00000000       -0.00000000
C           0.85171263        0.00000000        0.00000000
H          -1.32950878        1.01710590       -0.26473394
H          -1.32950878       -1.01710590        0.26473393
H           1.32950880        1.01710595        0.26473369
H           1.32950880       -1.01710595       -0.26473370
6
MD Time 1000.00
C          -0.85899777       -0.00000000       -0.00000000
C           0.85899777        0.00000000        0.00000000
H          -1.34430410        1.01447163       -0.26046184
H          -1.34430410       -1.01447163        0.26046184
H           1.34430412        1.01447168        0.26046159
H           1.34430412       -1.01447167       -0.26046159
6
MD Time 1010.00
C          -0.86598157       -0.00000000       -0.00000000
C           0.86598156        0.00000000        0.00000000
H          -1.35890339        1.01083870       -0.25565403
H          -1.35890338       -1.01083871        0.25565403
H           1.35890341        1.01083875        0.25565377
H           1.35890341       -1.01083875       -0.25565377
6
MD Time 1020.00
C          -0.87266629       -0.00000000       -0.00000000
C           0.87266629        0.00000000        0.00000000
H          -1.37327135        1.00623154       -0.25032998
H          -1.37327135       -1.00623154        0.25032998
H           1.37327138        1.00623158        0.25032971
H           1.37327138       -1.00623158       -0.25032972
6
MD Time 1030.00
C          -0.87905400       -0.00000000       -0.00000000
C           0.87905400        0.00000000        0.00000000
H          -1.38737691        1.00068661       -0.24451176
H          -1.38737691       -1.00068661        0.24451175
H           1.38737694        1.00068666        0.24451148
H           1.38737694       -1.00068665       -0.24451148
6
MD Time 1040.00
C          -0.88514643       -0.00000000       -0.00000000
C           0.88514642        0.00000000        0.00000000
H          -1.40119338        0.99425251       -0.23822387
H          -1.40119338       -0.99425251        0.23822386
H           1.40119342        0.99425256        0.23822358
H           1.40119342       -0.99425255       -0.23822358
6
MD Time 1050.00
C          -0.89094485       -0.00000000       -0.00000000
C           0.89094484        0.00000000        0.00000000
H          -1.41469866        0.98698986       -0.23149312
H          -1.41469866       -0.98698986        0.23149311
H           1.41469870        0.98698990        0.23149282
H           1.41469870       -0.98698990       -0.23149283
6
MD Time 1060.00
C          -0.89645002       -0.00000000       -0.00000000
C           0.89645002        0.00000000        0.00000000
H          -1.42787542        0.97897121       -0.22434842
H          -1.42787542       -0.97897121        0.22434841
H           1.42787546        0.97897125        0.22434812
H           1.42787546       -0.97897125       -0.22434812
6
MD Time 1070.00
C          -0.90166209       -0.00000000       -0.00000000
C           0.90166208        0.00000000        0.00000000
H          -1.44071127        0.97028082       -0.21682055
H          -1.44071127       -0.97028082        0.21682054
H           1.44071132        0.97028086        0.21682024
H           1.44071132       -0.97028086       -0.21682024
6
MD Time 1080.00
C          -0.90658050       -0.00000000       -0.00000000
C           0.90658049        0.00000000        0.00000000
H          -1.45319889        0.96101429       -0.20894185
H          -1.45319889       -0.96101429        0.20894185
H           1.45319893        0.96101433        0.20894154
H           1.45319893       -0.96101433       -0.20894154
6
MD Time 1090.00
C          -0.91120400       -0.00000000       -0.00000000
C           0.91120399        0.00000000        0.00000000
H          -1.46533600        0.95127788       -0.20074592
H          -1.46533600       -0.95127788        0.20074591
H           1.46533605        0.95127792        0.20074560
H           1.46533605       -0.95127791       -0.20074560
6
MD Time 1100.00
C          -0.91553058       -0.00000000       -0.00000000
C           0.91553057        0.00000000        0.00000000
H          -1.47712533        0.94118767       -0.19226714
H          -1.47712533       -0.94118767        0.19226713
H           1.47712538        0.94118771        0.19226681
H           1.47712538       -0.94118771       -0.19226681
6
MD Time 1110.00
C          -0.91955754       -0.00000000       -0.00000000
C           0.91955753        0.00000000        0.00000000
H          -1.48857427        0.93086830       -0.18354020
H          -1.48857427       -0.93086830        0.18354019
H           1.48857432        0.93086834        0.18353987
H           1.48857432       -0.93086834       -0.18353987
6
MD Time 1120.00
C          -0.92328150       -0.00000000       -0.00000000
C           0.92328149        0.00000000        0.00000000
H          -1.49969446        0.92045132       -0.17459959
H          -1.49969446       -0.92045132        0.17459958
H           1.49969451        0.92045136        0.17459926
H           1.49969451       -0.92045136       -0.17459926
6
MD Time 1130.00
C          -0.92669856       -0.00000000       -0.00000000
C           0.92669855        0.00000000        0.00000000
H          -1.51050100        0.91007318       -0.16547893
H          -1.51050100       -0.91007318        0.16547892
H           1.51050105        0.91007322        0.16547859
H           1.51050105       -0.91007322       -0.16547859
6
MD Time 1140.00
C          -0.92980441       -0.00000000       -0.00000000
C           0.92980441        0.00000000        0.00000000
H          -1.52101144        0.89987274       -0.15621037
H          -1.52101144       -0.89987275        0.15621036
H           1.52101150        0.89987278        0.15621003
H           1.52101150       -0.89987278       -0.15621003
6
MD Time 1150.00
C          -0.93259461       -0.00000000       -0.00000000
C           0.93259460        0.00000000        0.00000000
H          -1.53124454        0.88998846       -0.14682395
H          -1.53124454       -0.88998847        0.14682394
H           1.53124460        0.88998849        0.14682360
H           1.53124460       -0.88998849       -0.14682360
6
MD Time 1160.00
C          -0.93506476       -0.00000000       -0.00000000
C           0.93506475        0.00000000        0.00000000
H          -1.54121864        0.88055523       -0.13734697
H          -1.54121864       -0.88055523        0.13734696
H           1.54121869        0.88055526        0.13734662
H           1.54121869       -0.88055526       -0.13734662
6
MD Time 1170.00
C          -0.93721086       -0.00000000       -0.00000000
C           0.93721085        0.00000000        0.00000000
H          -1.55094992        0.87170105       -0.12780352
H          -1.55094992       -0.87170105        0.12780351
H           1.55094998        0.87170107        0.12780317
H           1.55094998       -0.87170107       -0.12780317
6
MD Time 1180.00
C          -0.93902963       -0.00000000       -0.00000000
C           0.93902962        0.00000000        0.00000000
H          -1.56045051        0.86354365       -0.11821403
H          -1.56045051       -0.86354366        0.11821401
H           1.56045056        0.86354368        0.11821368
H           1.56045056       -0.86354368       -0.11821367
6
MD Time 1190.00
C          -0.94051879       -0.00000000       -0.00000000
C           0.94051878        0.00000000        0.00000000
H          -1.56972656        0.85618734       -0.10859505
H          -1.56972656       -0.85618734        0.10859504
H           1.56972662        0.85618736        0.10859470
H           1.56972662       -0.85618736       -0.10859469
6
MD Time 1200.00
C          -0.94167740       -0.00000000       -0.00000000
C           0.94167739        0.00000000        0.00000000
H          -1.57877650        0.84972007       -0.09895923
H          -1.57877650       -0.84972007        0.09895922
H           1.57877655        0.84972009        0.09895888
H           1.57877655       -0.84972009       -0.09895887
6
MD Time 1210.00
C          -0.94250608       -0.00000000       -0.00000000
C           0.94250607        0.00000000        0.00000000
H          -1.58758950        0.84421120       -0.08931544
H          -1.58758950       -0.84421120        0.08931543
H           1.58758956        0.84421121        0.08931509
H           1.58758956       -0.84421121       -0.08931509
6
MD Time 1220.00
C          -0.94300722       -0.00000000       -0.00000000
C           0.94300721        0.00000000        0.00000000
H          -1.59614447        0.83970983       -0.07966917
H          -1.59614447       -0.83970983        0.07966916
H           1.59614452        0.83970984        0.07966882
H           1.59614452       -0.83970984       -0.07966881
6
MD Time 1230.00
C          -0.94318504       -0.00000000       -0.00000000
C           0.94318503        0.00000000        0.00000000
H          -1.60440945        0.83624401       -0.07002302
H          -1.60440945       -0.83624402        0.07002301
H           1.60440950        0.83624402        0.07002267
H           1.60440950       -0.83624402       -0.07002266
6
MD Time 1240.00
C          -0.94304562       -0.00000000       -0.00000000
C           0.94304562        0.00000000        0.00000000
H          -1.61234172        0.83382074       -0.06037741
H          -1.61234172       -0.83382074        0.06037739
H           1.61234177        0.83382075        0.06037705
H           1.61234177       -0.83382075       -0.06037705
6
MD Time 1250.00
C          -0.94259677       -0.00000000       -0.00000000
C           0.94259676        0.00000000        0.00000000
H          -1.61988840        0.83242674       -0.05073127
H          -1.61988840       -0.83242674        0.05073126
H           1.61988844        0.83242674        0.05073092
H           1.61988844       -0.83242674       -0.05073091
6
MD Time 1260.00
C          -0.94184782       -0.00000000       -0.00000000
C           0.94184781        0.00000000        0.00000000
H          -1.62698768        0.83202997       -0.04108287
H          -1.62698768       -0.83202997        0.04108286
H           1.62698772        0.83202997        0.04108251
H           1.62698772       -0.83202997       -0.04108250
6
MD Time 1270.00
C          -0.94080934       -0.00000000       -0.00000000
C           0.94080934        0.00000000        0.00000000
H          -1.63357045        0.83258167       -0.03143048
H          -1.63357044       -0.83258168        0.03143047
H           1.63357048        0.83258167        0.03143012
H           1.63357048       -0.83258167       -0.03143012
6
MD Time 1280.00
C          -0.93949287       -0.00000000       -0.00000000
C           0.93949287        0.00000000        0.00000000
H          -1.63956223        0.83401879       -0.02177309
H          -1.63956223       -0.83401879        0.02177308
H           1.63956226        0.83401878        0.02177273
H           1.63956226       -0.83401878       -0.02177272
6
MD Time 1290.00
C          -0.93791048       -0.00000000       -0.00000000
C           0.93791048        0.00000000        0.00000000
H          -1.64488536        0.83626659       -0.01211089
H          -1.64488536       -0.83626659        0.01211087
H           1.64488539        0.83626658        0.01211052
H           1.64488539       -0.83626658       -0.01211051
6
MD Time 1300.00
C          -0.93607446       -0.00000000       -0.00000000
C           0.93607446        0.00000000        0.00000000
H          -1.64946109        0.83924137       -0.00244572
H          -1.64946108       -0.83924137        0.00244570
H           1.64946111        0.83924136        0.00244535
H           1.64946111       -0.83924136       -0.00244534
6
MD Time 1310.00
C          -0.93399697       -0.00000000       -0.00000000
C           0.93399697        0.00000000        0.00000000
H          -1.65321167        0.84285304        0.00721866
H          -1.65321167       -0.84285304       -0.00721867
H           1.65321169        0.84285302       -0.00721903
H           1.65321169       -0.84285302        0.00721904
6
MD Time 1320.00
C          -0.93168972       -0.00000000       -0.00000000
C           0.93168971        0.00000000        0.00000000
H          -1.65606225        0.84700752        0.01687640
H          -1.65606224       -0.84700752       -0.01687641
H           1.65606226        0.84700750       -0.01687678
H           1.65606226       -0.84700750        0.01687679
6
MD Time 1330.00
C          -0.92916369       -0.00000000       -0.00000000
C           0.92916369        0.00000000        0.00000000
H          -1.65794245        0.85160892        0.02651956
H          -1.65794245       -0.85160893       -0.02651957
H           1.65794246        0.85160890       -0.02651994
H           1.65794245       -0.85160890        0.02651995
6
MD Time 1340.00
C          -0.92642894       -0.00000000       -0.00000000
C           0.92642893        0.00000000        0.00000000
H          -1.65878776        0.85656143        0.03613813
H          -1.65878776       -0.85656143       -0.03613814
H           1.65878777        0.85656140       -0.03613852
H           1.65878776       -0.85656140        0.03613853
6
MD Time 1350.00
C          -0.92349440       -0.00000000       -0.00000000
C           0.92349440        0.00000000        0.00000000
H          -1.65854059        0.86177085        0.04572016
H          -1.65854059       -0.86177085       -0.04572018
H           1.65854059        0.86177082       -0.04572056
H           1.65854059       -0.86177082        0.04572057
6
MD Time 1360.00
C          -0.92036779       -0.00000000       -0.00000000
C           0.92036779        0.00000000        0.00000000
H          -1.65715104        0.86714598        0.05525196
H          -1.65715104       -0.86714598       -0.05525197
H           1.65715103        0.86714595       -0.05525236
H           1.65715103       -0.86714595        0.05525237
6
MD Time 1370.00
C          -0.91705549       -0.00000000       -0.00000000
C           0.91705549        0.00000000        0.00000000
H          -1.65457748        0.87259965        0.06471826
H          -1.65457748       -0.87259965       -0.06471827
H           1.65457747        0.87259962       -0.06471867
H           1.65457747       -0.87259961        0.06471868
6
MD Time 1380.00
C          -0.91356250       -0.00000000       -0.00000000
C           0.91356250        0.00000000        0.00000000
H          -1.65078693        0.87804956        0.07410253
H          -1.65078693       -0.87804957       -0.07410254
H           1.65078691        0.87804953       -0.07410295
H           1.65078691       -0.87804953        0.07410296
6
MD Time 1390.00
C          -0.90989245       -0.00000000       -0.00000000
C           0.90989245        0.00000000        0.00000000
H          -1.64575522        0.88341901        0.08338715
H          -1.64575522       -0.88341901       -0.08338716
H           1.64575520        0.88341898       -0.08338758
H           1.64575520       -0.88341897        0.08338759
6
MD Time 1400.00
C          -0.90604756       -0.00000000       -0.00000000
C           0.90604757        0.00000000        0.00000000
H          -1.63946712        0.88863740        0.09255371
H          -1.63946712       -0.88863740       -0.09255372
H           1.63946709        0.88863736       -0.09255415
H           1.63946709       -0.88863736        0.09255416
6
MD Time 1410.00
C          -0.90202869       -0.00000000       -0.00000000
C           0.90202870        0.00000000        0.00000000
H          -1.63191630        0.89364071        0.10158325
H          -1.63191629       -0.89364071       -0.10158326
H           1.63191626        0.89364067       -0.10158370
H           1.63191626       -0.89364067        0.10158371
6
MD Time 1420.00
C          -0.89783533       -0.00000000       -0.00000000
C           0.89783534        0.00000000        0.00000000
H          -1.62310530        0.89837185        0.11045649
H          -1.62310529       -0.89837185       -0.11045650
H           1.62310526        0.89837181       -0.11045695
H           1.62310525       -0.89837180        0.11045696
6
MD Time 1430.00
C          -0.89346568       -0.00000000       -0.00000000
C           0.89346569        0.00000000        0.00000000
H          -1.61304545        0.90278100        0.11915408
H          -1.61304544       -0.90278100       -0.11915410
H           1.61304540        0.90278096       -0.11915455
H           1.61304540       -0.90278096        0.11915456
6
MD Time 1440.00
C          -0.88891666       -0.00000000       -0.00000000
C           0.88891667        0.00000000        0.00000000
H          -1.60175675        0.90682595        0.12765686
H          -1.60175674       -0.90682595       -0.12765687
H           1.60175670        0.90682590       -0.12765734
H           1.60175669       -0.90682590        0.12765735
6
MD Time 1450.00
C          -0.88418397       -0.00000000       -0.00000000
C           0.88418398        0.00000000        0.00000000
H          -1.58926780        0.91047233        0.13594605
H          -1.58926779       -0.91047233       -0.13594606
H           1.58926774        0.91047229       -0.13594654
H           1.58926774       -0.91047229        0.13594655
6
MD Time 1460.00
C          -0.87926215       -0.00000000       -0.00000000
C           0.87926216        0.00000000        0.00000000
H          -1.57561566        0.91369400        0.14400350
H          -1.57561566       -0.91369400       -0.14400351
H           1.57561560        0.91369396       -0.14400400
H           1.57561559       -0.91369396        0.14400401
6
MD Time 1470.00
C          -0.87414462       -0.00000000       -0.00000000
C           0.87414463       -0.00000000        0.00000000
H          -1.56084579        0.91647328        0.15181192
H          -1.56084579       -0.91647328       -0.15181193
H           1.56084572        0.91647324       -0.15181243
H           1.56084572       -0.91647323        0.15181244
6
MD Time 1480.00
C          -0.86882375       -0.00000000       -0.00000000
C           0.86882376       -0.00000000        0.00000000
H          -1.54501191        0.91880130        0.15935509
H          -1.54501190       -0.91880130       -0.15935511
H           1.54501184        0.91880126       -0.15935562
H           1.54501183       -0.91880125        0.15935563
6
MD Time 1490.00
C          -0.86329094       -0.00000000       -0.00000000
C           0.86329095       -0.00000000        0.00000000
H          -1.52817587        0.92067828        0.16661810
H          -1.52817587       -0.92067828       -0.16661811
H           1.52817580        0.92067823       -0.16661863
H           1.52817579       -0.92067823        0.16661864
6
MD Time 1500.00
C          -0.85753670       -0.00000000       -0.00000000
C           0.85753672       -0.00000000        0.00000000
H          -1.51040751        0.92211380        0.17358749
H          -1.51040750       -0.92211380       -0.17358751
H           1.51040743        0.92211376       -0.17358804
H           1.51040743       -0.92211375        0.17358805
6
MD Time 1510.00
C          -0.85155078       -0.00000000       -0.00000000
C           0.85155079       -0.00000000        0.00000000
H          -1.49178438        0.92312702        0.18025154
H          -1.49178437       -0.92312702       -0.18025155
H           1.49178429        0.92312697       -0.18025209
H           1.49178429       -0.92312697        0.18025211
6
MD Time 1520.00
C          -0.84532224       -0.00000000       -0.00000000
C           0.84532225       -0.00000000        0.00000000
H          -1.47239147        0.92374679        0.18660034
H          -1.47239146       -0.92374679       -0.18660035
H           1.47239138        0.92374674       -0.18660091
H           1.47239138       -0.92374674        0.18660092
6
MD Time 1530.00
C          -0.83883969       -0.00000000       -0.00000000
C           0.83883971       -0.00000000        0.00000000
H          -1.45232076        0.92401165        0.19262600
H          -1.45232076       -0.92401165       -0.19262601
H           1.45232068        0.92401160       -0.19262657
H           1.45232067       -0.92401160        0.19262659
6
MD Time 1540.00
C          -0.83209143       -0.00000000       -0.00000000
C           0.83209144       -0.00000000        0.00000000
H          -1.43167071        0.92396965        0.19832268
H          -1.43167071       -0.92396965       -0.19832270
H           1.43167062        0.92396960       -0.19832327
H           1.43167061       -0.92396959        0.19832328
6
MD Time 1550.00
C          -0.82506567       -0.00000000       -0.00000000
C           0.82506569       -0.00000000        0.00000000
H          -1.41054547        0.92367791        0.20368667
H          -1.41054546       -0.92367791       -0.20368668
H           1.41054537        0.92367786       -0.20368726
H           1.41054537       -0.92367785        0.20368727
6
MD Time 1560.00
C          -0.81775088       -0.00000000       -0.00000000
C           0.81775089       -0.00000000        0.00000000
H          -1.38905404        0.92320194        0.20871625
H          -1.38905404       -0.92320194       -0.20871627
H           1.38905395        0.92320189       -0.20871685
H           1.38905394       -0.92320189        0.20871687
6
MD Time 1570.00
C          -0.81013602       -0.00000000       -0.00000000
C           0.81013604       -0.00000000        0.00000000
H          -1.36730920        0.92261460        0.21341163
H          -1.36730920       -0.92261460       -0.21341165
H           1.36730910        0.92261454       -0.21341224
H           1.36730910       -0.92261454        0.21341226
6
MD Time 1580.00
C          -0.80221101       -0.00000000       -0.00000000
C           0.80221102       -0.00000000        0.00000000
H          -1.34542622        0.92199465        0.21777463
H          -1.34542622       -0.92199465       -0.21777465
H           1.34542612        0.92199459       -0.21777525
H           1.34542612       -0.92199459        0.21777526
6
MD Time 1590.00
C          -0.79396710       -0.00000000       -0.00000000
C           0.79396711       -0.00000000        0.00000000
H          -1.32352144        0.92142499        0.22180830
H          -1.32352144       -0.92142499       -0.22180831
H           1.32352135        0.92142492       -0.22180892
H           1.32352134       -0.92142492        0.22180893
6
MD Time 1600.00
C          -0.78539738       -0.00000000       -0.00000000
C           0.78539740       -0.00000000        0.00000000
H          -1.30171074        0.92099044        0.22551642
H          -1.30171073       -0.92099044       -0.22551644
H           1.30171064        0.92099037       -0.22551705
H           1.30171063       -0.92099037        0.22551706
6
MD Time 1610.00
C          -0.77649733       -0.00000000       -0.00000000
C           0.77649735       -0.00000000        0.00000000
H          -1.28010781        0.92077521        0.22890293
H          -1.28010781       -0.92077521       -0.22890295
H           1.28010772        0.92077514       -0.22890356
H           1.28010771       -0.92077514        0.22890357
6
MD Time 1620.00
C          -0.76726534       -0.00000000       -0.00000000
C           0.76726536        0.00000000        0.00000000
H          -1.25882259        0.92086011        0.23197115
H          -1.25882259       -0.92086011       -0.23197117
H           1.25882250        0.92086004       -0.23197179
H           1.25882249       -0.92086004        0.23197180
6
MD Time 1630.00
C          -0.75770337        0.00000000       -0.00000000
C           0.75770339        0.00000000        0.00000000
H          -1.23795956        0.92131957        0.23472312
H          -1.23795956       -0.92131957       -0.23472313
H           1.23795947        0.92131950       -0.23472376
H           1.23795946       -0.92131950        0.23472377
6
MD Time 1640.00
C          -0.74781758        0.00000000       -0.00000000
C           0.74781759        0.00000000        0.00000000
H          -1.21761630        0.92221875        0.23715876
H          -1.21761630       -0.92221875       -0.23715878
H           1.21761620        0.92221867       -0.23715941
H           1.21761620       -0.92221867        0.23715942
6
MD Time 1650.00
C          -0.73761895        0.00000000       -0.00000000
C           0.73761896        0.00000000        0.00000000
H          -1.19788219        0.92361075        0.23927527
H          -1.19788219       -0.92361075       -0.23927529
H           1.19788210        0.92361066       -0.23927591
H           1.19788209       -0.92361066        0.23927593
6
MD Time 1660.00
C          -0.72712400        0.00000000       -0.00000000
C           0.72712401        0.00000000        0.00000000
H          -1.17883744        0.92553423        0.24106648
H          -1.17883744       -0.92553423       -0.24106650
H           1.17883735        0.92553414       -0.24106713
H           1.17883735       -0.92553414        0.24106714
6
MD Time 1670.00
C          -0.71635544        0.00000000       -0.00000000
C           0.71635546        0.00000000        0.00000000
H          -1.16055239        0.92801161        0.24252250
H          -1.16055239       -0.92801161       -0.24252252
H           1.16055230        0.92801151       -0.24252315
H           1.16055229       -0.92801151        0.24252316
6
MD Time 1680.00
C          -0.70534287        0.00000000       -0.00000000
C           0.70534289        0.00000000        0.00000000
H          -1.14308717        0.93104783        0.24362954
H          -1.14308717       -0.93104783       -0.24362956
H           1.14308708        0.93104773       -0.24363019
H           1.14308707       -0.93104774        0.24363021
6
MD Time 1690.00
C          -0.69412346        0.00000000       -0.00000000
C           0.69412347        0.00000000        0.00000000
H          -1.12649173        0.93463003        0.24437000
H          -1.12649172       -0.93463003       -0.24437002
H           1.12649164        0.93462992       -0.24437066
H           1.12649163       -0.93462992        0.24437067
6
MD Time 1700.00
C          -0.68274259        0.00000000       -0.00000000
C           0.68274260        0.00000000        0.00000000
H          -1.11080614        0.93872783        0.24472281
H          -1.11080614       -0.93872783       -0.24472283
H           1.11080605        0.93872771       -0.24472346
H           1.11080605       -0.93872772        0.24472348
6
MD Time 1710.00
C          -0.67125454        0.00000000       -0.00000000
C           0.67125456        0.00000000        0.00000000
H          -1.09606123        0.94329451        0.24466400
H          -1.09606123       -0.94329451       -0.24466402
H           1.09606115        0.94329439       -0.24466466
H           1.09606115       -0.94329440        0.24466467
6
MD Time 1720.00
C          -0.65972309        0.00000000       -0.00000000
C           0.65972310       -0.00000000        0.00000000
H          -1.08227938        0.94826876        0.24416754
H          -1.08227938       -0.94826875       -0.24416755
H           1.08227929        0.94826863       -0.24416819
H           1.08227929       -0.94826863        0.24416821
6
MD Time 1730.00
C          -0.64822197        0.00000000       -0.00000000
C           0.64822199       -0.00000000        0.00000000
H          -1.06947546        0.95357688        0.24320621
H          -1.06947545       -0.95357688       -0.24320623
H           1.06947538        0.95357675       -0.24320687
H           1.06947537       -0.95357675        0.24320688
6
MD Time 1740.00
C          -0.63683526        0.00000000       -0.00000000
C           0.63683528       -0.00000000        0.00000000
H          -1.05765794        0.95913545        0.24175270
H          -1.05765794       -0.95913544       -0.24175272
H           1.05765786        0.95913531       -0.24175336
H           1.05765786       -0.95913531        0.24175338
6
MD Time 1750.00
C          -0.62565747        0.00000000       -0.00000000
C           0.62565748       -0.00000000        0.00000000
H          -1.04682996        0.96485405        0.23978060
H          -1.04682996       -0.96485404       -0.23978062
H           1.04682989        0.96485391       -0.23978126
H           1.04682988       -0.96485391        0.23978127
6
MD Time 1760.00
C          -0.61479330        0.00000000       -0.00000000
C           0.61479331       -0.00000000        0.00000000
H          -1.03699040        0.97063806        0.23726539
H          -1.03699039       -0.97063806       -0.23726541
H           1.03699033        0.97063792       -0.23726605
H           1.03699033       -0.97063792        0.23726607
6
MD Time 1770.00
C          -0.60435689        0.00000000       -0.00000000
C           0.60435690       -0.00000000        0.00000000
H          -1.02813491        0.97639137        0.23418539
H          -1.02813490       -0.97639136       -0.23418541
H           1.02813485        0.97639122       -0.23418605
H           1.02813484       -0.97639122        0.23418606
6
MD Time 1780.00
C          -0.59447056        0.00000000       -0.00000000
C           0.59447057       -0.00000000        0.00000000
H          -1.02025685        0.98201879        0.23052245
H          -1.02025685       -0.98201878       -0.23052247
H           1.02025680        0.98201864       -0.23052311
H           1.02025679       -0.98201864        0.23052313
6
MD Time 1790.00
C          -0.58526264        0.00000000       -0.00000000
C           0.58526264       -0.00000000        0.00000000
H          -1.01334815        0.98742833        0.22626263
H          -1.01334815       -0.98742833       -0.22626265
H           1.01334811        0.98742818       -0.22626329
H           1.01334810       -0.98742818        0.22626331
6
MD Time 1800.00
C          -0.57686458        0.00000000       -0.00000000
C           0.57686459       -0.00000000        0.00000000
H          -1.00740000        0.99253308        0.22139658
H          -1.00740000       -0.99253308       -0.22139660
H           1.00739996        0.99253292       -0.22139724
H           1.00739995       -0.99253293        0.22139726
6
MD Time 1810.00
C          -0.56940719        0.00000000       -0.00000000
C           0.56940720       -0.00000000        0.00000000
H          -1.00240344        0.99725283        0.21591982
H          -1.00240344       -0.99725282       -0.21591984
H           1.00240340        0.99725267       -0.21592048
H           1.00240340       -0.99725267        0.21592049
6
MD Time 1820.00
C          -0.56301601        0.00000000       -0.00000000
C           0.56301601       -0.00000000        0.00000000
H          -0.99834985        1.00151539        0.20983284
H          -0.99834984       -1.00151539       -0.20983286
H           0.99834982        1.00151523       -0.20983350
H           0.99834981       -1.00151523        0.20983351
6
MD Time 1830.00
C          -0.55780613        0.00000000       -0.00000000
C           0.55780614       -0.00000000        0.00000000
H          -0.99523128        1.00525770        0.20314108
H          -0.99523127       -1.00525770       -0.20314110
H           0.99523126        1.00525755       -0.20314174
H           0.99523125       -1.00525755        0.20314176
6
MD Time 1840.00
C          -0.55387680        0.00000000       -0.00000000
C           0.55387681       -0.00000000        0.00000000
H          -0.99304069        1.00842665        0.19585480
H          -0.99304069       -1.00842665       -0.19585483
H           0.99304068        1.00842650       -0.19585547
H           0.99304067       -1.00842650        0.19585548
6
MD Time 1850.00
C          -0.55130617        0.00000000       -0.00000000
C           0.55130617       -0.00000000        0.00000000
H          -0.99177211        1.01097977        0.18798884
H          -0.99177210       -1.01097976       -0.18798886
H           0.99177210        1.01097962       -0.18798950
H           0.99177210       -1.01097962        0.18798951
6
MD Time 1860.00
C          -0.55014684        0.00000000       -0.00000000
C           0.55014684       -0.00000000        0.00000000
H          -0.99142070        1.01288572        0.17956233
H          -0.99142070       -1.01288572       -0.17956235
H           0.99142070        1.01288557       -0.17956299
H           0.99142070       -1.01288557        0.17956300
6
MD Time 1870.00
C          -0.55042271        0.00000000       -0.00000000
C           0.55042271       -0.00000000        0.00000000
H          -0.99198281        1.01412471        0.17059840
H          -0.99198281       -1.01412470       -0.17059842
H           0.99198282        1.01412456       -0.17059906
H           0.99198282       -1.01412456        0.17059908
6
MD Time 1880.00
C          -0.55212739        0.00000000       -0.00000000
C           0.55212739       -0.00000000        0.00000000
H          -0.99345598        1.01468872        0.16112383
H          -0.99345598       -1.01468872       -0.16112385
H           0.99345600        1.01468858       -0.16112449
H           0.99345600       -1.01468858        0.16112450
6
MD Time 1890.00
C          -0.55522465        0.00000000       -0.00000000
C           0.55522464       -0.00000000        0.00000000
H          -0.99583894        1.01458169        0.15116864
H          -0.99583894       -1.01458169       -0.15116867
H           0.99583897        1.01458156       -0.15116930
H           0.99583896       -1.01458156        0.15116932
6
MD Time 1900.00
C          -0.55965052        0.00000000       -0.00000000
C           0.55965051       -0.00000000        0.00000000
H          -0.99913154        1.01381950        0.14076575
H          -0.99913154       -1.01381949       -0.14076578
H           0.99913157        1.01381937       -0.14076640
H           0.99913157       -1.01381937        0.14076642
6
MD Time 1910.00
C          -0.56531708        0.00000000       -0.00000000
C           0.56531707       -0.00000000        0.00000001
H          -1.00333472        1.01242981        0.12995049
H          -1.00333472       -1.01242980       -0.12995051
H           1.00333477        1.01242969       -0.12995114
H           1.00333476       -1.01242969        0.12995116
6
MD Time 1920.00
C          -0.57211727        0.00000000       -0.00000000
C           0.57211726       -0.00000000        0.00000001
H          -1.00845040        1.01045178        0.11876015
H          -1.00845040       -1.01045177       -0.11876018
H           1.00845045        1.01045166       -0.11876080
H           1.00845044       -1.01045166        0.11876082
6
MD Time 1930.00
C          -0.57993023        0.00000000       -0.00000000
C           0.57993022       -0.00000000        0.00000001
H          -1.01448122        1.00793543        0.10723348
H          -1.01448122       -1.00793543       -0.10723351
H           1.01448128        1.00793533       -0.10723413
H           1.01448127       -1.00793532        0.10723415
6
MD Time 1940.00
C          -0.58862675        0.00000000       -0.00000000
C           0.58862674       -0.00000000        0.00000001
H          -1.02143032        1.00494088        0.09541007
H          -1.02143032       -1.00494087       -0.09541010
H           1.02143038        1.00494077       -0.09541071
H           1.02143038       -1.00494077        0.09541073
6
MD Time 1950.00
C          -0.59807428        0.00000000       -0.00000001
C           0.59807427       -0.00000000        0.00000001
H          -1.02930088        1.00153707        0.08332977
H          -1.02930088       -1.00153707       -0.08332980
H           1.02930095        1.00153698       -0.08333041
H           1.02930094       -1.00153698        0.08333043
6
MD Time 1960.00
C          -0.60814126        0.00000000       -0.00000001
C           0.60814124       -0.00000000        0.00000001
H          -1.03809560        0.99780037        0.07103209
H          -1.03809560       -0.99780036       -0.07103212
H           1.03809568        0.99780028       -0.07103273
H           1.03809568       -0.99780028        0.07103275
6
MD Time 1970.00
C          -0.61870062        0.00000000       -0.00000001
C           0.61870061       -0.00000000        0.00000001
H          -1.04781606        0.99381259        0.05855555
H          -1.04781606       -0.99381259       -0.05855558
H           1.04781614        0.99381252       -0.05855618
H           1.04781614       -0.99381252        0.05855620
6
MD Time 1980.00
C          -0.62963244        0.00000000       -0.00000001
C           0.62963243       -0.00000000        0.00000001
H          -1.05846188        0.98965886        0.04593713
H          -1.05846188       -0.98965886       -0.04593716
H           1.05846197        0.98965879       -0.04593776
H           1.05846196       -0.98965879        0.04593779
6
MD Time 1990.00
C          -0.64082575        0.00000000       -0.00000001
C           0.64082574       -0.00000000        0.00000001
H          -1.07002987        0.98542501        0.03321183
H          -1.07002987       -0.98542500       -0.03321186
H           1.07002996        0.98542495       -0.03321245
H           1.07002996       -0.98542495        0.03321248
6
MD Time 2000.00
C          -0.65217967        0.00000000       -0.00000001
C           0.65217965       -0.00000000        0.00000001
H          -1.08251305        0.98119482        0.02041224
H          -1.08251305       -0.98119481       -0.02041227
H           1.08251315        0.98119477       -0.02041286
H           1.08251314       -0.98119477        0.02041288
6
MD Time 2010.00
C          -0.66360391        0.00000000       -0.00000001
C           0.66360389       -0.00000000        0.00000001
H          -1.09589964        0.97704712        0.00756835
H          -1.09589964       -0.97704712       -0.00756838
H           1.09589973        0.97704708       -0.00756897
H           1.09589973       -0.97704708        0.00756899
6
MD Time 2020.00
C          -0.67501894        0.00000000       -0.00000001
C           0.67501893       -0.00000000        0.00000001
H          -1.11017201        0.97305290       -0.00529248
H          -1.11017201       -0.97305290        0.00529244
H           1.11017211        0.97305287        0.00529186
H           1.11017211       -0.97305287       -0.00529184
6
MD Time 2030.00
C          -0.68635575        0.00000000       -0.00000001
C           0.68635573       -0.00000000        0.00000001
H          -1.12530577        0.96927260       -0.01814542
H          -1.12530577       -0.96927259        0.01814539
H           1.12530587        0.96927257        0.01814482
H           1.12530587       -0.96927257       -0.01814479
6
MD Time 2040.00
C          -0.69755537        0.00000000       -0.00000001
C           0.69755536       -0.00000000        0.00000001
H          -1.14126885        0.96575373       -0.03096792
H          -1.14126885       -0.96575372        0.03096789
H           1.14126895        0.96575371        0.03096732
H           1.14126895       -0.96575371       -0.03096729
6
MD Time 2050.00
C          -0.70856838        0.00000000       -0.00000001
C           0.70856836       -0.00000000        0.00000001
H          -1.15802083        0.96252907       -0.04373924
H          -1.15802083       -0.96252907        0.04373920
H           1.15802093        0.96252906        0.04373864
H           1.15802093       -0.96252906       -0.04373861
6
MD Time 2060.00
C          -0.71935414        0.00000000       -0.00000001
C           0.71935412       -0.00000000        0.00000001
H          -1.17551247        0.95961548       -0.05643995
H          -1.17551247       -0.95961548        0.05643992
H           1.17551257        0.95961548        0.05643936
H           1.17551257       -0.95961548       -0.05643933
6
MD Time 2070.00
C          -0.72988014        0.00000000       -0.00000001
C           0.72988013       -0.00000000        0.00000001
H          -1.19368548        0.95701348       -0.06905142
H          -1.19368549       -0.95701348        0.06905138
H           1.19368559        0.95701348        0.06905083
H           1.19368559       -0.95701349       -0.06905080
6
MD Time 2080.00
C          -0.74012123        0.00000000       -0.00000001
C           0.74012121       -0.00000000        0.00000001
H          -1.21247264        0.95470758       -0.08155520
H          -1.21247265       -0.95470758        0.08155516
H           1.21247274        0.95470759        0.08155462
H           1.21247274       -0.95470760       -0.08155459
6
MD Time 2090.00
C          -0.75005885        0.00000000       -0.00000001
C           0.75005883       -0.00000000        0.00000001
H          -1.23179817        0.95266741       -0.09393259
H          -1.23179817       -0.95266741        0.09393255
H           1.23179827        0.95266743        0.09393202
H           1.23179827       -0.95266743       -0.09393198
6
MD Time 2100.00
C          -0.75968029        0.00000000       -0.00000001
C           0.75968027       -0.00000000        0.00000001
H          -1.25157846        0.95084944       -0.10616424
H          -1.25157846       -0.95084944        0.10616420
H           1.25157855        0.95084947        0.10616367
H           1.25157855       -0.95084948       -0.10616364
6
MD Time 2110.00
C          -0.76897796        0.00000000       -0.00000001
C           0.76897795       -0.00000000        0.00000001
H          -1.27172303        0.94919928       -0.11822989
H          -1.27172304       -0.94919928        0.11822985
H           1.27172312        0.94919931        0.11822934
H           1.27172313       -0.94919932       -0.11822930
6
MD Time 2120.00
C          -0.77794870        0.00000000       -0.00000001
C           0.77794869       -0.00000000        0.00000001
H          -1.29213578        0.94765421       -0.13010830
H          -1.29213579       -0.94765420        0.13010826
H           1.29213587        0.94765425        0.13010776
H           1.29213587       -0.94765425       -0.13010772
6
MD Time 2130.00
C          -0.78659304        0.00000000       -0.00000001
C           0.78659303       -0.00000000        0.00000001
H          -1.31271629        0.94614599       -0.14177728
H          -1.31271630       -0.94614599        0.14177723
H           1.31271637        0.94614603        0.14177674
H           1.31271638       -0.94614604       -0.14177670
6
MD Time 2140.00
C          -0.79491461        0.00000000       -0.00000001
C           0.79491459       -0.00000000        0.00000001
H          -1.33336130        0.94460359       -0.15321382
H          -1.33336131       -0.94460359        0.15321378
H           1.33336138        0.94460364        0.15321329
H           1.33336138       -0.94460364       -0.15321326
6
MD Time 2150.00
C          -0.80291951        0.00000000       -0.00000001
C           0.80291950       -0.00000000        0.00000001
H          -1.35396618        0.94295576       -0.16439445
H          -1.35396619       -0.94295575        0.16439441
H           1.35396625        0.94295581        0.16439393
H           1.35396625       -0.94295582       -0.16439389
6
MD Time 2160.00
C          -0.81061580        0.00000000       -0.00000001
C           0.81061579       -0.00000000        0.00000001
H          -1.37442636        0.94113337       -0.17529550
H          -1.37442636       -0.94113337        0.17529545
H           1.37442642        0.94113343        0.17529499
H           1.37442642       -0.94113343       -0.17529495
6
MD Time 2170.00
C          -0.81801299        0.00000000       -0.00000001
C           0.81801298       -0.00000000        0.00000001
H          -1.39463863        0.93907141       -0.18589352
H          -1.39463864       -0.93907141        0.18589348
H           1.39463869        0.93907147        0.18589302
H           1.39463869       -0.93907148       -0.18589298
6
MD Time 2180.00
C          -0.82512158        0.00000000       -0.00000001
C           0.82512157       -0.00000000        0.00000001
H          -1.41450243        0.93671061       -0.19616570
H          -1.41450243       -0.93671061        0.19616565
H           1.41450248        0.93671068        0.19616521
H           1.41450248       -0.93671068       -0.19616517
6
MD Time 2190.00
C          -0.83195274        0.00000000       -0.00000001
C           0.83195273       -0.00000000        0.00000001
H          -1.43392079        0.93399871       -0.20609020
H          -1.43392080       -0.93399871        0.20609015
H           1.43392083        0.93399879        0.20608973
H           1.43392084       -0.93399879       -0.20608968
6
MD Time 2200.00
C          -0.83851791        0.00000000       -0.00000001
C           0.83851791       -0.00000000        0.00000001
H          -1.45280134        0.93089140       -0.21564657
H          -1.45280134       -0.93089140        0.21564652
H           1.45280137        0.93089148        0.21564611
H           1.45280137       -0.93089149       -0.21564607
6
MD Time 2210.00
C          -0.84482860        0.00000000       -0.00000001
C           0.84482860       -0.00000000        0.00000001
H          -1.47105694        0.92735291       -0.22481604
H          -1.47105695       -0.92735291        0.22481600
H           1.47105697        0.92735300        0.22481559
H           1.47105697       -0.92735300       -0.22481555
6
MD Time 2220.00
C          -0.85089610        0.00000000       -0.00000001
C           0.85089609       -0.00000000        0.00000001
H          -1.48860637        0.92335642       -0.23358182
H          -1.48860637       -0.92335642        0.23358177
H           1.48860638        0.92335651        0.23358138
H           1.48860638       -0.92335651       -0.23358134
6
MD Time 2230.00
C          -0.85673129        0.00000000       -0.00000001
C           0.85673129       -0.00000000        0.00000001
H          -1.50537470        0.91888417       -0.24192933
H          -1.50537470       -0.91888417        0.24192928
H           1.50537471        0.91888426        0.24192891
H           1.50537471       -0.91888427       -0.24192886
6
MD Time 2240.00
C          -0.86234452        0.00000000       -0.00000001
C           0.86234452       -0.00000000        0.00000001
H          -1.52129372        0.91392752       -0.24984641
H          -1.52129373       -0.91392752        0.24984636
H           1.52129372        0.91392762        0.24984600
H           1.52129372       -0.91392763       -0.24984596
6
MD Time 2250.00
C          -0.86774543        0.00000000       -0.00000001
C           0.86774544       -0.00000000        0.00000001
H          -1.53630219        0.90848683       -0.25732352
H          -1.53630219       -0.90848683        0.25732347
H           1.53630218        0.90848694        0.25732313
H           1.53630218       -0.90848694       -0.25732308
6
MD Time 2260.00
C          -0.87294288        0.00000000       -0.00000001
C           0.87294288       -0.00000000        0.00000001
H          -1.55034602        0.90257128       -0.26435384
H          -1.55034602       -0.90257128        0.26435379
H           1.55034600        0.90257139        0.26435346
H           1.55034600       -0.90257139       -0.26435341
6
MD Time 2270.00
C          -0.87794481        0.00000000       -0.00000001
C           0.87794481       -0.00000000        0.00000001
H          -1.56337849        0.89619865       -0.27093342
H          -1.56337849       -0.89619865        0.27093337
H           1.56337846        0.89619876        0.27093305
H           1.56337846       -0.89619877       -0.27093301
6
MD Time 2280.00
C          -0.88275818        0.00000000       -0.00000001
C           0.88275819       -0.00000000        0.00000001
H          -1.57536036        0.88939511       -0.27706130
H          -1.57536037       -0.88939510        0.27706125
H           1.57536033        0.88939522        0.27706094
H           1.57536033       -0.88939523       -0.27706090
6
MD Time 2290.00
C          -0.88738893        0.00000000       -0.00000001
C           0.88738894       -0.00000000        0.00000001
H          -1.58626004        0.88219494       -0.28273958
H          -1.58626005       -0.88219494        0.28273953
H           1.58626000        0.88219506        0.28273924
H           1.58626000       -0.88219507       -0.28273920
6
MD Time 2300.00
C          -0.89184184        0.00000000       -0.00000001
C           0.89184185       -0.00000000        0.00000001
H          -1.59605371        0.87464036       -0.28797355
H          -1.59605371       -0.87464036        0.28797350
H           1.59605366        0.87464049        0.28797322
H           1.59605366       -0.87464049       -0.28797318
6
MD Time 2310.00
C          -0.89612054        0.00000000       -0.00000001
C           0.89612055       -0.00000000        0.00000001
H          -1.60472544        0.86678123       -0.29277172
H          -1.60472545       -0.86678123        0.29277168
H           1.60472538        0.86678136        0.29277141
H           1.60472538       -0.86678137       -0.29277136
6
MD Time 2320.00
C          -0.90022742        0.00000000       -0.00000001
C           0.90022743       -0.00000000        0.00000001
H          -1.61226739        0.85867488       -0.29714596
H          -1.61226740       -0.85867488        0.29714591
H           1.61226732        0.85867502        0.29714565
H           1.61226732       -0.85867502       -0.29714561
6
MD Time 2330.00
C          -0.90416357        0.00000000       -0.00000001
C           0.90416358       -0.00000000        0.00000001
H          -1.61867991        0.85038584       -0.30111147
H          -1.61867991       -0.85038583        0.30111142
H           1.61867983        0.85038598        0.30111118
H           1.61867983       -0.85038599       -0.30111114
6
MD Time 2340.00
C          -0.90792876        0.00000000       -0.00000001
C           0.90792878       -0.00000000        0.00000001
H          -1.62397169        0.84198559       -0.30468693
H          -1.62397169       -0.84198558        0.30468688
H           1.62397161        0.84198573        0.30468665
H           1.62397161       -0.84198574       -0.30468660
6
MD Time 2350.00
C          -0.91152140        0.00000000       -0.00000001
C           0.91152141       -0.00000000        0.00000001
H          -1.62815987        0.83355225       -0.30789440
H          -1.62815987       -0.83355224        0.30789436
H           1.62815978        0.83355240        0.30789413
H           1.62815978       -0.83355241       -0.30789409
6
MD Time 2360.00
C          -0.91493847        0.00000000       -0.00000001
C           0.91493849       -0.00000000        0.00000001
H          -1.63127006        0.82517020       -0.31075939
H          -1.63127007       -0.82517019        0.31075934
H           1.63126997        0.82517035        0.31075913
H           1.63126997       -0.82517036       -0.31075908
6
MD Time 2370.00
C          -0.91817558        0.00000000       -0.00000001
C           0.91817559       -0.00000000        0.00000001
H          -1.63333633        0.81692956       -0.31331066
H          -1.63333634       -0.81692955        0.31331061
H           1.63333623        0.81692972        0.31331041
H           1.63333623       -0.81692973       -0.31331037
6
MD Time 2380.00
C          -0.92122693        0.00000000       -0.00000001
C           0.92122695       -0.00000000        0.00000001
H          -1.63440100        0.80892558       -0.31558016
H          -1.63440101       -0.80892557        0.31558011
H           1.63440090        0.80892574        0.31557992
H           1.63440090       -0.80892575       -0.31557987
6
MD Time 2390.00
C          -0.92408539        0.00000000       -0.00000001
C           0.92408541       -0.00000000        0.00000001
H          -1.63451433        0.80125778       -0.31760267
H          -1.63451434       -0.80125778        0.31760263
H           1.63451423        0.80125795        0.31760244
H           1.63451423       -0.80125796       -0.31760240
6
MD Time 2400.00
C          -0.92674257        0.00000000       -0.00000001
C           0.92674259       -0.00000000        0.00000001
H          -1.63373397        0.79402893       -0.31941550
H          -1.63373397       -0.79402893        0.31941546
H           1.63373386        0.79402911        0.31941528
H           1.63373386       -0.79402911       -0.31941523
6
MD Time 2410.00
C          -0.92918894        0.00000000       -0.00000001
C           0.92918896       -0.00000000        0.00000001
H          -1.63212412        0.78734371       -0.32105789
H          -1.63212413       -0.78734370        0.32105785
H           1.63212401        0.78734389        0.32105767
H           1.63212401       -0.78734389       -0.32105763
6
MD Time 2420.00
C          -0.93141402        0.00000000       -0.00000001
C           0.93141404       -0.00000000        0.00000001
H          -1.62975451        0.78130712       -0.32257038
H          -1.62975452       -0.78130711        0.32257034
H           1.62975440        0.78130730        0.32257017
H           1.62975440       -0.78130731       -0.32257013
6
MD Time 2430.00
C          -0.93340661        0.00000000       -0.00000001
C           0.93340663       -0.00000000        0.00000001
H          -1.62669893        0.77602258       -0.32399395
H          -1.62669893       -0.77602258        0.32399391
H           1.62669881        0.77602277        0.32399375
H           1.62669881       -0.77602278       -0.32399371
6
MD Time 2440.00
C          -0.93515504        0.00000000       -0.00000001
C           0.93515506       -0.00000000        0.00000001
H          -1.62303356        0.77158975       -0.32536901
H          -1.62303357       -0.77158974        0.32536897
H           1.62303345        0.77158993        0.32536881
H           1.62303345       -0.77158994       -0.32536877
6
MD Time 2450.00
C          -0.93664756        0.00000000       -0.00000001
C           0.93664758       -0.00000000        0.00000001
H          -1.61883503        0.76810201       -0.32673423
H          -1.61883503       -0.76810200        0.32673419
H           1.61883492        0.76810220        0.32673404
H           1.61883492       -0.76810220       -0.32673400
6
MD Time 2460.00
C          -0.93787263        0.00000000       -0.00000001
C           0.93787265       -0.00000000        0.00000001
H          -1.61417817        0.76564389       -0.32812529
H          -1.61417818       -0.76564389        0.32812525
H           1.61417806        0.76564408        0.32812510
H           1.61417806       -0.76564409       -0.32812506
6
MD Time 2470.00
C          -0.93881939        0.00000000       -0.00000001
C           0.93881941       -0.00000000        0.00000001
H          -1.60913379        0.76428828       -0.32957349
H          -1.60913380       -0.76428828        0.32957345
H           1.60913368        0.76428847        0.32957330
H           1.60913368       -0.76428848       -0.32957327
6
MD Time 2480.00
C          -0.93947795        0.00000000       -0.00000001
C           0.93947797       -0.00000000        0.00000002
H          -1.60376635        0.76409373       -0.33110447
H          -1.60376636       -0.76409372        0.33110443
H           1.60376625        0.76409392        0.33110428
H           1.60376625       -0.76409392       -0.33110425
6
MD Time 2490.00
C          -0.93983982        0.00000000       -0.00000001
C           0.93983984       -0.00000000        0.00000002
H          -1.59813193        0.76510196       -0.33273690
H          -1.59813194       -0.76510196        0.33273686
H           1.59813183        0.76510215        0.33273671
H           1.59813183       -0.76510215       -0.33273668
6
MD Time 2500.00
C          -0.93989815        0.00000000       -0.00000001
C           0.93989816       -0.00000000        0.00000002
H          -1.59227639        0.76733577       -0.33448144
H          -1.59227640       -0.76733576        0.33448140
H           1.59227630        0.76733595        0.33448126
H           1.59227630       -0.76733595       -0.33448122
6
MD Time 2510.00
C          -0.93964796        0.00000000       -0.00000002
C           0.93964798       -0.00000000        0.00000002
H          -1.58623420        0.77079741       -0.33633994
H          -1.58623420       -0.77079741        0.33633990
H           1.58623411        0.77079759        0.33633976
H           1.58623411       -0.77079760       -0.33633973
6
MD Time 2520.00
C          -0.93908630        0.00000000       -0.00000002
C           0.93908631       -0.00000000        0.00000002
H          -1.58002763        0.77546777       -0.33830498
H          -1.58002764       -0.77546776        0.33830494
H           1.58002755        0.77546794        0.33830480
H           1.58002755       -0.77546795       -0.33830477
6
MD Time 2530.00
C          -0.93821217        0.00000000       -0.00000002
C           0.93821218       -0.00000000        0.00000002
H          -1.57366682        0.78130621       -0.34035979
H          -1.57366683       -0.78130620        0.34035975
H           1.57366674        0.78130637        0.34035961
H           1.57366674       -0.78130638       -0.34035958
6
MD Time 2540.00
C          -0.93702650        0.00000000       -0.00000002
C           0.93702652       -0.00000000        0.00000002
H          -1.56715030        0.78825131       -0.34247862
H          -1.56715031       -0.78825130        0.34247858
H           1.56715023        0.78825146        0.34247844
H           1.56715023       -0.78825147       -0.34247841
6
MD Time 2550.00
C          -0.93553192        0.00000000       -0.00000002
C           0.93553193       -0.00000000        0.00000002
H          -1.56046623        0.79622235       -0.34462744
H          -1.56046624       -0.79622234        0.34462741
H           1.56046617        0.79622250        0.34462726
H           1.56046617       -0.79622250       -0.34462723
6
MD Time 2560.00
C          -0.93373244        0.00000000       -0.00000002
C           0.93373245       -0.00000000        0.00000002
H          -1.55359401        0.80512150       -0.34676506
H          -1.55359402       -0.80512150        0.34676503
H           1.55359396        0.80512164        0.34676488
H           1.55359396       -0.80512165       -0.34676485
6
MD Time 2570.00
C          -0.93163318        0.00000000       -0.00000002
C           0.93163319       -0.00000000        0.00000002
H          -1.54650630        0.81483652       -0.34884440
H          -1.54650631       -0.81483651        0.34884437
H           1.54650626        0.81483665        0.34884422
H           1.54650626       -0.81483665       -0.34884419
6
MD Time 2580.00
C          -0.92923998        0.00000000       -0.00000002
C           0.92923999       -0.00000000        0.00000002
H          -1.53917110        0.82524381       -0.35081401
H          -1.53917110       -0.82524380        0.35081398
H           1.53917106        0.82524392        0.35081383
H           1.53917106       -0.82524393       -0.35081380
6
MD Time 2590.00
C          -0.92655905        0.00000000       -0.00000002
C           0.92655906       -0.00000000        0.00000002
H          -1.53155388        0.83621166       -0.35261959
H          -1.53155389       -0.83621165        0.35261956
H           1.53155385        0.83621176        0.35261941
H           1.53155385       -0.83621177       -0.35261938
6
MD Time 2600.00
C          -0.92359663        0.00000000       -0.00000002
C           0.92359663       -0.00000000        0.00000002
H          -1.52361962        0.84760348       -0.35420552
H          -1.52361963       -0.84760347        0.35420549
H           1.52361960        0.84760357        0.35420534
H           1.52361960       -0.84760358       -0.35420531
6
MD Time 2610.00
C          -0.92035868        0.00000000       -0.00000002
C           0.92035868       -0.00000000        0.00000002
H          -1.51533453        0.85928082       -0.35551626
H          -1.51533454       -0.85928081        0.35551623
H           1.51533452        0.85928089        0.35551608
H           1.51533452       -0.85928090       -0.35551605
6
MD Time 2620.00
C          -0.91685067        0.00000000       -0.00000002
C           0.91685067       -0.00000000        0.00000002
H          -1.50666756        0.87110614       -0.35649759
H          -1.50666757       -0.87110613        0.35649756
H           1.50666756        0.87110620        0.35649741
H           1.50666756       -0.87110621       -0.35649738
6
MD Time 2630.00
C          -0.91307738        0.00000000       -0.00000002
C           0.91307738       -0.00000000        0.00000002
H          -1.49759158        0.88294527       -0.35709768
H          -1.49759159       -0.88294526        0.35709765
H           1.49759159        0.88294532        0.35709750
H           1.49759159       -0.88294533       -0.35709747
6
MD Time 2640.00
C          -0.90904273        0.00000000       -0.00000002
C           0.90904272       -0.00000000        0.00000002
H          -1.48808421        0.89466940       -0.35726791
H          -1.48808422       -0.89466939        0.35726788
H           1.48808423        0.89466944        0.35726774
H           1.48808423       -0.89466944       -0.35726771
6
MD Time 2650.00
C          -0.90474973        0.00000000       -0.00000002
C           0.90474973       -0.00000000        0.00000002
H          -1.47812847        0.90615673       -0.35696356
H          -1.47812848       -0.90615672        0.35696353
H           1.47812850        0.90615675        0.35696338
H           1.47812850       -0.90615676       -0.35696335
6
MD Time 2660.00
C          -0.90020045        0.00000000       -0.00000002
C           0.90020044       -0.00000000        0.00000002
H          -1.46771305        0.91729374       -0.35614420
H          -1.46771306       -0.91729373        0.35614417
H           1.46771310        0.91729375        0.35614402
H           1.46771309       -0.91729376       -0.35614400
6
MD Time 2670.00
C          -0.89539596        0.00000000       -0.00000002
C           0.89539595       -0.00000000        0.00000002
H          -1.45683256        0.92797616       -0.35477407
H          -1.45683257       -0.92797615        0.35477403
H           1.45683261        0.92797615        0.35477389
H           1.45683261       -0.92797616       -0.35477386
6
MD Time 2680.00
C          -0.89033642        0.00000000       -0.00000002
C           0.89033641       -0.00000000        0.00000002
H          -1.44548743        0.93810959       -0.35282215
H          -1.44548744       -0.93810958        0.35282212
H           1.44548749        0.93810958        0.35282197
H           1.44548749       -0.93810958       -0.35282195
6
MD Time 2690.00
C          -0.88502110        0.00000000       -0.00000002
C           0.88502109       -0.00000000        0.00000002
H          -1.43368389        0.94761003       -0.35026231
H          -1.43368390       -0.94761002        0.35026228
H           1.43368396        0.94761001        0.35026213
H           1.43368396       -0.94761001       -0.35026210
6
MD Time 2700.00
C          -0.87944842        0.00000000       -0.00000002
C           0.87944841       -0.00000000        0.00000002
H          -1.42143378        0.95640410       -0.34707320
H          -1.42143379       -0.95640408        0.34707317
H           1.42143386        0.95640406        0.34707303
H           1.42143386       -0.95640406       -0.34707300
6
MD Time 2710.00
C          -0.87361608        0.00000000       -0.00000002
C           0.87361607       -0.00000000        0.00000002
H          -1.40875433        0.96442921       -0.34323823
H          -1.40875434       -0.96442920        0.34323820
H           1.40875442        0.96442916        0.34323806
H           1.40875441       -0.96442916       -0.34323803
6
MD Time 2720.00
C          -0.86752112        0.00000000       -0.00000002
C           0.86752111       -0.00000000        0.00000002
H          -1.39566794        0.97163370       -0.33874541
H          -1.39566795       -0.97163369        0.33874537
H           1.39566804        0.97163364        0.33874524
H           1.39566804       -0.97163364       -0.33874521
6
MD Time 2730.00
C          -0.86116001        0.00000000       -0.00000001
C           0.86115999       -0.00000000        0.00000002
H          -1.38220202        0.97797686       -0.33358722
H          -1.38220203       -0.97797685        0.33358719
H           1.38220213        0.97797679        0.33358705
H           1.38220212       -0.97797680       -0.33358702
6
MD Time 2740.00
C          -0.85452877        0.00000000       -0.00000001
C           0.85452875       -0.00000000        0.00000001
H          -1.36838873        0.98342897       -0.32776047
H          -1.36838874       -0.98342896        0.32776044
H           1.36838884        0.98342890        0.32776031
H           1.36838884       -0.98342890       -0.32776028
6
MD Time 2750.00
C          -0.84762307        0.00000000       -0.00000001
C           0.84762305       -0.00000000        0.00000001
H          -1.35426484        0.98797136       -0.32126614
H          -1.35426485       -0.98797135        0.32126611
H           1.35426496        0.98797128        0.32126598
H           1.35426496       -0.98797128       -0.32126595
6
MD Time 2760.00
C          -0.84043834        0.00000000       -0.00000001
C           0.84043832       -0.00000000        0.00000001
H          -1.33987160        0.99159646       -0.31410919
H          -1.33987161       -0.99159645        0.31410916
H           1.33987173        0.99159637        0.31410903
H           1.33987172       -0.99159638       -0.31410900
6
MD Time 2770.00
C          -0.83296995        0.00000000       -0.00000001
C           0.83296993       -0.00000000        0.00000001
H          -1.32525458        0.99430790       -0.30629845
H          -1.32525459       -0.99430789        0.30629842
H           1.32525471        0.99430781        0.30629829
H           1.32525471       -0.99430781       -0.30629826
6
MD Time 2780.00
C          -0.82521327        0.00000000       -0.00000001
C           0.82521324       -0.00000000        0.00000001
H          -1.31046359        0.99612058       -0.29784642
H          -1.31046360       -0.99612057        0.29784639
H           1.31046373        0.99612049        0.29784627
H           1.31046373       -0.99612049       -0.29784623
6
MD Time 2790.00
C          -0.81716390        0.00000000       -0.00000001
C           0.81716388       -0.00000000        0.00000001
H          -1.29555257        0.99706076       -0.28876911
H          -1.29555258       -0.99706075        0.28876907
H           1.29555272        0.99706067        0.28876895
H           1.29555271       -0.99706067       -0.28876892
6
MD Time 2800.00
C          -0.80881785        0.00000000       -0.00000001
C           0.80881782       -0.00000000        0.00000001
H          -1.28057948        0.99716611       -0.27908583
H          -1.28057949       -0.99716611        0.27908579
H           1.28057962        0.99716602        0.27908568
H           1.28057962       -0.99716602       -0.27908564
6
MD Time 2810.00
C          -0.80017172        0.00000000       -0.00000001
C           0.80017170       -0.00000000        0.00000001
H          -1.26560615        0.99648567       -0.26881899
H          -1.26560616       -0.99648566        0.26881896
H           1.26560630        0.99648558        0.26881884
H           1.26560630       -0.99648558       -0.26881881
6
MD Time 2820.00
C          -0.79122301        0.00000000       -0.00000001
C           0.79122299       -0.00000000        0.00000001
H          -1.25069814        0.99507969       -0.25799383
H          -1.25069815       -0.99507969        0.25799379
H           1.25069829        0.99507960        0.25799368
H           1.25069829       -0.99507960       -0.25799365
6
MD Time 2830.00
C          -0.78197037        0.00000000       -0.00000001
C           0.78197035       -0.00000000        0.00000001
H          -1.23592446        0.99301932       -0.24663806
H          -1.23592447       -0.99301931        0.24663803
H           1.23592462        0.99301923        0.24663792
H           1.23592462       -0.99301923       -0.24663789
6
MD Time 2840.00
C          -0.77241401        0.00000000       -0.00000001
C           0.77241398       -0.00000000        0.00000001
H          -1.22135726        0.99038599       -0.23478158
H          -1.22135727       -0.99038598        0.23478154
H           1.22135742        0.99038590        0.23478144
H           1.22135741       -0.99038590       -0.23478140
6
MD Time 2850.00
C          -0.76255607        0.00000000       -0.00000001
C           0.76255604       -0.00000000        0.00000001
H          -1.20707132        0.98727053       -0.22245592
H          -1.20707133       -0.98727052        0.22245588
H           1.20707148        0.98727044        0.22245579
H           1.20707147       -0.98727045       -0.22245575
6
MD Time 2860.00
C          -0.75240119        0.00000000       -0.00000001
C           0.75240116       -0.00000000        0.00000001
H          -1.19314348        0.98377187       -0.20969385
H          -1.19314349       -0.98377187        0.20969381
H           1.19314364        0.98377179        0.20969372
H           1.19314364       -0.98377179       -0.20969369
6
MD Time 2870.00
C          -0.74195704        0.00000000       -0.00000001
C           0.74195702       -0.00000000        0.00000001
H          -1.17965184        0.97999531       -0.19652877
H          -1.17965185       -0.97999530        0.19652874
H           1.17965200        0.97999523        0.19652865
H           1.17965200       -0.97999523       -0.19652861
6
MD Time 2880.00
C          -0.73123507        0.00000000       -0.00000001
C           0.73123504       -0.00000000        0.00000001
H          -1.16667475        0.97605026       -0.18299416
H          -1.16667476       -0.97605026        0.18299412
H           1.16667491        0.97605019        0.18299404
H           1.16667491       -0.97605019       -0.18299400
6
MD Time 2890.00
C          -0.72025125        0.00000000       -0.00000001
C           0.72025123       -0.00000000        0.00000001
H          -1.15428965        0.97204759       -0.16912298
H          -1.15428966       -0.97204759        0.16912294
H           1.15428981        0.97204753        0.16912286
H           1.15428981       -0.97204753       -0.16912283
6
MD Time 2900.00
C          -0.70902704        0.00000000       -0.00000001
C           0.70902701       -0.00000000        0.00000001
H          -1.14257166        0.96809645       -0.15494718
H          -1.14257167       -0.96809645        0.15494714
H           1.14257182        0.96809639        0.15494707
H           1.14257182       -0.96809640       -0.15494703
6
MD Time 2910.00
C          -0.69759032        0.00000000       -0.00000001
C           0.69759030       -0.00000000        0.00000001
H          -1.13159199        0.96430077       -0.14049727
H          -1.13159200       -0.96430077        0.14049722
H           1.13159215        0.96430072        0.14049716
H           1.13159214       -0.96430073       -0.14049712
6
MD Time 2920.00
C          -0.68597657        0.00000000       -0.00000001
C           0.68597655       -0.00000000        0.00000001
H          -1.12141629        0.96075561       -0.12580203
H          -1.12141630       -0.96075561        0.12580198
H           1.12141643        0.96075556        0.12580193
H           1.12141643       -0.96075557       -0.12580189
6
MD Time 2930.00
C          -0.67422996        0.00000000       -0.00000001
C           0.67422993       -0.00000000        0.00000001
H          -1.11210285        0.95754353       -0.11088849
H          -1.11210286       -0.95754353        0.11088844
H           1.11210299        0.95754348        0.11088839
H           1.11210299       -0.95754349       -0.11088835
6
MD Time 2940.00
C          -0.66240453        0.00000000       -0.00000001
C           0.66240450       -0.00000000        0.00000001
H          -1.10370095        0.95473126       -0.09578208
H          -1.10370096       -0.95473126        0.09578203
H           1.10370109        0.95473122        0.09578199
H           1.10370109       -0.95473123       -0.09578194
6
MD Time 2950.00
C          -0.65056533        0.00000000       -0.00000001
C           0.65056530       -0.00000000        0.00000001
H          -1.09624932        0.95236698       -0.08050706
H          -1.09624933       -0.95236698        0.08050702
H           1.09624945        0.95236694        0.08050697
H           1.09624945       -0.95236696       -0.08050693
6
MD Time 2960.00
C          -0.63878936        0.00000000       -0.00000001
C           0.63878934       -0.00000000        0.00000001
H          -1.08977486        0.95047842       -0.06508718
H          -1.08977487       -0.95047842        0.06508713
H           1.08977498        0.95047839        0.06508709
H           1.08977498       -0.95047841       -0.06508705
6
MD Time 2970.00
C          -0.62716629        0.00000000       -0.00000001
C           0.62716627       -0.00000000        0.00000001
H          -1.08429187        0.94907204       -0.04954645
H          -1.08429188       -0.94907204        0.04954640
H           1.08429198        0.94907201        0.04954637
H           1.08429198       -0.94907202       -0.04954632
6
MD Time 2980.00
C          -0.61579876        0.00000000       -0.00000001
C           0.61579874       -0.00000000        0.00000001
H          -1.07980171        0.94813329       -0.03391008
H          -1.07980171       -0.94813329        0.03391003
H           1.07980181        0.94813327        0.03391000
H           1.07980181       -0.94813328       -0.03390996
6
MD Time 2990.00
C          -0.60480214        0.00000000       -0.00000001
C           0.60480212       -0.00000000        0.00000001
H          -1.07629300        0.94762815       -0.01820533
H          -1.07629301       -0.94762815        0.01820528
H           1.07629309        0.94762814        0.01820525
H           1.07629309       -0.94762815       -0.01820521
