6
MD Time 0.00
C          -1.00424993        0.00000000        0.00000000
C           1.00424993        0.00000000        0.00000000
H          -1.57974221        0.85087473        0.35244385
H          -1.57974221       -0.85087473       -0.35244385
H           1.57974221        0.85087473       -0.35244385
H           1.57974221       -0.85087473        0.35244385
6
MD Time 10.00
C          -1.00410894        0.00000000       -0.00000000
C           1.00410894        0.00000000        0.00000000
H          -1.57963149        0.85109706        0.35239408
H          -1.57963149       -0.85109706       -0.35239408
H           1.57963149        0.85109706       -0.35239408
H           1.57963149       -0.85109706        0.35239408
6
MD Time 20.00
C          -1.00368621        0.00000000       -0.00000000
C           1.00368621        0.00000000        0.00000000
H          -1.57929757        0.85176031        0.35224311
H          -1.57929757       -0.85176031       -0.35224311
H           1.57929757        0.85176031       -0.35224311
H           1.57929757       -0.85176031        0.35224311
6
MD Time 30.00
C          -1.00298238        0.00000000       -0.00000000
C           1.00298238        0.00000000        0.00000000
H          -1.57873522        0.85285334        0.35198607
H          -1.57873522       -0.85285334       -0.35198607
H           1.57873522        0.85285334       -0.35198607
H           1.57873522       -0.85285334        0.35198607
6
MD Time 40.00
C          -1.00199852        0.00000000       -0.00000000
C           1.00199852        0.00000000        0.00000000
H          -1.57793594        0.85435793        0.35161496
H          -1.57793594       -0.85435793       -0.35161496
H           1.57793594        0.85435793       -0.35161496
H           1.57793594       -0.85435793        0.35161496
6
MD Time 50.00
C          -1.00073602        0.00000000       -0.00000000
C           1.00073602        0.00000000        0.00000000
H          -1.57688824        0.85624931        0.35111899
H          -1.57688824       -0.85624931       -0.35111899
H           1.57688824        0.85624931       -0.35111899
H           1.57688824       -0.85624931        0.35111899
6
MD Time 60.00
C          -0.99919656        0.00000000       -0.00000000
C           0.99919656        0.00000000        0.00000000
H          -1.57557810        0.85849679        0.35048480
H          -1.57557810       -0.85849679       -0.35048479
H           1.57557810        0.85849679       -0.35048480
H           1.57557810       -0.85849679        0.35048479
6
MD Time 70.00
C          -0.99738203        0.00000000       -0.00000000
C           0.99738203        0.00000000        0.00000000
H          -1.57398943        0.86106461        0.34969692
H          -1.57398943       -0.86106461       -0.34969692
H           1.57398943        0.86106461       -0.34969692
H           1.57398943       -0.86106461        0.34969692
6
MD Time 80.00
C          -0.99529438        0.00000000       -0.00000000
C           0.99529438        0.00000000        0.00000000
H          -1.57210462        0.86391286        0.34873821
H          -1.57210462       -0.86391286       -0.34873821
H           1.57210462        0.86391286       -0.34873821
H           1.57210462       -0.86391286        0.34873821
6
MD Time 90.00
C          -0.99293561        0.00000000       -0.00000000
C           0.99293561        0.00000000        0.00000000
H          -1.56990513        0.86699843        0.34759027
H          -1.56990513       -0.86699843       -0.34759027
H           1.56990513        0.86699843       -0.34759027
H           1.56990513       -0.86699843        0.34759027
6
MD Time 100.00
C          -0.99030758        0.00000000       -0.00000000
C           0.99030758        0.00000000        0.00000000
H          -1.56737208        0.87027611        0.34623397
H          -1.56737208       -0.87027611       -0.34623397
H           1.56737208        0.87027611       -0.34623397
H           1.56737208       -0.87027611        0.34623397
6
MD Time 110.00
C          -0.98741197        0.00000000       -0.00000000
C           0.98741197        0.00000000        0.00000000
H          -1.56448684        0.87369951        0.34464989
H          -1.56448684       -0.87369951       -0.34464989
H           1.56448684        0.87369951       -0.34464989
H           1.56448684       -0.87369951        0.34464989
6
MD Time 120.00
C          -0.98425017        0.00000000       -0.00000000
C           0.98425017        0.00000000        0.00000000
H          -1.56123159        0.87722214        0.34281876
H          -1.56123159       -0.87722214       -0.34281876
H           1.56123159        0.87722214       -0.34281876
H           1.56123159       -0.87722214        0.34281876
6
MD Time 130.00
C          -0.98082319        0.00000000       -0.00000000
C           0.98082319        0.00000000        0.00000000
H          -1.55758983        0.88079833        0.34072191
H          -1.55758983       -0.88079833       -0.34072191
H           1.55758983        0.88079833       -0.34072192
H           1.55758983       -0.88079833        0.34072191
6
MD Time 140.00
C          -0.97713155        0.00000000       -0.00000000
C           0.97713155        0.00000000        0.00000000
H          -1.55354685        0.88438408        0.33834160
H          -1.55354685       -0.88438408       -0.33834160
H           1.55354685        0.88438408       -0.33834161
H           1.55354685       -0.88438408        0.33834160
6
MD Time 150.00
C          -0.97317530        0.00000000       -0.00000000
C           0.97317530        0.00000000        0.00000000
H          -1.54909014        0.88793790        0.33566136
H          -1.54909014       -0.88793790       -0.33566136
H           1.54909014        0.88793790       -0.33566136
H           1.54909014       -0.88793790        0.33566136
6
MD Time 160.00
C          -0.96895386        0.00000000       -0.00000000
C           0.96895386        0.00000000        0.00000000
H          -1.54420972        0.89142144        0.33266624
H          -1.54420972       -0.89142144       -0.33266624
H           1.54420972        0.89142144       -0.33266625
H           1.54420972       -0.89142144        0.33266624
6
MD Time 170.00
C          -0.96446606        0.00000000       -0.00000000
C           0.96446606        0.00000000        0.00000000
H          -1.53889842        0.89480016        0.32934306
H          -1.53889842       -0.89480016       -0.32934306
H           1.53889842        0.89480016       -0.32934306
H           1.53889842       -0.89480016        0.32934306
6
MD Time 180.00
C          -0.95971007        0.00000000       -0.00000000
C           0.95971007        0.00000000        0.00000000
H          -1.53315211        0.89804380        0.32568053
H          -1.53315211       -0.89804380       -0.32568053
H           1.53315211        0.89804380       -0.32568053
H           1.53315211       -0.89804380        0.32568053
6
MD Time 190.00
C          -0.95468337        0.00000000       -0.00000000
C           0.95468337        0.00000000        0.00000000
H          -1.52696980        0.90112677        0.32166935
H          -1.52696980       -0.90112677       -0.32166935
H           1.52696980        0.90112677       -0.32166935
H           1.52696980       -0.90112677        0.32166935
6
MD Time 200.00
C          -0.94938280        0.00000000       -0.00000000
C           0.94938280        0.00000000        0.00000000
H          -1.52035378        0.90402849        0.31730232
H          -1.52035378       -0.90402849       -0.31730232
H           1.52035378        0.90402849       -0.31730232
H           1.52035378       -0.90402849        0.31730232
6
MD Time 210.00
C          -0.94380449        0.00000000       -0.00000000
C           0.94380449        0.00000000        0.00000000
H          -1.51330962        0.90673355        0.31257427
H          -1.51330962       -0.90673355       -0.31257427
H           1.51330962        0.90673355       -0.31257427
H           1.51330962       -0.90673355        0.31257427
6
MD Time 220.00
C          -0.93794394        0.00000000        0.00000000
C           0.93794394        0.00000000        0.00000000
H          -1.50584615        0.90923185        0.30748207
H          -1.50584615       -0.90923185       -0.30748207
H           1.50584615        0.90923185       -0.30748207
H           1.50584615       -0.90923185        0.30748207
6
MD Time 230.00
C          -0.93179604        0.00000000        0.00000000
C           0.93179604        0.00000000        0.00000000
H          -1.49797540        0.91151861        0.30202453
H          -1.49797540       -0.91151861       -0.30202453
H           1.49797540        0.91151861       -0.30202453
H           1.49797540       -0.91151861        0.30202453
6
MD Time 240.00
C          -0.92535509        0.00000000        0.00000000
C           0.92535509        0.00000000       -0.00000000
H          -1.48971244        0.91359427        0.29620228
H          -1.48971244       -0.91359427       -0.29620228
H           1.48971244        0.91359427       -0.29620228
H           1.48971244       -0.91359427        0.29620228
6
MD Time 250.00
C          -0.91861489        0.00000000        0.00000000
C           0.91861489       -0.00000000       -0.00000000
H          -1.48107519        0.91546430        0.29001760
H          -1.48107519       -0.91546430       -0.29001760
H           1.48107519        0.91546430       -0.29001760
H           1.48107519       -0.91546430        0.29001760
6
MD Time 260.00
C          -0.91156882       -0.00000000        0.00000000
C           0.91156882       -0.00000000       -0.00000000
H          -1.47208426        0.91713895        0.28347428
H          -1.47208426       -0.91713895       -0.28347428
H           1.47208426        0.91713895       -0.28347428
H           1.47208426       -0.91713895        0.28347428
6
MD Time 270.00
C          -0.90420989       -0.00000000        0.00000000
C           0.90420989       -0.00000000       -0.00000000
H          -1.46276257        0.91863283        0.27657734
H          -1.46276257       -0.91863283       -0.27657734
H           1.46276257        0.91863283       -0.27657734
H           1.46276257       -0.91863283        0.27657734
6
MD Time 280.00
C          -0.89653092       -0.00000000        0.00000000
C           0.89653092       -0.00000000       -0.00000000
H          -1.45313513        0.91996444        0.26933287
H          -1.45313513       -0.91996444       -0.26933288
H           1.45313513        0.91996444       -0.26933287
H           1.45313513       -0.91996444        0.26933287
6
MD Time 290.00
C          -0.88852463       -0.00000000        0.00000000
C           0.88852463       -0.00000000       -0.00000000
H          -1.44322858        0.92115558        0.26174776
H          -1.44322858       -0.92115558       -0.26174777
H           1.44322858        0.92115558       -0.26174776
H           1.44322858       -0.92115558        0.26174777
6
MD Time 300.00
C          -0.88018382       -0.00000000        0.00000000
C           0.88018382       -0.00000000       -0.00000000
H          -1.43307084        0.92223065        0.25382945
H          -1.43307084       -0.92223065       -0.25382945
H           1.43307084        0.92223066       -0.25382945
H           1.43307084       -0.92223065        0.25382945
6
MD Time 310.00
C          -0.87150153       -0.00000000        0.00000000
C           0.87150153       -0.00000000       -0.00000000
H          -1.42269063        0.92321591        0.24558569
H          -1.42269063       -0.92321591       -0.24558569
H           1.42269063        0.92321591       -0.24558569
H           1.42269063       -0.92321591        0.24558569
6
MD Time 320.00
C          -0.86247128       -0.00000000        0.00000000
C           0.86247128       -0.00000000       -0.00000000
H          -1.41211702        0.92413857        0.23702433
H          -1.41211702       -0.92413857       -0.23702433
H           1.41211702        0.92413857       -0.23702433
H           1.41211702       -0.92413857        0.23702433
6
MD Time 330.00
C          -0.85308731       -0.00000000        0.00000000
C           0.85308731       -0.00000000       -0.00000000
H          -1.40137890        0.92502589        0.22815311
H          -1.40137890       -0.92502589       -0.22815312
H           1.40137890        0.92502589       -0.22815311
H           1.40137890       -0.92502589        0.22815312
6
MD Time 340.00
C          -0.84334482       -0.00000000        0.00000000
C           0.84334482       -0.00000000       -0.00000000
H          -1.39050448        0.92590425        0.21897953
H          -1.39050448       -0.92590425       -0.21897953
H           1.39050448        0.92590425       -0.21897952
H           1.39050448       -0.92590425        0.21897953
6
MD Time 350.00
C          -0.83324031       -0.00000000        0.00000000
C           0.83324031       -0.00000000       -0.00000000
H          -1.37952080        0.92679810        0.20951066
H          -1.37952080       -0.92679810       -0.20951067
H           1.37952080        0.92679810       -0.20951066
H           1.37952080       -0.92679810        0.20951067
6
MD Time 360.00
C          -0.82277192       -0.00000000        0.00000000
C           0.82277192       -0.00000000       -0.00000000
H          -1.36845323        0.92772906        0.19975320
H          -1.36845323       -0.92772906       -0.19975321
H           1.36845323        0.92772906       -0.19975320
H           1.36845322       -0.92772906        0.19975321
6
MD Time 370.00
C          -0.81193981       -0.00000000        0.00000000
C           0.81193981       -0.00000000       -0.00000000
H          -1.35732499        0.92871498        0.18971339
H          -1.35732499       -0.92871498       -0.18971340
H           1.35732499        0.92871498       -0.18971339
H           1.35732499       -0.92871498        0.18971340
6
MD Time 380.00
C          -0.80074658       -0.00000000        0.00000000
C           0.80074658       -0.00000000       -0.00000000
H          -1.34615680        0.92976914        0.17939716
H          -1.34615680       -0.92976914       -0.17939717
H           1.34615680        0.92976914       -0.17939716
H           1.34615679       -0.92976914        0.17939717
6
MD Time 390.00
C          -0.78919775       -0.00000000        0.00000000
C           0.78919775       -0.00000000       -0.00000000
H          -1.33496651        0.93089953        0.16881025
H          -1.33496651       -0.93089953       -0.16881027
H           1.33496651        0.93089953       -0.16881025
H           1.33496651       -0.93089953        0.16881026
6
MD Time 400.00
C          -0.77730229       -0.00000000        0.00000000
C           0.77730229       -0.00000000       -0.00000000
H          -1.32376889        0.93210838        0.15795848
H          -1.32376888       -0.93210838       -0.15795849
H           1.32376888        0.93210838       -0.15795847
H           1.32376888       -0.93210838        0.15795849
6
MD Time 410.00
C          -0.76507319       -0.00000000        0.00000000
C           0.76507319       -0.00000000       -0.00000000
H          -1.31257545        0.93339177        0.14684799
H          -1.31257544       -0.93339177       -0.14684800
H           1.31257545        0.93339178       -0.14684798
H           1.31257544       -0.93339177        0.14684800
6
MD Time 420.00
C          -0.75252811       -0.00000000        0.00000000
C           0.75252811       -0.00000000       -0.00000000
H          -1.30139447        0.93473961        0.13548563
H          -1.30139446       -0.93473961       -0.13548564
H           1.30139446        0.93473961       -0.13548562
H           1.30139446       -0.93473961        0.13548564
6
MD Time 430.00
C          -0.73969006       -0.00000000        0.00000000
C           0.73969006       -0.00000000       -0.00000000
H          -1.29023105        0.93613568        0.12387931
H          -1.29023105       -0.93613568       -0.12387933
H           1.29023105        0.93613568       -0.12387930
H           1.29023104       -0.93613568        0.12387933
6
MD Time 440.00
C          -0.72658823       -0.00000000        0.00000000
C           0.72658824       -0.00000000       -0.00000000
H          -1.27908740        0.93755809        0.11203843
H          -1.27908740       -0.93755809       -0.11203845
H           1.27908740        0.93755809       -0.11203841
H           1.27908739       -0.93755809        0.11203844
6
MD Time 450.00
C          -0.71325880       -0.00000000        0.00000000
C           0.71325880       -0.00000000       -0.00000000
H          -1.26796315        0.93897982        0.09997419
H          -1.26796314       -0.93897982       -0.09997421
H           1.26796315        0.93897982       -0.09997418
H           1.26796314       -0.93897982        0.09997421
6
MD Time 460.00
C          -0.69974585       -0.00000000        0.00000000
C           0.69974585       -0.00000000       -0.00000000
H          -1.25685587        0.94036959        0.08770004
H          -1.25685586       -0.94036959       -0.08770006
H           1.25685586        0.94036959       -0.08770002
H           1.25685586       -0.94036959        0.08770006
6
MD Time 470.00
C          -0.68610241       -0.00000000        0.00000000
C           0.68610241        0.00000000       -0.00000000
H          -1.24576168        0.94169285        0.07523191
H          -1.24576167       -0.94169285       -0.07523194
H           1.24576167        0.94169285       -0.07523190
H           1.24576167       -0.94169285        0.07523193
6
MD Time 480.00
C          -0.67239144       -0.00000000        0.00000000
C           0.67239144        0.00000000       -0.00000000
H          -1.23467598        0.94291296        0.06258851
H          -1.23467598       -0.94291296       -0.06258853
H           1.23467598        0.94291296       -0.06258849
H           1.23467597       -0.94291296        0.06258852
6
MD Time 490.00
C          -0.65868689       -0.00000000        0.00000000
C           0.65868689        0.00000000       -0.00000000
H          -1.22359428        0.94399249        0.04979140
H          -1.22359427       -0.94399249       -0.04979143
H           1.22359427        0.94399250       -0.04979138
H           1.22359427       -0.94399250        0.04979142
6
MD Time 500.00
C          -0.64507467       -0.00000000        0.00000000
C           0.64507467        0.00000000       -0.00000000
H          -1.21251309        0.94489461        0.03686514
H          -1.21251308       -0.94489461       -0.03686517
H           1.21251308        0.94489462       -0.03686512
H           1.21251308       -0.94489461        0.03686516
6
MD Time 510.00
C          -0.63165344       -0.00000000        0.00000000
C           0.63165344        0.00000000       -0.00000000
H          -1.20143093        0.94558448        0.02383717
H          -1.20143093       -0.94558448       -0.02383720
H           1.20143093        0.94558448       -0.02383715
H           1.20143092       -0.94558448        0.02383719
6
MD Time 520.00
C          -0.61853519       -0.00000000        0.00000000
C           0.61853519        0.00000000       -0.00000000
H          -1.19034934        0.94603070        0.01073771
H          -1.19034933       -0.94603070       -0.01073775
H           1.19034933        0.94603071       -0.01073769
H           1.19034933       -0.94603070        0.01073773
6
MD Time 530.00
C          -0.60584523       -0.00000000        0.00000000
C           0.60584523        0.00000000       -0.00000000
H          -1.17927392        0.94620674       -0.00240050
H          -1.17927391       -0.94620674        0.00240046
H           1.17927391        0.94620674        0.00240053
H           1.17927391       -0.94620674       -0.00240047
6
MD Time 540.00
C          -0.59372159       -0.00000000        0.00000000
C           0.59372159        0.00000000       -0.00000000
H          -1.16821539        0.94609226       -0.01554251
H          -1.16821538       -0.94609226        0.01554247
H           1.16821538        0.94609226        0.01554254
H           1.16821538       -0.94609226       -0.01554249
6
MD Time 550.00
C          -0.58231340       -0.00000000        0.00000000
C           0.58231340        0.00000000       -0.00000000
H          -1.15719061        0.94567447       -0.02865157
H          -1.15719060       -0.94567448        0.02865153
H           1.15719060        0.94567448        0.02865160
H           1.15719060       -0.94567448       -0.02865154
6
MD Time 560.00
C          -0.57177817       -0.00000000        0.00000000
C           0.57177817        0.00000000       -0.00000000
H          -1.14622352        0.94494936       -0.04168958
H          -1.14622352       -0.94494936        0.04168953
H           1.14622352        0.94494936        0.04168961
H           1.14622351       -0.94494936       -0.04168955
6
MD Time 570.00
C          -0.56227760       -0.00000000        0.00000000
C           0.56227761        0.00000000       -0.00000000
H          -1.13534601        0.94392283       -0.05461760
H          -1.13534600       -0.94392283        0.05461755
H           1.13534600        0.94392283        0.05461763
H           1.13534600       -0.94392283       -0.05461757
6
MD Time 580.00
C          -0.55397207       -0.00000000        0.00000000
C           0.55397207        0.00000000       -0.00000000
H          -1.12459860        0.94261179       -0.06739644
H          -1.12459860       -0.94261179        0.06739639
H           1.12459860        0.94261180        0.06739647
H           1.12459859       -0.94261180       -0.06739641
6
MD Time 590.00
C          -0.54701363       -0.00000000        0.00000000
C           0.54701363        0.00000000       -0.00000000
H          -1.11403101        0.94104513       -0.07998723
H          -1.11403100       -0.94104514        0.07998718
H           1.11403100        0.94104514        0.07998727
H           1.11403100       -0.94104514       -0.07998720
6
MD Time 600.00
C          -0.54153824       -0.00000000        0.00000000
C           0.54153825        0.00000000       -0.00000000
H          -1.10370237        0.93926448       -0.09235214
H          -1.10370236       -0.93926448        0.09235208
H           1.10370236        0.93926448        0.09235217
H           1.10370235       -0.93926448       -0.09235210
6
MD Time 610.00
C          -0.53765759       -0.00000000        0.00000000
C           0.53765759        0.00000000       -0.00000000
H          -1.09368119        0.93732474       -0.10445499
H          -1.09368119       -0.93732475        0.10445494
H           1.09368119        0.93732475        0.10445503
H           1.09368118       -0.93732475       -0.10445496
6
MD Time 620.00
C          -0.53545159       -0.00000000        0.00000000
C           0.53545159        0.00000000       -0.00000000
H          -1.08404496        0.93529435       -0.11626207
H          -1.08404495       -0.93529435        0.11626201
H           1.08404495        0.93529435        0.11626211
H           1.08404495       -0.93529436       -0.11626203
6
MD Time 630.00
C          -0.53496247       -0.00000000        0.00000000
C           0.53496247        0.00000000       -0.00000000
H          -1.07487917        0.93325488       -0.12774278
H          -1.07487917       -0.93325489        0.12774272
H           1.07487916        0.93325488        0.12774283
H           1.07487916       -0.93325489       -0.12774275
6
MD Time 640.00
C          -0.53619139       -0.00000000        0.00000000
C           0.53619139        0.00000000       -0.00000000
H          -1.06627598        0.93130019       -0.13887041
H          -1.06627598       -0.93130020        0.13887035
H           1.06627597        0.93130020        0.13887046
H           1.06627597       -0.93130020       -0.13887038
6
MD Time 650.00
C          -0.53909802       -0.00000000        0.00000000
C           0.53909802        0.00000000       -0.00000000
H          -1.05833221        0.92953467       -0.14962268
H          -1.05833221       -0.92953468        0.14962262
H           1.05833220        0.92953467        0.14962272
H           1.05833220       -0.92953468       -0.14962264
6
MD Time 660.00
C          -0.54360335        0.00000000        0.00000000
C           0.54360335        0.00000000       -0.00000000
H          -1.05114689        0.92807058       -0.15998219
H          -1.05114688       -0.92807059        0.15998213
H           1.05114688        0.92807058        0.15998224
H           1.05114688       -0.92807059       -0.15998216
6
MD Time 670.00
C          -0.54959514        0.00000000        0.00000000
C           0.54959514        0.00000000       -0.00000000
H          -1.04481830        0.92702449       -0.16993667
H          -1.04481829       -0.92702450        0.16993660
H           1.04481829        0.92702449        0.16993672
H           1.04481829       -0.92702450       -0.16993663
6
MD Time 680.00
C          -0.55693539        0.00000000        0.00000000
C           0.55693539        0.00000000       -0.00000000
H          -1.03944070        0.92651276       -0.17947882
H          -1.03944069       -0.92651277        0.17947875
H           1.03944069        0.92651276        0.17947887
H           1.03944069       -0.92651277       -0.17947878
6
MD Time 690.00
C          -0.56546865        0.00000000        0.00000000
C           0.56546865        0.00000000       -0.00000000
H          -1.03510091        0.92664625       -0.18860587
H          -1.03510090       -0.92664626        0.18860580
H           1.03510090        0.92664625        0.18860592
H           1.03510090       -0.92664626       -0.18860583
6
MD Time 700.00
C          -0.57503039        0.00000000       -0.00000000
C           0.57503039        0.00000000       -0.00000000
H          -1.03187501        0.92752459       -0.19731874
H          -1.03187500       -0.92752460        0.19731868
H           1.03187500        0.92752459        0.19731880
H           1.03187500       -0.92752460       -0.19731871
6
MD Time 710.00
C          -0.58545455        0.00000000       -0.00000000
C           0.58545455        0.00000000       -0.00000000
H          -1.02982537        0.92923032       -0.20562085
H          -1.02982537       -0.92923034        0.20562078
H           1.02982536        0.92923033        0.20562090
H           1.02982537       -0.92923034       -0.20562082
6
MD Time 720.00
C          -0.59657973        0.00000000       -0.00000000
C           0.59657973        0.00000000       -0.00000000
H          -1.02899836        0.93182353       -0.21351667
H          -1.02899836       -0.93182354        0.21351660
H           1.02899835        0.93182353        0.21351672
H           1.02899835       -0.93182354       -0.21351663
6
MD Time 730.00
C          -0.60825389        0.00000000       -0.00000000
C           0.60825390        0.00000000       -0.00000000
H          -1.02942278        0.93533722       -0.22101019
H          -1.02942278       -0.93533723        0.22101013
H           1.02942277        0.93533721        0.22101025
H           1.02942278       -0.93533723       -0.22101016
6
MD Time 740.00
C          -0.62033753       -0.00000000       -0.00000000
C           0.62033753        0.00000000       -0.00000000
H          -1.03110933        0.93977420       -0.22810349
H          -1.03110933       -0.93977422        0.22810342
H           1.03110932        0.93977419        0.22810355
H           1.03110933       -0.93977421       -0.22810346
6
MD Time 750.00
C          -0.63270537       -0.00000000       -0.00000000
C           0.63270537        0.00000000       -0.00000000
H          -1.03405093        0.94510552       -0.23479542
H          -1.03405092       -0.94510554        0.23479535
H           1.03405091        0.94510551        0.23479548
H           1.03405092       -0.94510553       -0.23479539
6
MD Time 760.00
C          -0.64524705       -0.00000000       -0.00000000
C           0.64524706        0.00000000        0.00000000
H          -1.03822389        0.95127073       -0.24108078
H          -1.03822389       -0.95127075        0.24108071
H           1.03822388        0.95127073        0.24108084
H           1.03822389       -0.95127074       -0.24108074
6
MD Time 770.00
C          -0.65786687       -0.00000000       -0.00000000
C           0.65786687        0.00000000        0.00000000
H          -1.04358986        0.95817995       -0.24694983
H          -1.04358986       -0.95817997        0.24694976
H           1.04358985        0.95817994        0.24694989
H           1.04358985       -0.95817996       -0.24694980
6
MD Time 780.00
C          -0.67048291       -0.00000000       -0.00000000
C           0.67048291        0.00000000        0.00000000
H          -1.05009807        0.96571732       -0.25238837
H          -1.05009806       -0.96571734        0.25238829
H           1.05009806        0.96571731        0.25238843
H           1.05009806       -0.96571733       -0.25238833
6
MD Time 790.00
C          -0.68302588       -0.00000000       -0.00000000
C           0.68302588        0.00000000        0.00000000
H          -1.05768789        0.97374572       -0.25737813
H          -1.05768789       -0.97374575        0.25737806
H           1.05768788        0.97374571        0.25737820
H           1.05768789       -0.97374573       -0.25737810
6
MD Time 800.00
C          -0.69543770       -0.00000000       -0.00000000
C           0.69543770        0.00000000        0.00000000
H          -1.06629139        0.98211211       -0.26189759
H          -1.06629139       -0.98211213        0.26189752
H           1.06629138        0.98211210        0.26189766
H           1.06629139       -0.98211212       -0.26189756
6
MD Time 810.00
C          -0.70767012       -0.00000000       -0.00000000
C           0.70767013        0.00000000        0.00000000
H          -1.07583569        0.99065310       -0.26592292
H          -1.07583569       -0.99065312        0.26592285
H           1.07583568        0.99065309        0.26592299
H           1.07583569       -0.99065311       -0.26592289
6
MD Time 820.00
C          -0.71968331       -0.00000000       -0.00000000
C           0.71968331        0.00000000        0.00000000
H          -1.08624505        0.99920046       -0.26942911
H          -1.08624505       -0.99920049        0.26942903
H           1.08624504        0.99920045        0.26942918
H           1.08624505       -0.99920047       -0.26942908
6
MD Time 830.00
C          -0.73144458       -0.00000000       -0.00000000
C           0.73144458        0.00000000        0.00000000
H          -1.09744266        1.00758614       -0.27239103
H          -1.09744265       -1.00758616        0.27239095
H           1.09744265        1.00758613        0.27239109
H           1.09744265       -1.00758615       -0.27239099
6
MD Time 840.00
C          -0.74292732       -0.00000000       -0.00000001
C           0.74292732        0.00000000        0.00000000
H          -1.10935201        1.01564668       -0.27478450
H          -1.10935201       -1.01564670        0.27478442
H           1.10935200        1.01564666        0.27478457
H           1.10935201       -1.01564668       -0.27478446
6
MD Time 850.00
C          -0.75410995       -0.00000000       -0.00000001
C           0.75410995        0.00000000        0.00000000
H          -1.12189804        1.02322688       -0.27658717
H          -1.12189803       -1.02322691        0.27658709
H           1.12189802        1.02322687        0.27658724
H           1.12189803       -1.02322689       -0.27658714
6
MD Time 860.00
C          -0.76497510       -0.00000000       -0.00000001
C           0.76497510        0.00000000        0.00000000
H          -1.13500785        1.03018281       -0.27777931
H          -1.13500784       -1.03018284        0.27777923
H           1.13500783        1.03018280        0.27777938
H           1.13500784       -1.03018282       -0.27777928
6
MD Time 870.00
C          -0.77550890       -0.00000000       -0.00000001
C           0.77550890        0.00000000        0.00000000
H          -1.14861132        1.03638400       -0.27834436
H          -1.14861131       -1.03638403        0.27834427
H           1.14861130        1.03638399        0.27834443
H           1.14861131       -1.03638400       -0.27834433
6
MD Time 880.00
C          -0.78570036       -0.00000000       -0.00000001
C           0.78570037        0.00000000        0.00000000
H          -1.16264146        1.04171511       -0.27826940
H          -1.16264145       -1.04171513        0.27826932
H           1.16264145        1.04171509        0.27826948
H           1.16264145       -1.04171511       -0.27826937
6
MD Time 890.00
C          -0.79554087       -0.00000000       -0.00000001
C           0.79554087        0.00000000        0.00000001
H          -1.17703465        1.04607702       -0.27754549
H          -1.17703464       -1.04607704        0.27754540
H           1.17703464        1.04607701        0.27754556
H           1.17703465       -1.04607702       -0.27754546
6
MD Time 900.00
C          -0.80502373       -0.00000000       -0.00000001
C           0.80502373        0.00000000        0.00000001
H          -1.19173079        1.04938759       -0.27616780
H          -1.19173078       -1.04938761        0.27616771
H           1.19173077        1.04938757        0.27616787
H           1.19173078       -1.04938759       -0.27616777
6
MD Time 910.00
C          -0.81414381       -0.00000000       -0.00000001
C           0.81414381        0.00000000        0.00000001
H          -1.20667337        1.05158199       -0.27413574
H          -1.20667337       -1.05158202        0.27413565
H           1.20667336        1.05158198        0.27413581
H           1.20667337       -1.05158199       -0.27413571
6
MD Time 920.00
C          -0.82289723       -0.00000000       -0.00000001
C           0.82289723        0.00000000        0.00000001
H          -1.22180961        1.05261292       -0.27145294
H          -1.22180960       -1.05261294        0.27145286
H           1.22180960        1.05261290        0.27145302
H           1.22180960       -1.05261291       -0.27145291
6
MD Time 930.00
C          -0.83128106       -0.00000000       -0.00000001
C           0.83128106        0.00000000        0.00000001
H          -1.23709043        1.05245054       -0.26812721
H          -1.23709043       -1.05245057        0.26812712
H           1.23709042        1.05245053        0.26812729
H           1.23709043       -1.05245054       -0.26812718
6
MD Time 940.00
C          -0.83929305       -0.00000000       -0.00000001
C           0.83929305        0.00000000        0.00000001
H          -1.25247065        1.05108247       -0.26417038
H          -1.25247065       -1.05108249        0.26417029
H           1.25247064        1.05108245        0.26417046
H           1.25247065       -1.05108247       -0.26417035
6
MD Time 950.00
C          -0.84693147       -0.00000000       -0.00000001
C           0.84693147        0.00000000        0.00000001
H          -1.26790902        1.04851350       -0.25959813
H          -1.26790902       -1.04851352        0.25959804
H           1.26790901        1.04851349        0.25959821
H           1.26790902       -1.04851350       -0.25959810
6
MD Time 960.00
C          -0.85419486       -0.00000000       -0.00000001
C           0.85419486        0.00000000        0.00000001
H          -1.28336840        1.04476543       -0.25442980
H          -1.28336840       -1.04476545        0.25442971
H           1.28336840        1.04476542        0.25442988
H           1.28336840       -1.04476543       -0.25442977
6
MD Time 970.00
C          -0.86108185       -0.00000000       -0.00000001
C           0.86108185        0.00000000        0.00000001
H          -1.29881593        1.03987672       -0.24868806
H          -1.29881592       -1.03987674        0.24868797
H           1.29881592        1.03987671        0.24868814
H           1.29881593       -1.03987672       -0.24868804
6
MD Time 980.00
C          -0.86759102       -0.00000000       -0.00000001
C           0.86759102        0.00000000        0.00000001
H          -1.31422317        1.03390213       -0.24239867
H          -1.31422316       -1.03390215        0.24239858
H           1.31422316        1.03390211        0.24239875
H           1.31422317       -1.03390212       -0.24239865
6
MD Time 990.00
C          -0.87372076       -0.00000000       -0.00000001
C           0.87372076        0.00000000        0.00000001
H          -1.32956632        1.02691217       -0.23559005
H          -1.32956632       -1.02691219        0.23558996
H           1.32956632        1.02691216        0.23559013
H           1.32956632       -1.02691217       -0.23559002
6
MD Time 1000.00
C          -0.87946910       -0.00000000       -0.00000001
C           0.87946910        0.00000000        0.00000001
H          -1.34482636        1.01899251       -0.22829289
H          -1.34482635       -1.01899253        0.22829280
H           1.34482635        1.01899250        0.22829297
H           1.34482636       -1.01899250       -0.22829286
6
MD Time 1010.00
C          -0.88483368       -0.00000000       -0.00000001
C           0.88483368        0.00000000        0.00000001
H          -1.35998908        1.01024300       -0.22053966
H          -1.35998907       -1.01024302        0.22053957
H           1.35998907        1.01024299        0.22053974
H           1.35998908       -1.01024300       -0.22053963
6
MD Time 1020.00
C          -0.88981165       -0.00000000       -0.00000001
C           0.88981165        0.00000000        0.00000001
H          -1.37504513        1.00077659       -0.21236411
H          -1.37504512       -1.00077661        0.21236402
H           1.37504512        1.00077659        0.21236419
H           1.37504513       -1.00077659       -0.21236408
6
MD Time 1030.00
C          -0.89439965       -0.00000000       -0.00000001
C           0.89439965        0.00000000        0.00000001
H          -1.38998982        0.99071780       -0.20380066
H          -1.38998981       -0.99071781        0.20380057
H           1.38998981        0.99071779        0.20380074
H           1.38998982       -0.99071779       -0.20380063
6
MD Time 1040.00
C          -0.89859381       -0.00000000       -0.00000001
C           0.89859381        0.00000000        0.00000001
H          -1.40482275        0.98020080       -0.19488378
H          -1.40482275       -0.98020082        0.19488369
H           1.40482275        0.98020080        0.19488386
H           1.40482276       -0.98020080       -0.19488375
6
MD Time 1050.00
C          -0.90238988       -0.00000000       -0.00000001
C           0.90238988        0.00000000        0.00000001
H          -1.41954724        0.96936717       -0.18564733
H          -1.41954723       -0.96936719        0.18564725
H           1.41954724        0.96936717        0.18564741
H           1.41954724       -0.96936717       -0.18564731
6
MD Time 1060.00
C          -0.90578329       -0.00000000       -0.00000001
C           0.90578329        0.00000000        0.00000001
H          -1.43416938        0.95836307       -0.17612391
H          -1.43416937       -0.95836309        0.17612382
H           1.43416938        0.95836307        0.17612398
H           1.43416938       -0.95836307       -0.17612388
6
MD Time 1070.00
C          -0.90876938       -0.00000000       -0.00000002
C           0.90876938        0.00000000        0.00000001
H          -1.44869687        0.94733610       -0.16634414
H          -1.44869686       -0.94733612        0.16634405
H           1.44869686        0.94733610        0.16634422
H           1.44869687       -0.94733610       -0.16634411
6
MD Time 1080.00
C          -0.91134366       -0.00000000       -0.00000002
C           0.91134366        0.00000000        0.00000001
H          -1.46313746        0.93643175       -0.15633616
H          -1.46313745       -0.93643177        0.15633607
H           1.46313746        0.93643175        0.15633623
H           1.46313746       -0.93643175       -0.15633613
6
MD Time 1090.00
C          -0.91350211       -0.00000000       -0.00000002
C           0.91350211        0.00000000        0.00000001
H          -1.47749717        0.92578965       -0.14612505
H          -1.47749716       -0.92578967        0.14612496
H           1.47749717        0.92578965        0.14612512
H           1.47749717       -0.92578965       -0.14612502
6
MD Time 1100.00
C          -0.91524154       -0.00000000       -0.00000002
C           0.91524154        0.00000000        0.00000002
H          -1.49177819        0.91553974       -0.13573252
H          -1.49177818       -0.91553976        0.13573243
H           1.49177819        0.91553975        0.13573260
H           1.49177819       -0.91553974       -0.13573249
6
MD Time 1110.00
C          -0.91655995       -0.00000000       -0.00000002
C           0.91655995        0.00000000        0.00000002
H          -1.50597678        0.90579860       -0.12517675
H          -1.50597677       -0.90579862        0.12517666
H           1.50597678        0.90579861        0.12517682
H           1.50597678       -0.90579860       -0.12517672
6
MD Time 1120.00
C          -0.91745693       -0.00000000       -0.00000002
C           0.91745693        0.00000000        0.00000002
H          -1.52008105        0.89666618       -0.11447239
H          -1.52008104       -0.89666620        0.11447230
H           1.52008105        0.89666618        0.11447246
H           1.52008105       -0.89666618       -0.11447236
6
MD Time 1130.00
C          -0.91793401       -0.00000000       -0.00000002
C           0.91793401        0.00000000        0.00000002
H          -1.53406910        0.88822314       -0.10363092
H          -1.53406909       -0.88822316        0.10363083
H           1.53406910        0.88822315        0.10363099
H           1.53406910       -0.88822314       -0.10363089
6
MD Time 1140.00
C          -0.91799491       -0.00000000       -0.00000002
C           0.91799491        0.00000000        0.00000002
H          -1.54790737        0.88052908       -0.09266108
H          -1.54790735       -0.88052910        0.09266099
H           1.54790736        0.88052909        0.09266115
H           1.54790737       -0.88052908       -0.09266105
6
MD Time 1150.00
C          -0.91764573       -0.00000000       -0.00000002
C           0.91764573        0.00000000        0.00000002
H          -1.56154961        0.87362166       -0.08156962
H          -1.56154960       -0.87362167        0.08156953
H           1.56154961        0.87362166        0.08156969
H           1.56154961       -0.87362166       -0.08156959
6
MD Time 1160.00
C          -0.91689504       -0.00000000       -0.00000002
C           0.91689504        0.00000000        0.00000002
H          -1.57493654        0.86751677       -0.07036209
H          -1.57493652       -0.86751679        0.07036200
H           1.57493653        0.86751678        0.07036216
H           1.57493653       -0.86751677       -0.07036206
6
MD Time 1170.00
C          -0.91575383       -0.00000000       -0.00000002
C           0.91575383        0.00000000        0.00000002
H          -1.58799605        0.86220972       -0.05904375
H          -1.58799604       -0.86220974        0.05904366
H           1.58799604        0.86220973        0.05904382
H           1.58799605       -0.86220972       -0.05904372
6
MD Time 1180.00
C          -0.91423532       -0.00000000       -0.00000002
C           0.91423532        0.00000000        0.00000002
H          -1.60064431        0.85767716       -0.04762041
H          -1.60064430       -0.85767718        0.04762032
H           1.60064431        0.85767717        0.04762048
H           1.60064431       -0.85767716       -0.04762038
6
MD Time 1190.00
C          -0.91235466       -0.00000000       -0.00000002
C           0.91235466        0.00000000        0.00000002
H          -1.61278735        0.85387974       -0.03609925
H          -1.61278734       -0.85387975        0.03609916
H           1.61278735        0.85387974        0.03609932
H           1.61278735       -0.85387974       -0.03609922
6
MD Time 1200.00
C          -0.91012862       -0.00000000       -0.00000002
C           0.91012862        0.00000000        0.00000002
H          -1.62432319        0.85076506       -0.02448943
H          -1.62432317       -0.85076508        0.02448934
H           1.62432319        0.85076507        0.02448950
H           1.62432319       -0.85076506       -0.02448940
6
MD Time 1210.00
C          -0.90757509       -0.00000000       -0.00000002
C           0.90757509        0.00000000        0.00000002
H          -1.63514429        0.84827091       -0.01280258
H          -1.63514427       -0.84827093        0.01280249
H           1.63514428        0.84827092        0.01280265
H           1.63514428       -0.84827091       -0.01280255
6
MD Time 1220.00
C          -0.90471270       -0.00000000       -0.00000002
C           0.90471270        0.00000000        0.00000002
H          -1.64514014        0.84632836       -0.00105304
H          -1.64514012       -0.84632837        0.00105295
H           1.64514014        0.84632836        0.00105311
H           1.64514014       -0.84632836       -0.00105301
6
MD Time 1230.00
C          -0.90156032       -0.00000000       -0.00000002
C           0.90156032        0.00000000        0.00000002
H          -1.65419989        0.84486465        0.01074203
H          -1.65419988       -0.84486466       -0.01074212
H           1.65419989        0.84486465       -0.01074196
H           1.65419989       -0.84486465        0.01074206
6
MD Time 1240.00
C          -0.89813665       -0.00000000       -0.00000002
C           0.89813664        0.00000000        0.00000002
H          -1.66221478        0.84380582        0.02256274
H          -1.66221476       -0.84380584       -0.02256284
H           1.66221477        0.84380582       -0.02256268
H           1.66221477       -0.84380582        0.02256278
6
MD Time 1250.00
C          -0.89445983       -0.00000000       -0.00000002
C           0.89445983        0.00000000        0.00000002
H          -1.66908035        0.84307887        0.03438670
H          -1.66908033       -0.84307889       -0.03438680
H           1.66908034        0.84307888       -0.03438664
H           1.66908034       -0.84307887        0.03438674
6
MD Time 1260.00
C          -0.89054716       -0.00000000       -0.00000002
C           0.89054716        0.00000000        0.00000002
H          -1.67469840        0.84261357        0.04618930
H          -1.67469838       -0.84261358       -0.04618939
H           1.67469840        0.84261357       -0.04618923
H           1.67469839       -0.84261357        0.04618934
6
MD Time 1270.00
C          -0.88641474       -0.00000000       -0.00000002
C           0.88641474        0.00000000        0.00000002
H          -1.67897861        0.84234382        0.05794410
H          -1.67897859       -0.84234384       -0.05794419
H           1.67897860        0.84234383       -0.05794403
H           1.67897860       -0.84234382        0.05794413
6
MD Time 1280.00
C          -0.88207734       -0.00000000       -0.00000002
C           0.88207734        0.00000000        0.00000002
H          -1.68183978        0.84220876        0.06962325
H          -1.68183975       -0.84220878       -0.06962334
H           1.68183977        0.84220877       -0.06962318
H           1.68183976       -0.84220876        0.06962329
6
MD Time 1290.00
C          -0.87754820       -0.00000000       -0.00000002
C           0.87754820        0.00000000        0.00000002
H          -1.68321089        0.84215349        0.08119791
H          -1.68321087       -0.84215351       -0.08119801
H           1.68321088        0.84215350       -0.08119785
H           1.68321088       -0.84215349        0.08119795
6
MD Time 1300.00
C          -0.87283891       -0.00000000       -0.00000002
C           0.87283891        0.00000000        0.00000002
H          -1.68303186        0.84212961        0.09263866
H          -1.68303184       -0.84212963       -0.09263876
H           1.68303186        0.84212962       -0.09263860
H           1.68303185       -0.84212962        0.09263870
6
MD Time 1310.00
C          -0.86795937       -0.00000000       -0.00000002
C           0.86795937        0.00000000        0.00000002
H          -1.68125408        0.84209562        0.10391591
H          -1.68125405       -0.84209564       -0.10391601
H           1.68125407        0.84209563       -0.10391585
H           1.68125406       -0.84209562        0.10391595
6
MD Time 1320.00
C          -0.86291771       -0.00000000       -0.00000002
C           0.86291771        0.00000000        0.00000002
H          -1.67784079        0.84201712        0.11500025
H          -1.67784077       -0.84201714       -0.11500035
H           1.67784079        0.84201713       -0.11500019
H           1.67784078       -0.84201712        0.11500030
6
MD Time 1330.00
C          -0.85772029       -0.00000000       -0.00000002
C           0.85772029        0.00000000        0.00000002
H          -1.67276742        0.84186702        0.12586286
H          -1.67276740       -0.84186704       -0.12586295
H           1.67276742        0.84186704       -0.12586280
H           1.67276741       -0.84186703        0.12586290
6
MD Time 1340.00
C          -0.85237173       -0.00000000       -0.00000002
C           0.85237173        0.00000000        0.00000002
H          -1.66602171        0.84162570        0.13647577
H          -1.66602168       -0.84162572       -0.13647587
H           1.66602171        0.84162571       -0.13647571
H           1.66602169       -0.84162570        0.13647582
6
MD Time 1350.00
C          -0.84687489       -0.00000000       -0.00000002
C           0.84687489        0.00000000        0.00000002
H          -1.65760389        0.84128111        0.14681225
H          -1.65760386       -0.84128113       -0.14681235
H           1.65760389        0.84128112       -0.14681219
H           1.65760387       -0.84128111        0.14681230
6
MD Time 1360.00
C          -0.84123091       -0.00000000       -0.00000002
C           0.84123091        0.00000000        0.00000002
H          -1.64752677        0.84082898        0.15684706
H          -1.64752674       -0.84082900       -0.15684716
H           1.64752677        0.84082900       -0.15684701
H           1.64752675       -0.84082899        0.15684712
6
MD Time 1370.00
C          -0.83543928       -0.00000000       -0.00000002
C           0.83543928        0.00000000        0.00000002
H          -1.63581585        0.84027300        0.16655677
H          -1.63581582       -0.84027302       -0.16655687
H           1.63581585        0.84027301       -0.16655672
H           1.63581583       -0.84027300        0.16655683
6
MD Time 1380.00
C          -0.82949786       -0.00000000       -0.00000002
C           0.82949786        0.00000000        0.00000002
H          -1.62250937        0.83962497        0.17592001
H          -1.62250933       -0.83962499       -0.17592011
H           1.62250936        0.83962499       -0.17591996
H           1.62250934       -0.83962498        0.17592007
6
MD Time 1390.00
C          -0.82340296       -0.00000000       -0.00000002
C           0.82340296        0.00000000        0.00000002
H          -1.60765833        0.83890513        0.18491773
H          -1.60765829       -0.83890515       -0.18491783
H           1.60765832        0.83890515       -0.18491769
H           1.60765830       -0.83890514        0.18491780
6
MD Time 1400.00
C          -0.81714942       -0.00000000       -0.00000002
C           0.81714942        0.00000000        0.00000002
H          -1.59132651        0.83814226        0.19353351
H          -1.59132647       -0.83814228       -0.19353361
H           1.59132651        0.83814228       -0.19353347
H           1.59132649       -0.83814227        0.19353357
6
MD Time 1410.00
C          -0.81073072       -0.00000000       -0.00000002
C           0.81073072        0.00000000        0.00000002
H          -1.57359034        0.83737396        0.20175367
H          -1.57359031       -0.83737398       -0.20175377
H           1.57359034        0.83737398       -0.20175363
H           1.57359032       -0.83737397        0.20175374
6
MD Time 1420.00
C          -0.80413916       -0.00000000       -0.00000002
C           0.80413916        0.00000000        0.00000002
H          -1.55453869        0.83664666        0.20956755
H          -1.55453865       -0.83664668       -0.20956765
H           1.55453868        0.83664668       -0.20956751
H           1.55453866       -0.83664667        0.20956762
6
MD Time 1430.00
C          -0.79736596       -0.00000000       -0.00000002
C           0.79736596        0.00000000        0.00000002
H          -1.53427241        0.83601557        0.21696755
H          -1.53427238       -0.83601559       -0.21696765
H           1.53427241        0.83601560       -0.21696752
H           1.53427239       -0.83601558        0.21696762
6
MD Time 1440.00
C          -0.79040163       -0.00000000       -0.00000002
C           0.79040163        0.00000000        0.00000002
H          -1.51290376        0.83554445        0.22394921
H          -1.51290372       -0.83554447       -0.22394931
H           1.51290376        0.83554448       -0.22394918
H           1.51290374       -0.83554447        0.22394929
6
MD Time 1450.00
C          -0.78323615       -0.00000000       -0.00000002
C           0.78323615        0.00000000        0.00000002
H          -1.49055538        0.83530496        0.23051111
H          -1.49055534       -0.83530498       -0.23051121
H           1.49055537        0.83530498       -0.23051108
H           1.49055535       -0.83530497        0.23051119
6
MD Time 1460.00
C          -0.77585950       -0.00000000       -0.00000002
C           0.77585950        0.00000000        0.00000002
H          -1.46735901        0.83537570        0.23665466
H          -1.46735897       -0.83537572       -0.23665476
H           1.46735901        0.83537572       -0.23665464
H           1.46735898       -0.83537571        0.23665475
6
MD Time 1470.00
C          -0.76826204       -0.00000000       -0.00000002
C           0.76826204        0.00000000        0.00000002
H          -1.44345382        0.83584077        0.24238371
H          -1.44345378       -0.83584080       -0.24238381
H           1.44345382        0.83584080       -0.24238369
H           1.44345379       -0.83584079        0.24238380
6
MD Time 1480.00
C          -0.76043516       -0.00000000       -0.00000002
C           0.76043515        0.00000000        0.00000002
H          -1.41898424        0.83678781        0.24770397
H          -1.41898419       -0.83678783       -0.24770407
H           1.41898424        0.83678784       -0.24770395
H           1.41898421       -0.83678783        0.24770406
6
MD Time 1490.00
C          -0.75237194       -0.00000000       -0.00000002
C           0.75237194        0.00000000        0.00000002
H          -1.39409750        0.83830539        0.25262222
H          -1.39409745       -0.83830541       -0.25262232
H           1.39409750        0.83830541       -0.25262221
H           1.39409747       -0.83830540        0.25262232
6
MD Time 1500.00
C          -0.74406795       -0.00000000       -0.00000002
C           0.74406795        0.00000000        0.00000002
H          -1.36894080        0.84047991        0.25714536
H          -1.36894075       -0.84047993       -0.25714546
H           1.36894080        0.84047993       -0.25714535
H           1.36894077       -0.84047992        0.25714545
6
MD Time 1510.00
C          -0.73552204       -0.00000000       -0.00000002
C           0.73552204        0.00000000        0.00000002
H          -1.34365830        0.84339204        0.26127923
H          -1.34365826       -0.84339206       -0.26127933
H           1.34365830        0.84339207       -0.26127922
H           1.34365827       -0.84339206        0.26127933
6
MD Time 1520.00
C          -0.72673729       -0.00000000       -0.00000002
C           0.72673729        0.00000000        0.00000002
H          -1.31838811        0.84711280        0.26502742
H          -1.31838807       -0.84711282       -0.26502753
H           1.31838811        0.84711282       -0.26502742
H           1.31838808       -0.84711282        0.26502753
6
MD Time 1530.00
C          -0.71772183       -0.00000000       -0.00000002
C           0.71772183        0.00000000        0.00000002
H          -1.29325940        0.85169955        0.26839002
H          -1.29325935       -0.85169957       -0.26839012
H           1.29325939        0.85169957       -0.26839002
H           1.29325937       -0.85169956        0.26839012
6
MD Time 1540.00
C          -0.70848974       -0.00000000       -0.00000002
C           0.70848974        0.00000000        0.00000002
H          -1.26838998        0.85719221        0.27136244
H          -1.26838993       -0.85719223       -0.27136254
H           1.26838997        0.85719223       -0.27136244
H           1.26838994       -0.85719222        0.27136255
6
MD Time 1550.00
C          -0.69906181       -0.00000000       -0.00000002
C           0.69906181        0.00000000        0.00000002
H          -1.24388444        0.86361000        0.27393456
H          -1.24388439       -0.86361002       -0.27393467
H           1.24388443        0.86361002       -0.27393457
H           1.24388440       -0.86361001        0.27393468
6
MD Time 1560.00
C          -0.68946622       -0.00000000       -0.00000002
C           0.68946622        0.00000000        0.00000002
H          -1.21983304        0.87094899        0.27609019
H          -1.21983300       -0.87094901       -0.27609029
H           1.21983303        0.87094900       -0.27609019
H           1.21983301       -0.87094899        0.27609030
6
MD Time 1570.00
C          -0.67973908       -0.00000000       -0.00000002
C           0.67973908        0.00000000        0.00000002
H          -1.19631144        0.87918070        0.27780686
H          -1.19631140       -0.87918072       -0.27780697
H           1.19631143        0.87918071       -0.27780687
H           1.19631140       -0.87918070        0.27780698
6
MD Time 1580.00
C          -0.66992479       -0.00000000       -0.00000002
C           0.66992479        0.00000000        0.00000002
H          -1.17338121        0.88825200        0.27905628
H          -1.17338117       -0.88825202       -0.27905638
H           1.17338120        0.88825202       -0.27905629
H           1.17338117       -0.88825201        0.27905640
6
MD Time 1590.00
C          -0.66007629       -0.00000000       -0.00000002
C           0.66007629        0.00000000        0.00000002
H          -1.15109112        0.89808620        0.27980507
H          -1.15109107       -0.89808622       -0.27980517
H           1.15109111        0.89808621       -0.27980508
H           1.15109108       -0.89808621        0.27980519
6
MD Time 1600.00
C          -0.65025506       -0.00000000       -0.00000002
C           0.65025506        0.00000000        0.00000002
H          -1.12947895        0.90858525        0.28001602
H          -1.12947890       -0.90858527       -0.28001612
H           1.12947893        0.90858526       -0.28001604
H           1.12947890       -0.90858526        0.28001615
6
MD Time 1610.00
C          -0.64053101       -0.00000000       -0.00000002
C           0.64053101        0.00000000        0.00000002
H          -1.10857373        0.91963295        0.27964964
H          -1.10857368       -0.91963297       -0.27964974
H           1.10857371        0.91963296       -0.27964965
H           1.10857369       -0.91963295        0.27964977
6
MD Time 1620.00
C          -0.63098211       -0.00000000       -0.00000002
C           0.63098211        0.00000000        0.00000002
H          -1.08839817        0.93109874        0.27866578
H          -1.08839812       -0.93109876       -0.27866588
H           1.08839815        0.93109875       -0.27866580
H           1.08839812       -0.93109874        0.27866591
6
MD Time 1630.00
C          -0.62169376       -0.00000000       -0.00000002
C           0.62169376        0.00000000        0.00000002
H          -1.06897101        0.94284190        0.27702543
H          -1.06897097       -0.94284192       -0.27702553
H           1.06897099        0.94284191       -0.27702544
H           1.06897097       -0.94284190        0.27702556
6
MD Time 1640.00
C          -0.61275786       -0.00000000       -0.00000002
C           0.61275786        0.00000000        0.00000002
H          -1.05030936        0.95471576        0.27469232
H          -1.05030931       -0.95471578       -0.27469242
H           1.05030934        0.95471577       -0.27469234
H           1.05030931       -0.95471576        0.27469245
6
MD Time 1650.00
C          -0.60427156       -0.00000000       -0.00000002
C           0.60427156        0.00000000        0.00000002
H          -1.03243063        0.96657178        0.27163442
H          -1.03243058       -0.96657179       -0.27163452
H           1.03243061        0.96657178       -0.27163444
H           1.03243058       -0.96657177        0.27163455
6
MD Time 1660.00
C          -0.59633554       -0.00000000       -0.00000002
C           0.59633554        0.00000000        0.00000002
H          -1.01535421        0.97826320        0.26782516
H          -1.01535416       -0.97826322       -0.26782526
H           1.01535419        0.97826321       -0.26782518
H           1.01535416       -0.97826319        0.26782530
6
MD Time 1670.00
C          -0.58905183       -0.00000000       -0.00000002
C           0.58905184        0.00000000        0.00000002
H          -0.99910276        0.98964836        0.26324437
H          -0.99910271       -0.98964838       -0.26324447
H           0.99910273        0.98964837       -0.26324440
H           0.99910271       -0.98964835        0.26324451
6
MD Time 1680.00
C          -0.58252122       -0.00000000       -0.00000002
C           0.58252122        0.00000000        0.00000002
H          -0.98370306        1.00059340        0.25787894
H          -0.98370301       -1.00059341       -0.25787904
H           0.98370303        1.00059340       -0.25787897
H           0.98370300       -1.00059339        0.25787908
6
MD Time 1690.00
C          -0.57684014       -0.00000000       -0.00000002
C           0.57684015        0.00000000        0.00000002
H          -0.96918655        1.01097450        0.25172320
H          -0.96918650       -1.01097451       -0.25172330
H           0.96918652        1.01097451       -0.25172323
H           0.96918649       -1.01097449        0.25172335
6
MD Time 1700.00
C          -0.57209738       -0.00000000       -0.00000002
C           0.57209738        0.00000000        0.00000002
H          -0.95558945        1.02067972        0.24477905
H          -0.95558940       -1.02067973       -0.24477915
H           0.95558942        1.02067972       -0.24477908
H           0.95558940       -1.02067971        0.24477919
6
MD Time 1710.00
C          -0.56837049       -0.00000000       -0.00000002
C           0.56837049        0.00000000        0.00000002
H          -0.94295264        1.02961034        0.23705582
H          -0.94295259       -1.02961035       -0.23705593
H           0.94295261        1.02961034       -0.23705585
H           0.94295258       -1.02961033        0.23705597
6
MD Time 1720.00
C          -0.56572249       -0.00000000       -0.00000002
C           0.56572249        0.00000000        0.00000002
H          -0.93132116        1.03768196        0.22857005
H          -0.93132111       -1.03768197       -0.22857015
H           0.93132113        1.03768196       -0.22857008
H           0.93132111       -1.03768195        0.22857020
6
MD Time 1730.00
C          -0.56419881       -0.00000000       -0.00000002
C           0.56419882        0.00000000        0.00000002
H          -0.92074359        1.04482528        0.21934498
H          -0.92074354       -1.04482528       -0.21934509
H           0.92074356        1.04482528       -0.21934501
H           0.92074353       -1.04482526        0.21934513
6
MD Time 1740.00
C          -0.56382505       -0.00000000       -0.00000002
C           0.56382505        0.00000000        0.00000002
H          -0.91127116        1.05098668        0.20941004
H          -0.91127111       -1.05098669       -0.20941014
H           0.91127113        1.05098669       -0.20941007
H           0.91127110       -1.05098667        0.20941018
6
MD Time 1750.00
C          -0.56460552       -0.00000000       -0.00000002
C           0.56460552        0.00000000        0.00000002
H          -0.90295678        1.05612866        0.19880015
H          -0.90295673       -1.05612867       -0.19880025
H           0.90295675        1.05612867       -0.19880018
H           0.90295673       -1.05612865        0.19880029
6
MD Time 1760.00
C          -0.56652303       -0.00000000       -0.00000002
C           0.56652303        0.00000000        0.00000002
H          -0.89585394        1.06023010        0.18755504
H          -0.89585390       -1.06023011       -0.18755514
H           0.89585391        1.06023011       -0.18755507
H           0.89585389       -1.06023009        0.18755519
6
MD Time 1770.00
C          -0.56953962       -0.00000000       -0.00000002
C           0.56953962        0.00000000        0.00000002
H          -0.89001560        1.06328640        0.17571847
H          -0.89001555       -1.06328640       -0.17571857
H           0.89001556        1.06328641       -0.17571850
H           0.89001555       -1.06328639        0.17571862
6
MD Time 1780.00
C          -0.57359846       -0.00000001       -0.00000002
C           0.57359847        0.00000000        0.00000002
H          -0.88549300        1.06530948        0.16333740
H          -0.88549296       -1.06530948       -0.16333751
H           0.88549297        1.06530949       -0.16333744
H           0.88549295       -1.06530947        0.16333755
6
MD Time 1790.00
C          -0.57862653       -0.00000001       -0.00000002
C           0.57862653        0.00000000        0.00000002
H          -0.88233463        1.06632764        0.15046121
H          -0.88233459       -1.06632765       -0.15046131
H           0.88233460        1.06632766       -0.15046124
H           0.88233458       -1.06632763        0.15046135
6
MD Time 1800.00
C          -0.58453780       -0.00000001       -0.00000002
C           0.58453780        0.00000000        0.00000002
H          -0.88058511        1.06638518        0.13714079
H          -0.88058507       -1.06638518       -0.13714089
H           0.88058508        1.06638520       -0.13714083
H           0.88058507       -1.06638517        0.13714094
6
MD Time 1810.00
C          -0.59123683       -0.00000001       -0.00000002
C           0.59123683        0.00000000        0.00000002
H          -0.88028433        1.06554180        0.12342780
H          -0.88028429       -1.06554181       -0.12342791
H           0.88028430        1.06554182       -0.12342784
H           0.88028428       -1.06554180        0.12342795
6
MD Time 1820.00
C          -0.59862222       -0.00000001       -0.00000002
C           0.59862223        0.00000000        0.00000002
H          -0.88146656        1.06387171        0.10937378
H          -0.88146652       -1.06387172       -0.10937388
H           0.88146653        1.06387174       -0.10937381
H           0.88146652       -1.06387171        0.10937393
6
MD Time 1830.00
C          -0.60658991       -0.00000001       -0.00000002
C           0.60658991        0.00000000        0.00000002
H          -0.88415984        1.06146237        0.09502937
H          -0.88415980       -1.06146238       -0.09502948
H           0.88415981        1.06146240       -0.09502941
H           0.88415980       -1.06146238        0.09502952
6
MD Time 1840.00
C          -0.61503601       -0.00000001       -0.00000002
C           0.61503601        0.00000000        0.00000002
H          -0.88838542        1.05841281        0.08044363
H          -0.88838539       -1.05841283       -0.08044373
H           0.88838539        1.05841284       -0.08044366
H           0.88838539       -1.05841282        0.08044378
6
MD Time 1850.00
C          -0.62385922       -0.00000001       -0.00000002
C           0.62385922        0.00000000        0.00000002
H          -0.89415743        1.05483151        0.06566328
H          -0.89415740       -1.05483152       -0.06566339
H           0.89415741        1.05483154       -0.06566331
H           0.89415740       -1.05483152        0.06566343
6
MD Time 1860.00
C          -0.63296264       -0.00000001       -0.00000002
C           0.63296264        0.00000001        0.00000002
H          -0.90148262        1.05083373        0.05073221
H          -0.90148259       -1.05083375       -0.05073232
H           0.90148259        1.05083376       -0.05073224
H           0.90148259       -1.05083375        0.05073236
6
MD Time 1870.00
C          -0.64225516       -0.00000001       -0.00000002
C           0.64225516        0.00000001        0.00000002
H          -0.91036024        1.04653844        0.03569100
H          -0.91036021       -1.04653845       -0.03569110
H           0.91036022        1.04653847       -0.03569103
H           0.91036021       -1.04653846        0.03569114
6
MD Time 1880.00
C          -0.65165238       -0.00000001       -0.00000002
C           0.65165238        0.00000001        0.00000002
H          -0.92078201        1.04206464        0.02057659
H          -0.92078198       -1.04206466       -0.02057669
H           0.92078198        1.04206468       -0.02057661
H           0.92078198       -1.04206466        0.02057673
6
MD Time 1890.00
C          -0.66107714       -0.00000001       -0.00000002
C           0.66107715        0.00000001        0.00000002
H          -0.93273202        1.03752745        0.00542220
H          -0.93273199       -1.03752747       -0.00542231
H           0.93273199        1.03752748       -0.00542223
H           0.93273200       -1.03752747        0.00542235
6
MD Time 1900.00
C          -0.67045982       -0.00000001       -0.00000003
C           0.67045982        0.00000001        0.00000002
H          -0.94618669        1.03303381       -0.00974257
H          -0.94618667       -1.03303383        0.00974246
H           0.94618667        1.03303385        0.00974254
H           0.94618667       -1.03303383       -0.00974242
6
MD Time 1910.00
C          -0.67973837       -0.00000001       -0.00000003
C           0.67973837        0.00000001        0.00000002
H          -0.96111455        1.02867828       -0.02489145
H          -0.96111453       -1.02867830        0.02489134
H           0.96111452        1.02867832        0.02489143
H           0.96111453       -1.02867831       -0.02489131
6
MD Time 1920.00
C          -0.68885827       -0.00000001       -0.00000003
C           0.68885827        0.00000001        0.00000003
H          -0.97747592        1.02453898       -0.04000098
H          -0.97747590       -1.02453901        0.04000087
H           0.97747590        1.02453902        0.04000096
H           0.97747591       -1.02453901       -0.04000084
6
MD Time 1930.00
C          -0.69777230       -0.00000001       -0.00000003
C           0.69777230        0.00000001        0.00000003
H          -0.99522248        1.02067407       -0.05504969
H          -0.99522246       -1.02067409        0.05504957
H           0.99522246        1.02067410        0.05504967
H           0.99522247       -1.02067409       -0.05504954
6
MD Time 1940.00
C          -0.70644036       -0.00000001       -0.00000003
C           0.70644036        0.00000001        0.00000003
H          -1.01429668        1.01711898       -0.07001721
H          -1.01429666       -1.01711901        0.07001709
H           1.01429665        1.01711902        0.07001719
H           1.01429667       -1.01711901       -0.07001707
6
MD Time 1950.00
C          -0.71482914       -0.00000001       -0.00000003
C           0.71482914        0.00000001        0.00000003
H          -1.03463115        1.01388479       -0.08488327
H          -1.03463113       -1.01388481        0.08488316
H           1.03463112        1.01388482        0.08488326
H           1.03463114       -1.01388481       -0.08488313
6
MD Time 1960.00
C          -0.72291185       -0.00000001       -0.00000003
C           0.72291185        0.00000001        0.00000003
H          -1.05614815        1.01095769       -0.09962665
H          -1.05614813       -1.01095772        0.09962653
H           1.05614812        1.01095773        0.09962664
H           1.05614814       -1.01095772       -0.09962651
6
MD Time 1970.00
C          -0.73066782       -0.00000001       -0.00000003
C           0.73066783        0.00000001        0.00000003
H          -1.07875918        1.00829988       -0.11422420
H          -1.07875917       -1.00829990        0.11422408
H           1.07875915        1.00829991        0.11422419
H           1.07875917       -1.00829990       -0.11422406
6
MD Time 1980.00
C          -0.73808220       -0.00000001       -0.00000003
C           0.73808220        0.00000001        0.00000003
H          -1.10236489        1.00585155       -0.12865008
H          -1.10236488       -1.00585158        0.12864995
H           1.10236486        1.00585158        0.12865007
H           1.10236488       -1.00585158       -0.12864994
6
MD Time 1990.00
C          -0.74514543       -0.00000001       -0.00000003
C           0.74514544        0.00000001        0.00000003
H          -1.12685535        1.00353412       -0.14287521
H          -1.12685535       -1.00353415        0.14287509
H           1.12685533        1.00353414        0.14287521
H           1.12685535       -1.00353414       -0.14287507
6
MD Time 2000.00
C          -0.75185286       -0.00000001       -0.00000003
C           0.75185286        0.00000001        0.00000003
H          -1.15211078        1.00125409       -0.15686705
H          -1.15211077       -1.00125412        0.15686692
H           1.15211075        1.00125412        0.15686705
H           1.15211078       -1.00125411       -0.15686691
6
MD Time 2010.00
C          -0.75820416       -0.00000001       -0.00000003
C           0.75820416        0.00000001        0.00000003
H          -1.17800262        0.99890759       -0.17058959
H          -1.17800262       -0.99890762        0.17058946
H           1.17800260        0.99890761        0.17058960
H           1.17800262       -0.99890761       -0.17058946
6
MD Time 2020.00
C          -0.76420282       -0.00000001       -0.00000003
C           0.76420282        0.00000001        0.00000003
H          -1.20439512        0.99638494       -0.18400378
H          -1.20439511       -0.99638497        0.18400365
H           1.20439509        0.99638496        0.18400378
H           1.20439512       -0.99638495       -0.18400364
6
MD Time 2030.00
C          -0.76985556       -0.00000001       -0.00000003
C           0.76985556        0.00000001        0.00000003
H          -1.23114702        0.99357517       -0.19706800
H          -1.23114701       -0.99357521        0.19706787
H           1.23114699        0.99357519        0.19706802
H           1.23114702       -0.99357519       -0.19706787
6
MD Time 2040.00
C          -0.77517177       -0.00000001       -0.00000003
C           0.77517177        0.00000001        0.00000003
H          -1.25811352        0.99037018       -0.20973891
H          -1.25811352       -0.99037021        0.20973877
H           1.25811350        0.99037020        0.20973892
H           1.25811353       -0.99037019       -0.20973878
6
MD Time 2050.00
C          -0.78016294       -0.00000001       -0.00000003
C           0.78016294        0.00000001        0.00000003
H          -1.28514824        0.98666828       -0.22197219
H          -1.28514823       -0.98666832        0.22197206
H           1.28514821        0.98666830        0.22197221
H           1.28514824       -0.98666829       -0.22197206
6
MD Time 2060.00
C          -0.78484214       -0.00000001       -0.00000003
C           0.78484215        0.00000001        0.00000003
H          -1.31210504        0.98237721       -0.23372353
H          -1.31210504       -0.98237724        0.23372339
H           1.31210502        0.98237722        0.23372355
H           1.31210505       -0.98237721       -0.23372340
6
MD Time 2070.00
C          -0.78922354       -0.00000001       -0.00000003
C           0.78922354        0.00000001        0.00000003
H          -1.33883983        0.97741638       -0.24494940
H          -1.33883983       -0.97741642        0.24494925
H           1.33883980        0.97741640        0.24494942
H           1.33883984       -0.97741639       -0.24494927
6
MD Time 2080.00
C          -0.79332194       -0.00000001       -0.00000003
C           0.79332194        0.00000001        0.00000003
H          -1.36521201        0.97171865       -0.25560792
H          -1.36521202       -0.97171868        0.25560778
H           1.36521199        0.97171866        0.25560795
H           1.36521202       -0.97171865       -0.25560779
6
MD Time 2090.00
C          -0.79715242       -0.00000001       -0.00000003
C           0.79715242        0.00000001        0.00000003
H          -1.39108586        0.96523134       -0.26565957
H          -1.39108587       -0.96523137        0.26565942
H           1.39108584        0.96523135        0.26565960
H           1.39108588       -0.96523134       -0.26565945
6
MD Time 2100.00
C          -0.80072999       -0.00000001       -0.00000003
C           0.80072999        0.00000001        0.00000003
H          -1.41633158        0.95791695       -0.27506781
H          -1.41633158       -0.95791698        0.27506766
H           1.41633155        0.95791696        0.27506784
H           1.41633159       -0.95791694       -0.27506769
6
MD Time 2110.00
C          -0.80406932       -0.00000001       -0.00000003
C           0.80406932        0.00000001        0.00000003
H          -1.44082618        0.94975340       -0.28379961
H          -1.44082619       -0.94975344        0.28379946
H           1.44082616        0.94975341        0.28379965
H           1.44082620       -0.94975340       -0.28379949
6
MD Time 2120.00
C          -0.80718447       -0.00000001       -0.00000003
C           0.80718447        0.00000001        0.00000003
H          -1.46445429        0.94073404       -0.29182592
H          -1.46445429       -0.94073408        0.29182577
H           1.46445426        0.94073405        0.29182597
H           1.46445430       -0.94073403       -0.29182581
6
MD Time 2130.00
C          -0.81008870       -0.00000001       -0.00000003
C           0.81008870        0.00000001        0.00000003
H          -1.48710865        0.93086738       -0.29912202
H          -1.48710866       -0.93086741        0.29912187
H           1.48710863        0.93086739        0.29912206
H           1.48710867       -0.93086737       -0.29912190
6
MD Time 2140.00
C          -0.81279432       -0.00000001       -0.00000003
C           0.81279432        0.00000001        0.00000003
H          -1.50869074        0.92017679       -0.30566780
H          -1.50869075       -0.92017682        0.30566765
H           1.50869072        0.92017679        0.30566785
H           1.50869076       -0.92017678       -0.30566769
6
MD Time 2150.00
C          -0.81531249       -0.00000001       -0.00000003
C           0.81531249        0.00000001        0.00000003
H          -1.52911113        0.90870005       -0.31144808
H          -1.52911114       -0.90870009        0.31144792
H           1.52911112        0.90870006        0.31144813
H           1.52911115       -0.90870004       -0.31144797
6
MD Time 2160.00
C          -0.81765312       -0.00000001       -0.00000003
C           0.81765312        0.00000001        0.00000003
H          -1.54828994        0.89648892       -0.31645273
H          -1.54828995       -0.89648895        0.31645257
H           1.54828993        0.89648892        0.31645279
H           1.54828996       -0.89648890       -0.31645262
6
MD Time 2170.00
C          -0.81982474       -0.00000001       -0.00000003
C           0.81982474        0.00000001        0.00000003
H          -1.56615722        0.88360862       -0.32067692
H          -1.56615723       -0.88360866        0.32067676
H           1.56615721        0.88360862        0.32067698
H           1.56615724       -0.88360861       -0.32067681
6
MD Time 2180.00
C          -0.82183437       -0.00000001       -0.00000003
C           0.82183437        0.00000001        0.00000003
H          -1.58265335        0.87013743       -0.32412122
H          -1.58265335       -0.87013747        0.32412106
H           1.58265333        0.87013744        0.32412129
H           1.58265337       -0.87013742       -0.32412112
6
MD Time 2190.00
C          -0.82368743       -0.00000001       -0.00000003
C           0.82368743        0.00000001        0.00000003
H          -1.59772942        0.85616618       -0.32679175
H          -1.59772943       -0.85616622        0.32679160
H           1.59772941        0.85616618        0.32679182
H           1.59772944       -0.85616617       -0.32679165
6
MD Time 2200.00
C          -0.82538763       -0.00000001       -0.00000003
C           0.82538763        0.00000001        0.00000003
H          -1.61134768        0.84179777       -0.32870024
H          -1.61134768       -0.84179781        0.32870008
H           1.61134766        0.84179777        0.32870032
H           1.61134770       -0.84179776       -0.32870015
6
MD Time 2210.00
C          -0.82693689       -0.00000001       -0.00000003
C           0.82693689        0.00000001        0.00000003
H          -1.62348186        0.82714669       -0.32986409
H          -1.62348187       -0.82714673        0.32986393
H           1.62348185        0.82714670        0.32986416
H           1.62348188       -0.82714668       -0.32986399
6
MD Time 2220.00
C          -0.82833521       -0.00000001       -0.00000003
C           0.82833521        0.00000001        0.00000003
H          -1.63411763        0.81233844       -0.33030633
H          -1.63411763       -0.81233848        0.33030617
H           1.63411762        0.81233844        0.33030641
H           1.63411765       -0.81233842       -0.33030624
6
MD Time 2230.00
C          -0.82958068       -0.00000001       -0.00000003
C           0.82958068        0.00000001        0.00000003
H          -1.64325283        0.79750885       -0.33005560
H          -1.64325283       -0.79750889        0.33005545
H           1.64325282        0.79750885        0.33005569
H           1.64325285       -0.79750883       -0.33005551
6
MD Time 2240.00
C          -0.83066932       -0.00000001       -0.00000003
C           0.83066932        0.00000001        0.00000003
H          -1.65089776        0.78280329       -0.32914593
H          -1.65089776       -0.78280333        0.32914577
H           1.65089775        0.78280329        0.32914601
H           1.65089778       -0.78280328       -0.32914584
6
MD Time 2250.00
C          -0.83159517       -0.00000001       -0.00000003
C           0.83159517        0.00000001        0.00000003
H          -1.65707526        0.76837570       -0.32761644
H          -1.65707526       -0.76837574        0.32761628
H           1.65707525        0.76837570        0.32761653
H           1.65707528       -0.76837568       -0.32761636
6
MD Time 2260.00
C          -0.83235018       -0.00000001       -0.00000003
C           0.83235018        0.00000001        0.00000003
H          -1.66182062        0.75438730       -0.32551100
H          -1.66182062       -0.75438735        0.32551084
H           1.66182061        0.75438730        0.32551109
H           1.66182064       -0.75438729       -0.32551092
6
MD Time 2270.00
C          -0.83292438       -0.00000001       -0.00000003
C           0.83292438        0.00000001        0.00000003
H          -1.66518125        0.74100517       -0.32287756
H          -1.66518125       -0.74100521        0.32287740
H           1.66518125        0.74100517        0.32287765
H           1.66518127       -0.74100515       -0.32287748
6
MD Time 2280.00
C          -0.83330590       -0.00000001       -0.00000003
C           0.83330589        0.00000001        0.00000003
H          -1.66721608        0.72840033       -0.31976745
H          -1.66721608       -0.72840037        0.31976729
H           1.66721608        0.72840032        0.31976755
H           1.66721610       -0.72840031       -0.31976738
6
MD Time 2290.00
C          -0.83348117       -0.00000001       -0.00000003
C           0.83348117        0.00000001        0.00000003
H          -1.66799453        0.71674561       -0.31623442
H          -1.66799452       -0.71674566        0.31623427
H           1.66799453        0.71674561        0.31623453
H           1.66799455       -0.71674560       -0.31623435
6
MD Time 2300.00
C          -0.83343521       -0.00000001       -0.00000003
C           0.83343521        0.00000001        0.00000003
H          -1.66759509        0.70621308       -0.31233350
H          -1.66759508       -0.70621313        0.31233334
H           1.66759509        0.70621308        0.31233361
H           1.66759511       -0.70621307       -0.31233343
6
MD Time 2310.00
C          -0.83315192       -0.00000001       -0.00000003
C           0.83315191        0.00000001        0.00000003
H          -1.66610351        0.69697104       -0.30811965
H          -1.66610350       -0.69697109        0.30811949
H           1.66610351        0.69697104        0.30811976
H           1.66610353       -0.69697103       -0.30811959
6
MD Time 2320.00
C          -0.83261449       -0.00000001       -0.00000003
C           0.83261448        0.00000001        0.00000003
H          -1.66361040        0.68918074       -0.30364630
H          -1.66361039       -0.68918079        0.30364615
H           1.66361041        0.68918073        0.30364642
H           1.66361043       -0.68918073       -0.30364625
6
MD Time 2330.00
C          -0.83180594       -0.00000001       -0.00000003
C           0.83180594        0.00000001        0.00000003
H          -1.66020850        0.68299271       -0.29896378
H          -1.66020849       -0.68299277        0.29896362
H           1.66020851        0.68299270        0.29896390
H           1.66020853       -0.68299270       -0.29896373
6
MD Time 2340.00
C          -0.83070970       -0.00000000       -0.00000003
C           0.83070969        0.00000001        0.00000003
H          -1.65598947        0.67854290       -0.29411762
H          -1.65598946       -0.67854296        0.29411747
H           1.65598948        0.67854289        0.29411775
H           1.65598950       -0.67854289       -0.29411758
6
MD Time 2350.00
C          -0.82931016       -0.00000000       -0.00000003
C           0.82931016        0.00000001        0.00000003
H          -1.65104047        0.67594869       -0.28914704
H          -1.65104046       -0.67594875        0.28914688
H           1.65104048        0.67594867        0.28914717
H           1.65104050       -0.67594867       -0.28914700
6
MD Time 2360.00
C          -0.82759341       -0.00000000       -0.00000003
C           0.82759341        0.00000001        0.00000003
H          -1.64544063        0.67530495       -0.28408344
H          -1.64544062       -0.67530501        0.28408328
H           1.64544064        0.67530493        0.28408357
H           1.64544066       -0.67530493       -0.28408340
6
MD Time 2370.00
C          -0.82554782       -0.00000000       -0.00000003
C           0.82554782        0.00000001        0.00000003
H          -1.63925764        0.67668042       -0.27894928
H          -1.63925762       -0.67668048        0.27894912
H           1.63925765        0.67668040        0.27894942
H           1.63925766       -0.67668040       -0.27894924
6
MD Time 2380.00
C          -0.82316462       -0.00000000       -0.00000003
C           0.82316461        0.00000001        0.00000003
H          -1.63254471        0.68011449       -0.27375725
H          -1.63254469       -0.68011456        0.27375710
H           1.63254473        0.68011446        0.27375739
H           1.63254474       -0.68011447       -0.27375722
6
MD Time 2390.00
C          -0.82043837       -0.00000000       -0.00000003
C           0.82043836        0.00000001        0.00000003
H          -1.62533820        0.68561473       -0.26850995
H          -1.62533818       -0.68561480        0.26850979
H           1.62533822        0.68561470        0.26851010
H           1.62533823       -0.68561471       -0.26850992
6
MD Time 2400.00
C          -0.81736730       -0.00000000       -0.00000003
C           0.81736730        0.00000001        0.00000003
H          -1.61765609        0.69315529       -0.26320001
H          -1.61765607       -0.69315536        0.26319986
H           1.61765611        0.69315525        0.26320016
H           1.61765612       -0.69315527       -0.26319999
6
MD Time 2410.00
C          -0.81395346       -0.00000000       -0.00000003
C           0.81395346        0.00000001        0.00000002
H          -1.60949750        0.70267635       -0.25781082
H          -1.60949747       -0.70267642        0.25781066
H           1.60949752        0.70267631        0.25781098
H           1.60949752       -0.70267633       -0.25781080
6
MD Time 2420.00
C          -0.81020265       -0.00000000       -0.00000003
C           0.81020264        0.00000001        0.00000002
H          -1.60084331        0.71408469       -0.25231764
H          -1.60084328       -0.71408476        0.25231749
H           1.60084333        0.71408464        0.25231781
H           1.60084333       -0.71408466       -0.25231763
6
MD Time 2430.00
C          -0.80612423       -0.00000000       -0.00000003
C           0.80612422        0.00000001        0.00000002
H          -1.59165793        0.72725537       -0.24668920
H          -1.59165790       -0.72725544        0.24668904
H           1.59165794        0.72725532        0.24668937
H           1.59165794       -0.72725534       -0.24668919
6
MD Time 2440.00
C          -0.80173073       -0.00000000       -0.00000003
C           0.80173073        0.00000001        0.00000002
H          -1.58189193        0.74203449       -0.24088946
H          -1.58189190       -0.74203456        0.24088931
H           1.58189195        0.74203443        0.24088964
H           1.58189195       -0.74203446       -0.24088946
6
MD Time 2450.00
C          -0.79703736       -0.00000000       -0.00000002
C           0.79703735        0.00000001        0.00000002
H          -1.57148548        0.75824282       -0.23487967
H          -1.57148544       -0.75824289        0.23487952
H           1.57148550        0.75824275        0.23487985
H           1.57148549       -0.75824278       -0.23487968
6
MD Time 2460.00
C          -0.79206139       -0.00000000       -0.00000002
C           0.79206138        0.00000001        0.00000002
H          -1.56037213        0.77568017       -0.22862027
H          -1.56037209       -0.77568025        0.22862012
H           1.56037215        0.77568010        0.22862046
H           1.56037214       -0.77568013       -0.22862028
6
MD Time 2470.00
C          -0.78682158       -0.00000000       -0.00000002
C           0.78682157        0.00000001        0.00000002
H          -1.54848282        0.79413020       -0.22207280
H          -1.54848277       -0.79413028        0.22207264
H           1.54848283        0.79413013        0.22207299
H           1.54848282       -0.79413016       -0.22207281
6
MD Time 2480.00
C          -0.78133759       -0.00000000       -0.00000002
C           0.78133758        0.00000001        0.00000002
H          -1.53574966        0.81336546       -0.21520152
H          -1.53574961       -0.81336554        0.21520137
H           1.53574967        0.81336538        0.21520172
H           1.53574966       -0.81336542       -0.21520155
6
MD Time 2490.00
C          -0.77562945       -0.00000000       -0.00000002
C           0.77562944        0.00000001        0.00000002
H          -1.52210942        0.83315238       -0.20797484
H          -1.52210937       -0.83315246        0.20797469
H           1.52210943        0.83315231        0.20797505
H           1.52210942       -0.83315234       -0.20797487
6
MD Time 2500.00
C          -0.76971715       -0.00000000       -0.00000002
C           0.76971714        0.00000001        0.00000002
H          -1.50750644        0.85325605       -0.20036627
H          -1.50750639       -0.85325613        0.20036612
H           1.50750646        0.85325597        0.20036649
H           1.50750644       -0.85325601       -0.20036631
6
MD Time 2510.00
C          -0.76362032       -0.00000000       -0.00000002
C           0.76362031        0.00000001        0.00000002
H          -1.49189496        0.87344450       -0.19235523
H          -1.49189491       -0.87344458        0.19235509
H           1.49189498        0.87344442        0.19235545
H           1.49189496       -0.87344445       -0.19235527
6
MD Time 2520.00
C          -0.75735800       -0.00000000       -0.00000002
C           0.75735800        0.00000001        0.00000002
H          -1.47524082        0.89349247       -0.18392741
H          -1.47524076       -0.89349255        0.18392726
H           1.47524083        0.89349239        0.18392763
H           1.47524081       -0.89349243       -0.18392746
6
MD Time 2530.00
C          -0.75094859       -0.00000000       -0.00000002
C           0.75094859        0.00000001        0.00000002
H          -1.45752258        0.91318459       -0.17507492
H          -1.45752252       -0.91318468        0.17507477
H           1.45752260        0.91318451        0.17507515
H           1.45752257       -0.91318455       -0.17507497
6
MD Time 2540.00
C          -0.74440978       -0.00000000       -0.00000002
C           0.74440978        0.00000001        0.00000002
H          -1.43873219        0.93231787       -0.16579623
H          -1.43873212       -0.93231796        0.16579608
H           1.43873220        0.93231780        0.16579646
H           1.43873217       -0.93231784       -0.16579628
6
MD Time 2550.00
C          -0.73775867       -0.00000000       -0.00000002
C           0.73775866        0.00000001        0.00000002
H          -1.41887517        0.95070366       -0.15609590
H          -1.41887510       -0.95070374        0.15609575
H           1.41887518        0.95070358        0.15609613
H           1.41887515       -0.95070362       -0.15609596
6
MD Time 2560.00
C          -0.73101188       -0.00000000       -0.00000002
C           0.73101188        0.00000001        0.00000002
H          -1.39797061        0.96816907       -0.14598425
H          -1.39797053       -0.96816915        0.14598410
H           1.39797062        0.96816900        0.14598448
H           1.39797058       -0.96816904       -0.14598431
6
MD Time 2570.00
C          -0.72418577       -0.00000000       -0.00000002
C           0.72418577        0.00000001        0.00000002
H          -1.37605082        0.98455806       -0.13547689
H          -1.37605074       -0.98455814        0.13547675
H           1.37605083        0.98455800        0.13547713
H           1.37605079       -0.98455803       -0.13547696
6
MD Time 2580.00
C          -0.71729663       -0.00000000       -0.00000002
C           0.71729662        0.00000001        0.00000001
H          -1.35316101        0.99973216       -0.12459427
H          -1.35316093       -0.99973223        0.12459413
H           1.35316102        0.99973209        0.12459451
H           1.35316098       -0.99973213       -0.12459434
6
MD Time 2590.00
C          -0.71036090       -0.00000000       -0.00000002
C           0.71036090        0.00000001        0.00000001
H          -1.32935880        1.01357096       -0.11336116
H          -1.32935871       -1.01357104        0.11336103
H           1.32935881        1.01357090        0.11336141
H           1.32935875       -1.01357094       -0.11336124
6
MD Time 2600.00
C          -0.70339547       -0.00000000       -0.00000002
C           0.70339547        0.00000001        0.00000001
H          -1.30471373        1.02597262       -0.10180616
H          -1.30471364       -1.02597270        0.10180603
H           1.30471374        1.02597257        0.10180641
H           1.30471369       -1.02597260       -0.10180624
6
MD Time 2610.00
C          -0.69641787       -0.00000000       -0.00000002
C           0.69641787        0.00000001        0.00000001
H          -1.27930689        1.03685420       -0.08996119
H          -1.27930680       -1.03685427        0.08996106
H           1.27930690        1.03685415        0.08996143
H           1.27930684       -1.03685418       -0.08996127
6
MD Time 2620.00
C          -0.68944655       -0.00000000       -0.00000002
C           0.68944654        0.00000001        0.00000001
H          -1.25323044        1.04615206       -0.07786099
H          -1.25323034       -1.04615213        0.07786086
H           1.25323045        1.04615202        0.07786123
H           1.25323038       -1.04615205       -0.07786107
6
MD Time 2630.00
C          -0.68250104       -0.00000000       -0.00000001
C           0.68250103        0.00000001        0.00000001
H          -1.22658728        1.05382237       -0.06554262
H          -1.22658718       -1.05382244        0.06554249
H           1.22658728        1.05382234        0.06554285
H           1.22658722       -1.05382237       -0.06554270
6
MD Time 2640.00
C          -0.67560221       -0.00000000       -0.00000001
C           0.67560221        0.00000001        0.00000001
H          -1.19949070        1.05984165       -0.05304493
H          -1.19949060       -1.05984172        0.05304480
H           1.19949070        1.05984163        0.05304516
H           1.19949064       -1.05984165       -0.05304501
6
MD Time 2650.00
C          -0.66877243       -0.00000000       -0.00000001
C           0.66877242        0.00000001        0.00000001
H          -1.17206404        1.06420744       -0.04040803
H          -1.17206394       -1.06420750        0.04040791
H           1.17206404        1.06420743        0.04040826
H           1.17206397       -1.06420745       -0.04040812
6
MD Time 2660.00
C          -0.66203563       -0.00000000       -0.00000001
C           0.66203563        0.00000001        0.00000001
H          -1.14444033        1.06693904       -0.02767271
H          -1.14444022       -1.06693909        0.02767259
H           1.14444033        1.06693903        0.02767294
H           1.14444026       -1.06693905       -0.02767279
6
MD Time 2670.00
C          -0.65541751       -0.00000000       -0.00000001
C           0.65541751        0.00000001        0.00000001
H          -1.11676190        1.06807832       -0.01487979
H          -1.11676180       -1.06807837        0.01487968
H           1.11676190        1.06807832        0.01488002
H           1.11676183       -1.06807833       -0.01487988
6
MD Time 2680.00
C          -0.64894549       -0.00000000       -0.00000001
C           0.64894548        0.00000001        0.00000001
H          -1.08917990        1.06769053       -0.00206951
H          -1.08917980       -1.06769058        0.00206940
H           1.08917990        1.06769054        0.00206973
H           1.08917983       -1.06769055       -0.00206959
6
MD Time 2690.00
C          -0.64264874       -0.00000000       -0.00000001
C           0.64264874        0.00000001        0.00000001
H          -1.06185369        1.06586499        0.01071928
H          -1.06185358       -1.06586504       -0.01071938
H           1.06185368        1.06586501       -0.01071906
H           1.06185361       -1.06586502        0.01071919
6
MD Time 2700.00
C          -0.63655813       -0.00000000       -0.00000001
C           0.63655813        0.00000001        0.00000001
H          -1.03495005        1.06271562        0.02344981
H          -1.03494995       -1.06271567       -0.02344991
H           1.03495005        1.06271565       -0.02344960
H           1.03494997       -1.06271566        0.02344972
6
MD Time 2710.00
C          -0.63070605       -0.00000000       -0.00000001
C           0.63070605        0.00000001        0.00000001
H          -1.00864226        1.05838105        0.03608826
H          -1.00864216       -1.05838108       -0.03608836
H           1.00864226        1.05838108       -0.03608805
H           1.00864218       -1.05838108        0.03608817
6
MD Time 2720.00
C          -0.62512624       -0.00000000       -0.00000001
C           0.62512623        0.00000001        0.00000001
H          -0.98310879        1.05302420        0.04860456
H          -0.98310869       -1.05302424       -0.04860466
H           0.98310878        1.05302425       -0.04860436
H           0.98310871       -1.05302425        0.04860448
6
MD Time 2730.00
C          -0.61985345       -0.00000000       -0.00000001
C           0.61985345        0.00000001        0.00000001
H          -0.95853171        1.04683122        0.06097320
H          -0.95853161       -1.04683125       -0.06097329
H           0.95853171        1.04683127       -0.06097301
H           0.95853163       -1.04683127        0.06097312
6
MD Time 2740.00
C          -0.61492312       -0.00000000       -0.00000001
C           0.61492312        0.00000001        0.00000001
H          -0.93509473        1.04000929        0.07317389
H          -0.93509463       -1.04000932       -0.07317397
H           0.93509472        1.04000935       -0.07317370
H           0.93509464       -1.04000935        0.07317381
6
MD Time 2750.00
C          -0.61037087       -0.00000000       -0.00000001
C           0.61037087        0.00000001        0.00000001
H          -0.91298071        1.03278340        0.08519212
H          -0.91298061       -1.03278343       -0.08519221
H           0.91298069        1.03278347       -0.08519195
H           0.91298062       -1.03278346        0.08519205
6
MD Time 2760.00
C          -0.60623196       -0.00000000       -0.00000001
C           0.60623196        0.00000001        0.00000001
H          -0.89236888        1.02539170        0.09701945
H          -0.89236878       -1.02539172       -0.09701952
H           0.89236886        1.02539177       -0.09701928
H           0.89236879       -1.02539176        0.09701937
6
MD Time 2770.00
C          -0.60254066       -0.00000000       -0.00000001
C           0.60254066        0.00000001        0.00000001
H          -0.87343158        1.01807947        0.10865333
H          -0.87343149       -1.01807949       -0.10865341
H           0.87343156        1.01807954       -0.10865317
H           0.87343149       -1.01807953        0.10865326
6
MD Time 2780.00
C          -0.59932956       -0.00000000       -0.00000001
C           0.59932956        0.00000000        0.00000001
H          -0.85633084        1.01109167        0.12009665
H          -0.85633076       -1.01109169       -0.12009672
H           0.85633082        1.01109175       -0.12009650
H           0.85633075       -1.01109174        0.12009659
6
MD Time 2790.00
C          -0.59662878       -0.00000000       -0.00000001
C           0.59662878        0.00000000        0.00000001
H          -0.84121483        1.00466438        0.13135661
H          -0.84121475       -1.00466439       -0.13135668
H           0.84121481        1.00466446       -0.13135647
H           0.84121474       -1.00466445        0.13135655
6
MD Time 2800.00
C          -0.59446521       -0.00000000       -0.00000001
C           0.59446521        0.00000000        0.00000001
H          -0.82821448        0.99901542        0.14244318
H          -0.82821440       -0.99901543       -0.14244325
H           0.82821445        0.99901550       -0.14244305
H           0.82821439       -0.99901549        0.14244312
6
MD Time 2810.00
C          -0.59286170       -0.00000000       -0.00000001
C           0.59286170        0.00000000        0.00000001
H          -0.81744043        0.99433491        0.15336702
H          -0.81744035       -0.99433492       -0.15336708
H           0.81744040        0.99433499       -0.15336689
H           0.81744034       -0.99433498        0.15336696
6
MD Time 2820.00
C          -0.59183634       -0.00000000       -0.00000001
C           0.59183634        0.00000000        0.00000001
H          -0.80898052        0.99077641        0.16413709
H          -0.80898045       -0.99077641       -0.16413715
H           0.80898048        0.99077649       -0.16413697
H           0.80898043       -0.99077647        0.16413704
6
MD Time 2830.00
C          -0.59140176       -0.00000000       -0.00000001
C           0.59140177        0.00000000        0.00000001
H          -0.80289798        0.98844949        0.17475818
H          -0.80289792       -0.98844950       -0.17475824
H           0.80289794        0.98844957       -0.17475807
H           0.80289789       -0.98844955        0.17475813
6
MD Time 2840.00
C          -0.59156464       -0.00000000       -0.00000001
C           0.59156465        0.00000000        0.00000001
H          -0.79923038        0.98741455        0.18522846
H          -0.79923032       -0.98741456       -0.18522851
H           0.79923033        0.98741463       -0.18522836
H           0.79923029       -0.98741462        0.18522842
6
MD Time 2850.00
C          -0.59232530       -0.00000000       -0.00000001
C           0.59232531        0.00000000        0.00000001
H          -0.79798940        0.98768030        0.19553751
H          -0.79798934       -0.98768031       -0.19553756
H           0.79798934        0.98768038       -0.19553742
H           0.79798931       -0.98768036        0.19553748
6
MD Time 2860.00
C          -0.59367759       -0.00000000       -0.00000001
C           0.59367760        0.00000000        0.00000001
H          -0.79916140        0.98920424        0.20566495
H          -0.79916135       -0.98920425       -0.20566500
H           0.79916134        0.98920431       -0.20566486
H           0.79916131       -0.98920429        0.20566491
6
MD Time 2870.00
C          -0.59560893       -0.00000000       -0.00000001
C           0.59560893        0.00000000        0.00000001
H          -0.80270869        0.99189599        0.21557980
H          -0.80270865       -0.99189600       -0.21557985
H           0.80270863        0.99189605       -0.21557972
H           0.80270860       -0.99189604        0.21557977
6
MD Time 2880.00
C          -0.59810057       -0.00000000       -0.00000001
C           0.59810058        0.00000000        0.00000001
H          -0.80857140        0.99562310        0.22524077
H          -0.80857136       -0.99562311       -0.22524081
H           0.80857133        0.99562316       -0.22524069
H           0.80857131       -0.99562314        0.22524074
6
MD Time 2890.00
C          -0.60112817       -0.00000000       -0.00000001
C           0.60112818        0.00000000        0.00000001
H          -0.81666975        1.00021860        0.23459723
H          -0.81666972       -1.00021861       -0.23459728
H           0.81666968        1.00021865       -0.23459717
H           0.81666966       -1.00021864        0.23459721
6
MD Time 2900.00
C          -0.60466240       -0.00000000       -0.00000001
C           0.60466241        0.00000000        0.00000001
H          -0.82690675        1.00548956        0.24359088
H          -0.82690672       -1.00548957       -0.24359092
H           0.82690667        1.00548960       -0.24359082
H           0.82690666       -1.00548960        0.24359086
6
MD Time 2910.00
C          -0.60866976       -0.00000000       -0.00000001
C           0.60866978        0.00000000        0.00000001
H          -0.83917092        1.01122591        0.25215781
H          -0.83917090       -1.01122592       -0.25215785
H           0.83917084        1.01122595       -0.25215775
H           0.83917083       -1.01122594        0.25215779
6
MD Time 2920.00
C          -0.61311352       -0.00000000       -0.00000001
C           0.61311354        0.00000000        0.00000001
H          -0.85333919        1.01720886        0.26023078
H          -0.85333917       -1.01720887       -0.26023082
H           0.85333910        1.01720889       -0.26023073
H           0.85333910       -1.01720889        0.26023077
6
MD Time 2930.00
C          -0.61795459       -0.00000000       -0.00000001
C           0.61795460        0.00000000        0.00000001
H          -0.86927959        1.02321841        0.26774155
H          -0.86927958       -1.02321842       -0.26774159
H           0.86927950        1.02321844       -0.26774151
H           0.86927951       -1.02321843        0.26774155
6
MD Time 2940.00
C          -0.62315244       -0.00000000       -0.00000001
C           0.62315245        0.00000000        0.00000001
H          -0.88685385        1.02903977        0.27462301
H          -0.88685384       -1.02903978       -0.27462304
H           0.88685375        1.02903979       -0.27462298
H           0.88685376       -1.02903979        0.27462301
6
MD Time 2950.00
C          -0.62866597       -0.00000000       -0.00000001
C           0.62866599        0.00000000        0.00000001
H          -0.90591964        1.03446846        0.28081102
H          -0.90591964       -1.03446847       -0.28081106
H           0.90591954        1.03446848       -0.28081100
H           0.90591956       -1.03446847        0.28081103
6
MD Time 2960.00
C          -0.63445429       -0.00000000       -0.00000001
C           0.63445431        0.00000000        0.00000001
H          -0.92633260        1.03931421        0.28624601
H          -0.92633261       -1.03931422       -0.28624604
H           0.92633250        1.03931423       -0.28624599
H           0.92633252       -1.03931422        0.28624602
6
MD Time 2970.00
C          -0.64047735       -0.00000000       -0.00000001
C           0.64047736        0.00000000        0.00000001
H          -0.94794795        1.04340373        0.29087409
H          -0.94794796       -1.04340374       -0.29087412
H           0.94794785        1.04340374       -0.29087408
H           0.94794788       -1.04340373        0.29087410
6
MD Time 2980.00
C          -0.64669649       -0.00000000       -0.00000001
C           0.64669651        0.00000000        0.00000001
H          -0.97062181        1.04658252        0.29464795
H          -0.97062182       -1.04658253       -0.29464798
H           0.97062170        1.04658252       -0.29464795
H           0.97062173       -1.04658252        0.29464798
6
MD Time 2990.00
C          -0.65307492       -0.00000000       -0.00000001
C           0.65307494        0.00000000        0.00000001
H          -0.99421219        1.04871596        0.29752742
H          -0.99421221       -1.04871597       -0.29752745
H           0.99421209        1.04871596       -0.29752743
H           0.99421212       -1.04871596        0.29752745
