6
MD Time 0.00
C          -1.00424993        0.00000000        0.00000000
C           1.00424993        0.00000000        0.00000000
H          -1.57974221        0.85087473        0.35244385
H          -1.57974221       -0.85087473       -0.35244385
H           1.57974221        0.85087473       -0.35244385
H           1.57974221       -0.85087473        0.35244385
6
MD Time 10.00
C          -1.00411158        0.00000000        0.00000000
C           1.00411158        0.00000000       -0.00000000
H          -1.57962027        0.85107910        0.35238792
H          -1.57962027       -0.85107910       -0.35238792
H           1.57962027        0.85107910       -0.35238792
H           1.57962027       -0.85107910        0.35238792
6
MD Time 20.00
C          -1.00369669        0.00000000        0.00000000
C           1.00369669        0.00000000       -0.00000000
H          -1.57925313        0.85168926        0.35221878
H          -1.57925313       -0.85168926       -0.35221878
H           1.57925313        0.85168926       -0.35221878
H           1.57925313       -0.85168926        0.35221878
6
MD Time 30.00
C          -1.00300564        0.00000000        0.00000000
C           1.00300564        0.00000000       -0.00000000
H          -1.57863682        0.85269637        0.35193248
H          -1.57863682       -0.85269637       -0.35193248
H           1.57863682        0.85269637       -0.35193248
H           1.57863682       -0.85269637        0.35193247
6
MD Time 40.00
C          -1.00203909        0.00000000        0.00000000
C           1.00203909        0.00000000       -0.00000000
H          -1.57776491        0.85408598        0.35152252
H          -1.57776491       -0.85408598       -0.35152252
H           1.57776491        0.85408598       -0.35152252
H           1.57776491       -0.85408598        0.35152252
6
MD Time 50.00
C          -1.00079791        0.00000000        0.00000000
C           1.00079791        0.00000000       -0.00000000
H          -1.57662869        0.85583837        0.35098007
H          -1.57662869       -0.85583837       -0.35098007
H           1.57662869        0.85583837       -0.35098007
H           1.57662869       -0.85583837        0.35098007
6
MD Time 60.00
C          -0.99928309        0.00000000        0.00000000
C           0.99928309        0.00000000       -0.00000000
H          -1.57521750        0.85792901        0.35029417
H          -1.57521750       -0.85792901       -0.35029417
H           1.57521750        0.85792901       -0.35029417
H           1.57521750       -0.85792901        0.35029417
6
MD Time 70.00
C          -0.99749575        0.00000000        0.00000000
C           0.99749575        0.00000000       -0.00000000
H          -1.57351907        0.86032921        0.34945204
H          -1.57351907       -0.86032921       -0.34945204
H           1.57351907        0.86032921       -0.34945204
H           1.57351907       -0.86032921        0.34945204
6
MD Time 80.00
C          -0.99543705        0.00000000        0.00000000
C           0.99543705        0.00000000       -0.00000000
H          -1.57151996        0.86300670        0.34843935
H          -1.57151996       -0.86300670       -0.34843935
H           1.57151996        0.86300670       -0.34843935
H           1.57151996       -0.86300670        0.34843935
6
MD Time 90.00
C          -0.99310808        0.00000000        0.00000000
C           0.99310808       -0.00000000       -0.00000000
H          -1.56920592        0.86592647        0.34724062
H          -1.56920592       -0.86592647       -0.34724062
H           1.56920592        0.86592647       -0.34724062
H           1.56920592       -0.86592647        0.34724062
6
MD Time 100.00
C          -0.99050984        0.00000000        0.00000000
C           0.99050984       -0.00000000       -0.00000000
H          -1.56656244        0.86905142        0.34583953
H          -1.56656244       -0.86905142       -0.34583953
H           1.56656244        0.86905142       -0.34583953
H           1.56656244       -0.86905142        0.34583953
6
MD Time 110.00
C          -0.98764315        0.00000000        0.00000000
C           0.98764315       -0.00000000       -0.00000000
H          -1.56357510        0.87234317        0.34421926
H          -1.56357510       -0.87234317       -0.34421926
H           1.56357511        0.87234317       -0.34421926
H           1.56357510       -0.87234317        0.34421926
6
MD Time 120.00
C          -0.98450856        0.00000000        0.00000000
C           0.98450856       -0.00000000       -0.00000000
H          -1.56023006        0.87576285        0.34236290
H          -1.56023006       -0.87576285       -0.34236290
H           1.56023006        0.87576285       -0.34236289
H           1.56023006       -0.87576285        0.34236289
6
MD Time 130.00
C          -0.98110634        0.00000000        0.00000000
C           0.98110634       -0.00000000       -0.00000000
H          -1.55651441        0.87927173        0.34025367
H          -1.55651441       -0.87927173       -0.34025367
H           1.55651441        0.87927173       -0.34025367
H           1.55651441       -0.87927173        0.34025367
6
MD Time 140.00
C          -0.97743635        0.00000000        0.00000000
C           0.97743635       -0.00000000       -0.00000000
H          -1.55241658        0.88283200        0.33787531
H          -1.55241658       -0.88283200       -0.33787531
H           1.55241658        0.88283200       -0.33787531
H           1.55241658       -0.88283200        0.33787531
6
MD Time 150.00
C          -0.97349806       -0.00000000        0.00000000
C           0.97349806       -0.00000000       -0.00000000
H          -1.54792664        0.88640732        0.33521229
H          -1.54792664       -0.88640732       -0.33521229
H           1.54792664        0.88640732       -0.33521229
H           1.54792664       -0.88640732        0.33521229
6
MD Time 160.00
C          -0.96929046       -0.00000000        0.00000000
C           0.96929046       -0.00000000       -0.00000000
H          -1.54303658        0.88996339        0.33225004
H          -1.54303657       -0.88996339       -0.33225004
H           1.54303658        0.88996339       -0.33225004
H           1.54303657       -0.88996339        0.33225004
6
MD Time 170.00
C          -0.96481206       -0.00000000        0.00000000
C           0.96481206       -0.00000000       -0.00000000
H          -1.53774051        0.89346847        0.32897515
H          -1.53774050       -0.89346847       -0.32897515
H           1.53774051        0.89346847       -0.32897515
H           1.53774050       -0.89346847        0.32897515
6
MD Time 180.00
C          -0.96006086       -0.00000000        0.00000000
C           0.96006086       -0.00000000       -0.00000000
H          -1.53203488        0.89689377        0.32537553
H          -1.53203488       -0.89689377       -0.32537554
H           1.53203488        0.89689377       -0.32537553
H           1.53203488       -0.89689377        0.32537553
6
MD Time 190.00
C          -0.95503433       -0.00000000        0.00000000
C           0.95503433       -0.00000000       -0.00000000
H          -1.52591861        0.90021379        0.32144052
H          -1.52591861       -0.90021378       -0.32144052
H           1.52591861        0.90021379       -0.32144052
H           1.52591861       -0.90021379        0.32144052
6
MD Time 200.00
C          -0.94972941       -0.00000000        0.00000000
C           0.94972941       -0.00000000       -0.00000000
H          -1.51939312        0.90340660        0.31716095
H          -1.51939312       -0.90340659       -0.31716095
H           1.51939312        0.90340660       -0.31716094
H           1.51939312       -0.90340660        0.31716095
6
MD Time 210.00
C          -0.94414252       -0.00000000        0.00000000
C           0.94414252       -0.00000000       -0.00000000
H          -1.51246243        0.90645404        0.31252920
H          -1.51246243       -0.90645404       -0.31252920
H           1.51246244        0.90645404       -0.31252920
H           1.51246243       -0.90645404        0.31252920
6
MD Time 220.00
C          -0.93826958       -0.00000000        0.00000000
C           0.93826958       -0.00000000       -0.00000000
H          -1.50513313        0.90934186        0.30753922
H          -1.50513313       -0.90934186       -0.30753923
H           1.50513313        0.90934186       -0.30753922
H           1.50513313       -0.90934186        0.30753922
6
MD Time 230.00
C          -0.93210604       -0.00000000        0.00000000
C           0.93210604       -0.00000000       -0.00000000
H          -1.49741433        0.91205974        0.30218652
H          -1.49741433       -0.91205974       -0.30218653
H           1.49741433        0.91205974       -0.30218652
H           1.49741433       -0.91205974        0.30218653
6
MD Time 240.00
C          -0.92564691       -0.00000000        0.00000000
C           0.92564691       -0.00000000       -0.00000000
H          -1.48931760        0.91460132        0.29646810
H          -1.48931760       -0.91460132       -0.29646811
H           1.48931760        0.91460132       -0.29646810
H           1.48931760       -0.91460132        0.29646810
6
MD Time 250.00
C          -0.91888682       -0.00000000        0.00000000
C           0.91888682       -0.00000000       -0.00000000
H          -1.48085684        0.91696409        0.29038240
H          -1.48085683       -0.91696409       -0.29038241
H           1.48085684        0.91696410       -0.29038240
H           1.48085683       -0.91696409        0.29038241
6
MD Time 260.00
C          -0.91182006       -0.00000000        0.00000000
C           0.91182006       -0.00000000       -0.00000000
H          -1.47204812        0.91914927        0.28392923
H          -1.47204811       -0.91914926       -0.28392924
H           1.47204812        0.91914927       -0.28392923
H           1.47204811       -0.91914926        0.28392924
6
MD Time 270.00
C          -0.90444069       -0.00000000        0.00000000
C           0.90444069       -0.00000000       -0.00000000
H          -1.46290952        0.92116154        0.27710965
H          -1.46290951       -0.92116154       -0.27710966
H           1.46290952        0.92116154       -0.27710965
H           1.46290951       -0.92116154        0.27710966
6
MD Time 280.00
C          -0.89674264       -0.00000000        0.00000000
C           0.89674264       -0.00000000       -0.00000000
H          -1.45346089        0.92300883        0.26992586
H          -1.45346088       -0.92300883       -0.26992587
H           1.45346089        0.92300883       -0.26992586
H           1.45346088       -0.92300883        0.26992587
6
MD Time 290.00
C          -0.88871976       -0.00000000        0.00000000
C           0.88871976       -0.00000000       -0.00000000
H          -1.44372361        0.92470191        0.26238110
H          -1.44372361       -0.92470191       -0.26238111
H           1.44372361        0.92470191       -0.26238110
H           1.44372361       -0.92470191        0.26238111
6
MD Time 300.00
C          -0.88036603       -0.00000000        0.00000000
C           0.88036603       -0.00000000       -0.00000000
H          -1.43372033        0.92625399        0.25447949
H          -1.43372032       -0.92625399       -0.25447950
H           1.43372033        0.92625399       -0.25447949
H           1.43372032       -0.92625399        0.25447951
6
MD Time 310.00
C          -0.87167564       -0.00000000        0.00000000
C           0.87167564       -0.00000000       -0.00000000
H          -1.42347462        0.92768025        0.24622595
H          -1.42347461       -0.92768024       -0.24622597
H           1.42347462        0.92768025       -0.24622595
H           1.42347461       -0.92768024        0.24622597
6
MD Time 320.00
C          -0.86264322       -0.00000000        0.00000000
C           0.86264322       -0.00000000       -0.00000000
H          -1.41301071        0.92899727        0.23762605
H          -1.41301070       -0.92899727       -0.23762607
H           1.41301071        0.92899727       -0.23762605
H           1.41301070       -0.92899727        0.23762607
6
MD Time 330.00
C          -0.85326402       -0.00000000        0.00000000
C           0.85326402       -0.00000000       -0.00000000
H          -1.40235310        0.93022250        0.22868593
H          -1.40235309       -0.93022250       -0.22868594
H           1.40235310        0.93022251       -0.22868593
H           1.40235309       -0.93022250        0.22868594
6
MD Time 340.00
C          -0.84353416       -0.00000000        0.00000000
C           0.84353416       -0.00000000       -0.00000000
H          -1.39152624        0.93137360        0.21941218
H          -1.39152623       -0.93137360       -0.21941219
H           1.39152624        0.93137360       -0.21941218
H           1.39152623       -0.93137360        0.21941220
6
MD Time 350.00
C          -0.83345086       -0.00000000        0.00000000
C           0.83345086       -0.00000000       -0.00000000
H          -1.38055415        0.93246779        0.20981183
H          -1.38055414       -0.93246779       -0.20981185
H           1.38055415        0.93246779       -0.20981184
H           1.38055414       -0.93246779        0.20981186
6
MD Time 360.00
C          -0.82301281       -0.00000000        0.00000000
C           0.82301281       -0.00000000       -0.00000000
H          -1.36946009        0.93352122        0.19989230
H          -1.36946009       -0.93352121       -0.19989232
H           1.36946009        0.93352122       -0.19989231
H           1.36946009       -0.93352121        0.19989233
6
MD Time 370.00
C          -0.81222043       -0.00000000        0.00000000
C           0.81222043       -0.00000000       -0.00000000
H          -1.35826622        0.93454831        0.18966139
H          -1.35826621       -0.93454831       -0.18966141
H           1.35826621        0.93454831       -0.18966139
H           1.35826621       -0.93454831        0.18966142
6
MD Time 380.00
C          -0.80107637       -0.00000000        0.00000000
C           0.80107637       -0.00000000       -0.00000000
H          -1.34699325        0.93556117        0.17912731
H          -1.34699324       -0.93556117       -0.17912733
H           1.34699325        0.93556117       -0.17912732
H           1.34699324       -0.93556117        0.17912734
6
MD Time 390.00
C          -0.78958586       -0.00000000        0.00000000
C           0.78958586       -0.00000000       -0.00000000
H          -1.33566025        0.93656904        0.16829882
H          -1.33566024       -0.93656904       -0.16829884
H           1.33566025        0.93656904       -0.16829882
H           1.33566024       -0.93656903        0.16829885
6
MD Time 400.00
C          -0.77775728       -0.00000000        0.00000000
C           0.77775728       -0.00000000       -0.00000000
H          -1.32428434        0.93757780        0.15718528
H          -1.32428433       -0.93757780       -0.15718531
H           1.32428433        0.93757780       -0.15718528
H           1.32428433       -0.93757779        0.15718532
6
MD Time 410.00
C          -0.76560269       -0.00000000        0.00000000
C           0.76560269       -0.00000000       -0.00000000
H          -1.31288058        0.93858966        0.14579686
H          -1.31288057       -0.93858966       -0.14579689
H           1.31288058        0.93858966       -0.14579686
H           1.31288057       -0.93858965        0.14579690
6
MD Time 420.00
C          -0.75313846       -0.00000000        0.00000000
C           0.75313847       -0.00000000       -0.00000000
H          -1.30146189        0.93960289        0.13414470
H          -1.30146188       -0.93960289       -0.13414473
H           1.30146189        0.93960289       -0.13414470
H           1.30146188       -0.93960289        0.13414474
6
MD Time 430.00
C          -0.74038604       -0.00000000        0.00000000
C           0.74038604       -0.00000000       -0.00000000
H          -1.29003900        0.94061176        0.12224113
H          -1.29003899       -0.94061175       -0.12224116
H           1.29003900        0.94061176       -0.12224113
H           1.29003899       -0.94061175        0.12224117
6
MD Time 440.00
C          -0.72737269       -0.00000000        0.00000000
C           0.72737269       -0.00000000       -0.00000000
H          -1.27862059        0.94160654        0.11009991
H          -1.27862058       -0.94160654       -0.11009995
H           1.27862059        0.94160654       -0.11009992
H           1.27862058       -0.94160654        0.11009996
6
MD Time 450.00
C          -0.71413239       -0.00000000        0.00000000
C           0.71413239       -0.00000000       -0.00000000
H          -1.26721344        0.94257382        0.09773647
H          -1.26721342       -0.94257382       -0.09773651
H           1.26721343        0.94257382       -0.09773648
H           1.26721342       -0.94257381        0.09773653
6
MD Time 460.00
C          -0.70070678       -0.00000000        0.00000000
C           0.70070678       -0.00000000       -0.00000000
H          -1.25582274        0.94349679        0.08516812
H          -1.25582272       -0.94349679       -0.08516816
H           1.25582273        0.94349679       -0.08516812
H           1.25582272       -0.94349678        0.08516818
6
MD Time 470.00
C          -0.68714625       -0.00000000        0.00000000
C           0.68714625       -0.00000000       -0.00000000
H          -1.24445248        0.94435584        0.07241425
H          -1.24445247       -0.94435584       -0.07241429
H           1.24445248        0.94435584       -0.07241426
H           1.24445247       -0.94435584        0.07241431
6
MD Time 480.00
C          -0.67351094       -0.00000000        0.00000000
C           0.67351094        0.00000000       -0.00000000
H          -1.23310596        0.94512923        0.05949654
H          -1.23310595       -0.94512923       -0.05949658
H           1.23310596        0.94512923       -0.05949654
H           1.23310595       -0.94512923        0.05949660
6
MD Time 490.00
C          -0.65987189       -0.00000000        0.00000000
C           0.65987189        0.00000000       -0.00000000
H          -1.22178636        0.94579386        0.04643903
H          -1.22178635       -0.94579386       -0.04643908
H           1.22178636        0.94579386       -0.04643904
H           1.22178635       -0.94579386        0.04643910
6
MD Time 500.00
C          -0.64631207       -0.00000000        0.00000000
C           0.64631207        0.00000000       -0.00000000
H          -1.21049743        0.94632621        0.03326824
H          -1.21049742       -0.94632621       -0.03326829
H           1.21049743        0.94632621       -0.03326825
H           1.21049742       -0.94632620        0.03326831
6
MD Time 510.00
C          -0.63292723       -0.00000000        0.00000000
C           0.63292723        0.00000000       -0.00000000
H          -1.19924426        0.94670329        0.02001312
H          -1.19924424       -0.94670329       -0.02001317
H           1.19924425        0.94670329       -0.02001313
H           1.19924424       -0.94670329        0.02001319
6
MD Time 520.00
C          -0.61982654       -0.00000000        0.00000000
C           0.61982655        0.00000000       -0.00000000
H          -1.18803406        0.94690373        0.00670498
H          -1.18803404       -0.94690373       -0.00670504
H           1.18803405        0.94690373       -0.00670499
H           1.18803404       -0.94690373        0.00670506
6
MD Time 530.00
C          -0.60713270       -0.00000000        0.00000000
C           0.60713270        0.00000000       -0.00000000
H          -1.17687706        0.94690880       -0.00662265
H          -1.17687704       -0.94690880        0.00662260
H           1.17687705        0.94690880        0.00662265
H           1.17687704       -0.94690880       -0.00662257
6
MD Time 540.00
C          -0.59498139       -0.00000000        0.00000000
C           0.59498140        0.00000000       -0.00000000
H          -1.16578734        0.94670354       -0.01993433
H          -1.16578733       -0.94670354        0.01993427
H           1.16578733        0.94670354        0.01993432
H           1.16578733       -0.94670354       -0.01993424
6
MD Time 550.00
C          -0.58351987        0.00000000        0.00000000
C           0.58351988        0.00000000       -0.00000000
H          -1.15478371        0.94627781       -0.03319295
H          -1.15478370       -0.94627782        0.03319289
H           1.15478371        0.94627781        0.03319295
H           1.15478370       -0.94627781       -0.03319287
6
MD Time 560.00
C          -0.57290434        0.00000000        0.00000000
C           0.57290434        0.00000000       -0.00000000
H          -1.14389049        0.94562737       -0.04636026
H          -1.14389048       -0.94562738        0.04636020
H           1.14389048        0.94562737        0.04636025
H           1.14389048       -0.94562738       -0.04636017
6
MD Time 570.00
C          -0.56329602        0.00000000        0.00000000
C           0.56329602        0.00000000       -0.00000000
H          -1.13313823        0.94475488       -0.05939725
H          -1.13313821       -0.94475489        0.05939719
H           1.13313822        0.94475489        0.05939724
H           1.13313821       -0.94475489       -0.05939716
6
MD Time 580.00
C          -0.55485578        0.00000000        0.00000000
C           0.55485578        0.00000000       -0.00000000
H          -1.12256430        0.94367085       -0.07226479
H          -1.12256429       -0.94367086        0.07226472
H           1.12256429        0.94367086        0.07226478
H           1.12256429       -0.94367086       -0.07226469
6
MD Time 590.00
C          -0.54773747        0.00000000        0.00000000
C           0.54773748        0.00000000       -0.00000000
H          -1.11221336        0.94239451       -0.08492419
H          -1.11221334       -0.94239452        0.08492412
H           1.11221335        0.94239451        0.08492418
H           1.11221334       -0.94239452       -0.08492409
6
MD Time 600.00
C          -0.54208025        0.00000000        0.00000000
C           0.54208025        0.00000000       -0.00000000
H          -1.10213748        0.94095452       -0.09733789
H          -1.10213747       -0.94095453        0.09733782
H           1.10213747        0.94095452        0.09733789
H           1.10213747       -0.94095453       -0.09733779
6
MD Time 610.00
C          -0.53800049        0.00000000        0.00000000
C           0.53800049        0.00000000       -0.00000000
H          -1.09239620        0.93938956       -0.10947014
H          -1.09239619       -0.93938957        0.10947006
H           1.09239619        0.93938956        0.10947013
H           1.09239619       -0.93938957       -0.10947003
6
MD Time 620.00
C          -0.53558422        0.00000000        0.00000000
C           0.53558422        0.00000000       -0.00000000
H          -1.08305610        0.93774858       -0.12128766
H          -1.08305609       -0.93774860        0.12128758
H           1.08305609        0.93774859        0.12128765
H           1.08305609       -0.93774860       -0.12128755
6
MD Time 630.00
C          -0.53488096        0.00000000        0.00000000
C           0.53488096        0.00000000       -0.00000000
H          -1.07419017        0.93609077       -0.13276035
H          -1.07419015       -0.93609078        0.13276028
H           1.07419016        0.93609077        0.13276035
H           1.07419015       -0.93609079       -0.13276025
6
MD Time 640.00
C          -0.53589984        0.00000000        0.00000000
C           0.53589984        0.00000000       -0.00000000
H          -1.06587672        0.93448498       -0.14386191
H          -1.06587671       -0.93448499        0.14386183
H           1.06587671        0.93448498        0.14386190
H           1.06587671       -0.93448499       -0.14386180
6
MD Time 650.00
C          -0.53860874        0.00000000        0.00000000
C           0.53860874        0.00000000       -0.00000000
H          -1.05819801        0.93300868       -0.15457033
H          -1.05819799       -0.93300870        0.15457025
H           1.05819800        0.93300869        0.15457032
H           1.05819799       -0.93300870       -0.15457022
6
MD Time 660.00
C          -0.54293635        0.00000000        0.00000000
C           0.54293635        0.00000000       -0.00000000
H          -1.05123837        0.93174627       -0.16486829
H          -1.05123836       -0.93174629        0.16486821
H           1.05123836        0.93174628        0.16486828
H           1.05123836       -0.93174629       -0.16486818
6
MD Time 670.00
C          -0.54877715        0.00000000        0.00000000
C           0.54877715        0.00000000       -0.00000000
H          -1.04508218        0.93078665       -0.17474334
H          -1.04508217       -0.93078667        0.17474326
H           1.04508217        0.93078666        0.17474334
H           1.04508217       -0.93078667       -0.17474323
6
MD Time 680.00
C          -0.55599831        0.00000000       -0.00000000
C           0.55599831        0.00000000       -0.00000000
H          -1.03981144        0.93022024       -0.18418786
H          -1.03981143       -0.93022026        0.18418778
H           1.03981143        0.93022025        0.18418786
H           1.03981143       -0.93022027       -0.18418775
6
MD Time 690.00
C          -0.56444778        0.00000000       -0.00000000
C           0.56444779        0.00000000       -0.00000000
H          -1.03550331        0.93013533       -0.19319868
H          -1.03550330       -0.93013535        0.19319860
H           1.03550330        0.93013534        0.19319867
H           1.03550330       -0.93013536       -0.19319857
6
MD Time 700.00
C          -0.57396253        0.00000000       -0.00000000
C           0.57396253        0.00000000       -0.00000000
H          -1.03222761        0.93061407       -0.20177644
H          -1.03222760       -0.93061409        0.20177636
H           1.03222761        0.93061408        0.20177643
H           1.03222761       -0.93061410       -0.20177633
6
MD Time 710.00
C          -0.58437609        0.00000000       -0.00000000
C           0.58437609        0.00000000       -0.00000000
H          -1.03004450        0.93172824       -0.20992471
H          -1.03004449       -0.93172826        0.20992463
H           1.03004449        0.93172825        0.20992471
H           1.03004449       -0.93172827       -0.20992460
6
MD Time 720.00
C          -0.59552503        0.00000000       -0.00000000
C           0.59552503        0.00000000       -0.00000000
H          -1.02900246        0.93353510       -0.21764884
H          -1.02900245       -0.93353512        0.21764876
H           1.02900246        0.93353511        0.21764884
H           1.02900246       -0.93353513       -0.21764873
6
MD Time 730.00
C          -0.60725394        0.00000000       -0.00000000
C           0.60725394        0.00000000        0.00000000
H          -1.02913682        0.93607369       -0.22495467
H          -1.02913681       -0.93607372        0.22495458
H           1.02913681        0.93607371        0.22495467
H           1.02913681       -0.93607372       -0.22495456
6
MD Time 740.00
C          -0.61941892       -0.00000000       -0.00000000
C           0.61941892        0.00000000        0.00000000
H          -1.03046877        0.93936183       -0.23184727
H          -1.03046876       -0.93936185        0.23184719
H           1.03046876        0.93936184        0.23184728
H           1.03046876       -0.93936186       -0.23184717
6
MD Time 750.00
C          -0.63188977       -0.00000000       -0.00000000
C           0.63188977        0.00000000        0.00000000
H          -1.03300509        0.94339410       -0.23832982
H          -1.03300509       -0.94339413        0.23832974
H           1.03300509        0.94339411        0.23832982
H           1.03300509       -0.94339413       -0.23832971
6
MD Time 760.00
C          -0.64455094       -0.00000000       -0.00000000
C           0.64455094        0.00000000        0.00000000
H          -1.03673853        0.94814111       -0.24440260
H          -1.03673852       -0.94814114        0.24440252
H           1.03673852        0.94814112        0.24440261
H           1.03673852       -0.94814114       -0.24440250
6
MD Time 770.00
C          -0.65730160       -0.00000000       -0.00000000
C           0.65730160        0.00000000        0.00000000
H          -1.04164861        0.95354988       -0.25006244
H          -1.04164860       -0.95354991        0.25006236
H           1.04164860        0.95354989        0.25006245
H           1.04164860       -0.95354991       -0.25006234
6
MD Time 780.00
C          -0.67005511       -0.00000000       -0.00000001
C           0.67005511        0.00000000        0.00000000
H          -1.04770306        0.95954552       -0.25530241
H          -1.04770305       -0.95954555        0.25530233
H           1.04770305        0.95954554        0.25530242
H           1.04770305       -0.95954555       -0.25530231
6
MD Time 790.00
C          -0.68273797       -0.00000000       -0.00000001
C           0.68273797        0.00000000        0.00000000
H          -1.05485938        0.96603386       -0.26011194
H          -1.05485938       -0.96603388        0.26011185
H           1.05485937        0.96603387        0.26011195
H           1.05485938       -0.96603389       -0.26011183
6
MD Time 800.00
C          -0.69528860       -0.00000000       -0.00000001
C           0.69528861        0.00000000        0.00000000
H          -1.06306669        0.97290481       -0.26447716
H          -1.06306668       -0.97290484        0.26447708
H           1.06306668        0.97290482        0.26447717
H           1.06306668       -0.97290484       -0.26447706
6
MD Time 810.00
C          -0.70765598       -0.00000000       -0.00000001
C           0.70765598        0.00000000        0.00000000
H          -1.07226744        0.98003628       -0.26838159
H          -1.07226744       -0.98003631        0.26838151
H           1.07226744        0.98003629        0.26838160
H           1.07226744       -0.98003631       -0.26838149
6
MD Time 820.00
C          -0.71979826       -0.00000000       -0.00000001
C           0.71979827        0.00000000        0.00000001
H          -1.08239920        0.98729813       -0.27180687
H          -1.08239920       -0.98729815        0.27180678
H           1.08239919        0.98729814        0.27180688
H           1.08239920       -0.98729816       -0.27180677
6
MD Time 830.00
C          -0.73168157       -0.00000000       -0.00000001
C           0.73168157        0.00000000        0.00000001
H          -1.09339612        0.99455610       -0.27473363
H          -1.09339611       -0.99455613        0.27473355
H           1.09339611        0.99455611        0.27473365
H           1.09339611       -0.99455613       -0.27473354
6
MD Time 840.00
C          -0.74327875       -0.00000000       -0.00000001
C           0.74327875        0.00000000        0.00000001
H          -1.10519026        1.00167548       -0.27714236
H          -1.10519026       -1.00167551        0.27714228
H           1.10519025        1.00167549        0.27714238
H           1.10519026       -1.00167551       -0.27714227
6
MD Time 850.00
C          -0.75456837       -0.00000000       -0.00000001
C           0.75456837        0.00000000        0.00000001
H          -1.11771273        1.00852428       -0.27901418
H          -1.11771272       -1.00852431        0.27901410
H           1.11771272        1.00852429        0.27901420
H           1.11771273       -1.00852431       -0.27901409
6
MD Time 860.00
C          -0.76553380       -0.00000000       -0.00000001
C           0.76553380        0.00000000        0.00000001
H          -1.13089451        1.01497599       -0.28033158
H          -1.13089451       -1.01497601        0.28033149
H           1.13089450        1.01497599        0.28033160
H           1.13089451       -1.01497601       -0.28033149
6
MD Time 870.00
C          -0.77616240       -0.00000000       -0.00000001
C           0.77616240        0.00000000        0.00000001
H          -1.14466719        1.02091176       -0.28107898
H          -1.14466718       -1.02091178        0.28107889
H           1.14466718        1.02091176        0.28107900
H           1.14466719       -1.02091178       -0.28107889
6
MD Time 880.00
C          -0.78644487       -0.00000000       -0.00000001
C           0.78644487        0.00000000        0.00000001
H          -1.15896346        1.02622219       -0.28124326
H          -1.15896346       -1.02622222        0.28124317
H           1.15896345        1.02622220        0.28124329
H           1.15896346       -1.02622221       -0.28124318
6
MD Time 890.00
C          -0.79637469       -0.00000000       -0.00000001
C           0.79637469        0.00000000        0.00000001
H          -1.17371753        1.03080865       -0.28081411
H          -1.17371753       -1.03080867        0.28081402
H           1.17371752        1.03080865        0.28081414
H           1.17371753       -1.03080866       -0.28081403
6
MD Time 900.00
C          -0.80594759       -0.00000000       -0.00000001
C           0.80594760        0.00000000        0.00000001
H          -1.18886541        1.03458416       -0.27978429
H          -1.18886540       -1.03458418        0.27978420
H           1.18886540        1.03458416        0.27978432
H           1.18886541       -1.03458417       -0.27978421
6
MD Time 910.00
C          -0.81516117       -0.00000000       -0.00000001
C           0.81516117        0.00000000        0.00000001
H          -1.20434513        1.03747413       -0.27814984
H          -1.20434512       -1.03747416        0.27814975
H           1.20434512        1.03747413        0.27814987
H           1.20434513       -1.03747415       -0.27814976
6
MD Time 920.00
C          -0.82401451       -0.00000000       -0.00000001
C           0.82401451        0.00000000        0.00000001
H          -1.22009692        1.03941676       -0.27591016
H          -1.22009692       -1.03941678        0.27591007
H           1.22009691        1.03941675        0.27591020
H           1.22009692       -1.03941677       -0.27591009
6
MD Time 930.00
C          -0.83250791       -0.00000000       -0.00000001
C           0.83250791        0.00000000        0.00000001
H          -1.23606336        1.04036325       -0.27306808
H          -1.23606336       -1.04036327        0.27306799
H           1.23606335        1.04036324        0.27306812
H           1.23606336       -1.04036325       -0.27306801
6
MD Time 940.00
C          -0.84064260       -0.00000000       -0.00000001
C           0.84064260        0.00000000        0.00000001
H          -1.25218950        1.04027800       -0.26962985
H          -1.25218949       -1.04027802        0.26962976
H           1.25218949        1.04027799        0.26962989
H           1.25218949       -1.04027800       -0.26962979
6
MD Time 950.00
C          -0.84842050       -0.00000000       -0.00000001
C           0.84842050        0.00000000        0.00000001
H          -1.26842299        1.03913862       -0.26560508
H          -1.26842298       -1.03913864        0.26560499
H           1.26842298        1.03913862        0.26560513
H           1.26842298       -1.03913863       -0.26560502
6
MD Time 960.00
C          -0.85584405       -0.00000000       -0.00000002
C           0.85584405        0.00000000        0.00000001
H          -1.28471424        1.03693597       -0.26100669
H          -1.28471423       -1.03693599        0.26100660
H           1.28471423        1.03693596        0.26100674
H           1.28471424       -1.03693597       -0.26100664
6
MD Time 970.00
C          -0.86291597       -0.00000000       -0.00000002
C           0.86291597        0.00000000        0.00000001
H          -1.30101659        1.03367407       -0.25585077
H          -1.30101658       -1.03367409        0.25585069
H           1.30101658        1.03367406        0.25585083
H           1.30101658       -1.03367407       -0.25585073
6
MD Time 980.00
C          -0.86963916       -0.00000000       -0.00000002
C           0.86963916        0.00000000        0.00000001
H          -1.31728645        1.02937007       -0.25015649
H          -1.31728644       -1.02937009        0.25015640
H           1.31728644        1.02937006        0.25015655
H           1.31728644       -1.02937007       -0.25015644
6
MD Time 990.00
C          -0.87601651       -0.00000000       -0.00000002
C           0.87601651        0.00000000        0.00000002
H          -1.33348353        1.02405415       -0.24394585
H          -1.33348352       -1.02405417        0.24394576
H           1.33348352        1.02405414        0.24394591
H           1.33348353       -1.02405414       -0.24394581
6
MD Time 1000.00
C          -0.88205076       -0.00000000       -0.00000002
C           0.88205076        0.00000000        0.00000002
H          -1.34957105        1.01776936       -0.23724357
H          -1.34957104       -1.01776938        0.23724348
H           1.34957104        1.01776935        0.23724364
H           1.34957105       -1.01776935       -0.23724354
6
MD Time 1010.00
C          -0.88774441       -0.00000000       -0.00000002
C           0.88774441        0.00000000        0.00000002
H          -1.36551594        1.01057144       -0.23007682
H          -1.36551593       -1.01057146        0.23007673
H           1.36551593        1.01057143        0.23007689
H           1.36551594       -1.01057143       -0.23007679
6
MD Time 1020.00
C          -0.89309955       -0.00000000       -0.00000002
C           0.89309955        0.00000000        0.00000002
H          -1.38128905        1.00252847       -0.22247492
H          -1.38128904       -1.00252849        0.22247483
H           1.38128904        1.00252846        0.22247500
H           1.38128905       -1.00252846       -0.22247490
6
MD Time 1030.00
C          -0.89811785       -0.00000000       -0.00000002
C           0.89811785        0.00000000        0.00000002
H          -1.39686533        0.99372045       -0.21446907
H          -1.39686532       -0.99372047        0.21446898
H           1.39686532        0.99372044        0.21446915
H           1.39686533       -0.99372044       -0.21446905
6
MD Time 1040.00
C          -0.90280038       -0.00000000       -0.00000002
C           0.90280038        0.00000000        0.00000002
H          -1.41222394        0.98423870       -0.20609196
H          -1.41222393       -0.98423872        0.20609187
H           1.41222393        0.98423869        0.20609205
H           1.41222393       -0.98423869       -0.20609195
6
MD Time 1050.00
C          -0.90714766       -0.00000000       -0.00000002
C           0.90714766        0.00000000        0.00000002
H          -1.42734827        0.97418495       -0.19737735
H          -1.42734827       -0.97418497        0.19737726
H           1.42734827        0.97418494        0.19737743
H           1.42734827       -0.97418493       -0.19737733
6
MD Time 1060.00
C          -0.91115958       -0.00000000       -0.00000002
C           0.91115958        0.00000000        0.00000002
H          -1.44222590        0.96367027       -0.18835959
H          -1.44222590       -0.96367029        0.18835950
H           1.44222590        0.96367026        0.18835968
H           1.44222590       -0.96367026       -0.18835958
6
MD Time 1070.00
C          -0.91483540       -0.00000000       -0.00000002
C           0.91483540        0.00000000        0.00000002
H          -1.45684829        0.95281364       -0.17907314
H          -1.45684828       -0.95281365        0.17907305
H           1.45684828        0.95281362        0.17907323
H           1.45684829       -0.95281362       -0.17907313
6
MD Time 1080.00
C          -0.91817384       -0.00000000       -0.00000002
C           0.91817384        0.00000000        0.00000002
H          -1.47121036        0.94174014       -0.16955197
H          -1.47121035       -0.94174015        0.16955188
H           1.47121036        0.94174013        0.16955207
H           1.47121036       -0.94174012       -0.16955197
6
MD Time 1090.00
C          -0.92117315       -0.00000000       -0.00000002
C           0.92117315        0.00000000        0.00000002
H          -1.48530983        0.93057889       -0.15982902
H          -1.48530982       -0.93057891        0.15982893
H           1.48530983        0.93057888        0.15982912
H           1.48530983       -0.93057887       -0.15982902
6
MD Time 1100.00
C          -0.92383128       -0.00000000       -0.00000002
C           0.92383127        0.00000000        0.00000002
H          -1.49914629        0.91946061       -0.14993559
H          -1.49914628       -0.91946063        0.14993550
H           1.49914628        0.91946060        0.14993570
H           1.49914629       -0.91946060       -0.14993560
6
MD Time 1110.00
C          -0.92614600       -0.00000000       -0.00000002
C           0.92614599        0.00000000        0.00000002
H          -1.51272002        0.90851491       -0.13990083
H          -1.51272001       -0.90851493        0.13990074
H           1.51272001        0.90851490        0.13990094
H           1.51272002       -0.90851489       -0.13990085
6
MD Time 1120.00
C          -0.92811520       -0.00000000       -0.00000002
C           0.92811520        0.00000000        0.00000002
H          -1.52603062        0.89786741       -0.12975122
H          -1.52603062       -0.89786742        0.12975113
H           1.52603062        0.89786740        0.12975133
H           1.52603063       -0.89786739       -0.12975124
6
MD Time 1130.00
C          -0.92973714       -0.00000000       -0.00000002
C           0.92973714        0.00000000        0.00000002
H          -1.53907548        0.88763683       -0.11951020
H          -1.53907547       -0.88763685        0.11951011
H           1.53907548        0.88763682        0.11951031
H           1.53907548       -0.88763681       -0.11951022
6
MD Time 1140.00
C          -0.93101069       -0.00000000       -0.00000002
C           0.93101069        0.00000000        0.00000002
H          -1.55184805        0.87793217       -0.10919794
H          -1.55184805       -0.87793219        0.10919784
H           1.55184805        0.87793217        0.10919805
H           1.55184806       -0.87793216       -0.10919796
6
MD Time 1150.00
C          -0.93193562       -0.00000000       -0.00000002
C           0.93193562        0.00000000        0.00000002
H          -1.56433632        0.86885013       -0.09883121
H          -1.56433631       -0.86885015        0.09883112
H           1.56433632        0.86885013        0.09883133
H           1.56433632       -0.86885012       -0.09883124
6
MD Time 1160.00
C          -0.93251288       -0.00000000       -0.00000002
C           0.93251288        0.00000000        0.00000002
H          -1.57652126        0.86047296       -0.08842348
H          -1.57652125       -0.86047297        0.08842339
H           1.57652126        0.86047295        0.08842361
H           1.57652127       -0.86047294       -0.08842352
6
MD Time 1170.00
C          -0.93274476       -0.00000000       -0.00000002
C           0.93274476        0.00000000        0.00000002
H          -1.58837570        0.85286686       -0.07798517
H          -1.58837569       -0.85286687        0.07798507
H           1.58837570        0.85286685        0.07798530
H           1.58837571       -0.85286684       -0.07798521
6
MD Time 1180.00
C          -0.93263507       -0.00000000       -0.00000002
C           0.93263507        0.00000000        0.00000002
H          -1.59986348        0.84608104       -0.06752399
H          -1.59986347       -0.84608106        0.06752390
H           1.59986348        0.84608104        0.06752413
H           1.59986349       -0.84608103       -0.06752404
6
MD Time 1190.00
C          -0.93218917       -0.00000000       -0.00000002
C           0.93218917        0.00000000        0.00000002
H          -1.61093915        0.84014746       -0.05704555
H          -1.61093914       -0.84014748        0.05704545
H           1.61093915        0.84014746        0.05704569
H           1.61093916       -0.84014745       -0.05704560
6
MD Time 1200.00
C          -0.93141397       -0.00000000       -0.00000002
C           0.93141397        0.00000000        0.00000002
H          -1.62154816        0.83508119       -0.04655385
H          -1.62154815       -0.83508120        0.04655375
H           1.62154816        0.83508118        0.04655399
H           1.62154817       -0.83508117       -0.04655390
6
MD Time 1210.00
C          -0.93031779       -0.00000000       -0.00000002
C           0.93031779        0.00000000        0.00000002
H          -1.63162758        0.83088136       -0.03605199
H          -1.63162757       -0.83088137        0.03605189
H           1.63162758        0.83088135        0.03605214
H           1.63162759       -0.83088134       -0.03605205
6
MD Time 1220.00
C          -0.92891021       -0.00000000       -0.00000002
C           0.92891021        0.00000000        0.00000003
H          -1.64110726        0.82753265       -0.02554276
H          -1.64110726       -0.82753266        0.02554266
H           1.64110727        0.82753264        0.02554291
H           1.64110728       -0.82753263       -0.02554282
6
MD Time 1230.00
C          -0.92720179       -0.00000000       -0.00000002
C           0.92720179        0.00000000        0.00000003
H          -1.64991138        0.82500703       -0.01502919
H          -1.64991137       -0.82500705        0.01502909
H           1.64991138        0.82500703        0.01502935
H           1.64991139       -0.82500701       -0.01502926
6
MD Time 1240.00
C          -0.92520383       -0.00000000       -0.00000002
C           0.92520382        0.00000000        0.00000003
H          -1.65796020        0.82326576       -0.00451508
H          -1.65796020       -0.82326578        0.00451498
H           1.65796021        0.82326576        0.00451524
H           1.65796022       -0.82326575       -0.00451515
6
MD Time 1250.00
C          -0.92292799       -0.00000000       -0.00000002
C           0.92292799        0.00000000        0.00000003
H          -1.66517203        0.82226140        0.00599465
H          -1.66517202       -0.82226142       -0.00599475
H           1.66517204        0.82226140       -0.00599448
H           1.66517205       -0.82226139        0.00599457
6
MD Time 1260.00
C          -0.92038609       -0.00000000       -0.00000002
C           0.92038608        0.00000000        0.00000003
H          -1.67146510        0.82193984        0.01649361
H          -1.67146509       -0.82193986       -0.01649371
H           1.67146511        0.82193984       -0.01649344
H           1.67146512       -0.82193983        0.01649353
6
MD Time 1270.00
C          -0.91758971       -0.00000000       -0.00000002
C           0.91758970        0.00000000        0.00000003
H          -1.67675943        0.82224213        0.02697383
H          -1.67675943       -0.82224215       -0.02697393
H           1.67675945        0.82224214       -0.02697365
H           1.67675946       -0.82224212        0.02697374
6
MD Time 1280.00
C          -0.91455001       -0.00000000       -0.00000003
C           0.91455000        0.00000000        0.00000003
H          -1.68097853        0.82310622        0.03742559
H          -1.68097852       -0.82310623       -0.03742569
H           1.68097854        0.82310622       -0.03742541
H           1.68097855       -0.82310621        0.03742550
6
MD Time 1290.00
C          -0.91127746       -0.00000000       -0.00000003
C           0.91127746        0.00000000        0.00000003
H          -1.68405078        0.82446838        0.04783746
H          -1.68405078       -0.82446840       -0.04783756
H           1.68405080        0.82446839       -0.04783728
H           1.68405081       -0.82446837        0.04783737
6
MD Time 1300.00
C          -0.90778170       -0.00000000       -0.00000003
C           0.90778170        0.00000000        0.00000003
H          -1.68591078        0.82626457        0.05819635
H          -1.68591077       -0.82626458       -0.05819645
H           1.68591079        0.82626457       -0.05819616
H           1.68591080       -0.82626456        0.05819625
6
MD Time 1310.00
C          -0.90407133       -0.00000000       -0.00000003
C           0.90407133        0.00000000        0.00000003
H          -1.68650024        0.82843140        0.06848758
H          -1.68650023       -0.82843141       -0.06848768
H           1.68650026        0.82843140       -0.06848738
H           1.68650027       -0.82843139        0.06848747
6
MD Time 1320.00
C          -0.90015385       -0.00000000       -0.00000003
C           0.90015385        0.00000000        0.00000003
H          -1.68576884        0.83090711        0.07869507
H          -1.68576883       -0.83090713       -0.07869517
H           1.68576886        0.83090712       -0.07869488
H           1.68576886       -0.83090711        0.07869497
6
MD Time 1330.00
C          -0.89603556       -0.00000000       -0.00000003
C           0.89603556        0.00000000        0.00000003
H          -1.68367475        0.83363231        0.08880153
H          -1.68367474       -0.83363232       -0.08880163
H           1.68367476        0.83363232       -0.08880133
H           1.68367477       -0.83363230        0.08880142
6
MD Time 1340.00
C          -0.89172154       -0.00000000       -0.00000003
C           0.89172153        0.00000000        0.00000003
H          -1.68018505        0.83655052        0.09878859
H          -1.68018504       -0.83655053       -0.09878870
H           1.68018507        0.83655053       -0.09878840
H           1.68018508       -0.83655051        0.09878849
6
MD Time 1350.00
C          -0.88721558       -0.00000000       -0.00000003
C           0.88721558        0.00000000        0.00000003
H          -1.67527604        0.83960877        0.10863710
H          -1.67527603       -0.83960878       -0.10863720
H           1.67527606        0.83960878       -0.10863690
H           1.67527607       -0.83960877        0.10863699
6
MD Time 1360.00
C          -0.88252025       -0.00000000       -0.00000002
C           0.88252025        0.00000000        0.00000003
H          -1.66893334        0.84275803        0.11832726
H          -1.66893333       -0.84275804       -0.11832736
H           1.66893336        0.84275805       -0.11832706
H           1.66893337       -0.84275803        0.11832715
6
MD Time 1370.00
C          -0.87763683       -0.00000000       -0.00000002
C           0.87763683        0.00000000        0.00000003
H          -1.66115202        0.84595359        0.12783890
H          -1.66115200       -0.84595360       -0.12783900
H           1.66115204        0.84595360       -0.12783871
H           1.66115204       -0.84595358        0.12783879
6
MD Time 1380.00
C          -0.87256540       -0.00000000       -0.00000002
C           0.87256540        0.00000000        0.00000003
H          -1.65193657        0.84915542        0.13715168
H          -1.65193656       -0.84915543       -0.13715178
H           1.65193659        0.84915544       -0.13715149
H           1.65193659       -0.84915542        0.13715158
6
MD Time 1390.00
C          -0.86730484       -0.00000000       -0.00000002
C           0.86730483        0.00000000        0.00000003
H          -1.64130093        0.85232857        0.14624531
H          -1.64130092       -0.85232858       -0.14624541
H           1.64130095        0.85232859       -0.14624512
H           1.64130095       -0.85232857        0.14624521
6
MD Time 1400.00
C          -0.86185288       -0.00000000       -0.00000002
C           0.86185287        0.00000000        0.00000003
H          -1.62926839        0.85544342        0.15509976
H          -1.62926837       -0.85544343       -0.15509987
H           1.62926841        0.85544345       -0.15509958
H           1.62926841       -0.85544342        0.15509967
6
MD Time 1410.00
C          -0.85620617       -0.00000000       -0.00000002
C           0.85620617        0.00000000        0.00000003
H          -1.61587150        0.85847608        0.16369551
H          -1.61587148       -0.85847609       -0.16369561
H           1.61587152        0.85847611       -0.16369533
H           1.61587152       -0.85847608        0.16369542
6
MD Time 1420.00
C          -0.85036036       -0.00000000       -0.00000002
C           0.85036035        0.00000000        0.00000003
H          -1.60115198        0.86140864        0.17201370
H          -1.60115197       -0.86140865       -0.17201381
H           1.60115201        0.86140867       -0.17201352
H           1.60115201       -0.86140865        0.17201362
6
MD Time 1430.00
C          -0.84431011       -0.00000000       -0.00000002
C           0.84431010        0.00000000        0.00000003
H          -1.58516057        0.86422950        0.18003639
H          -1.58516055       -0.86422951       -0.18003650
H           1.58516059        0.86422953       -0.18003622
H           1.58516059       -0.86422951        0.18003631
6
MD Time 1440.00
C          -0.83804927       -0.00000000       -0.00000002
C           0.83804926        0.00000000        0.00000003
H          -1.56795678        0.86693362        0.18774670
H          -1.56795675       -0.86693363       -0.18774680
H           1.56795680        0.86693365       -0.18774653
H           1.56795679       -0.86693363        0.18774662
6
MD Time 1450.00
C          -0.83157093       -0.00000000       -0.00000002
C           0.83157093        0.00000000        0.00000002
H          -1.54960869        0.86952273        0.19512900
H          -1.54960867       -0.86952274       -0.19512910
H           1.54960871        0.86952276       -0.19512883
H           1.54960871       -0.86952274        0.19512893
6
MD Time 1460.00
C          -0.82486762       -0.00000000       -0.00000002
C           0.82486762        0.00000000        0.00000002
H          -1.53019261        0.87200548        0.20216906
H          -1.53019259       -0.87200549       -0.20216916
H           1.53019263        0.87200552       -0.20216890
H           1.53019263       -0.87200549        0.20216899
6
MD Time 1470.00
C          -0.81793142       -0.00000000       -0.00000002
C           0.81793141        0.00000000        0.00000002
H          -1.50979263        0.87439749        0.20885415
H          -1.50979260       -0.87439750       -0.20885425
H           1.50979265        0.87439753       -0.20885400
H           1.50979264       -0.87439751        0.20885409
6
MD Time 1480.00
C          -0.81075419       -0.00000000       -0.00000002
C           0.81075419        0.00000000        0.00000002
H          -1.48850006        0.87672127        0.21517312
H          -1.48850004       -0.87672128       -0.21517322
H           1.48850008        0.87672131       -0.21517297
H           1.48850007       -0.87672128        0.21517307
6
MD Time 1490.00
C          -0.80332785       -0.00000000       -0.00000002
C           0.80332785        0.00000000        0.00000002
H          -1.46641280        0.87900593        0.22111641
H          -1.46641278       -0.87900594       -0.22111652
H           1.46641282        0.87900597       -0.22111628
H           1.46641281       -0.87900594        0.22111638
6
MD Time 1500.00
C          -0.79564463       -0.00000000       -0.00000002
C           0.79564462        0.00000000        0.00000002
H          -1.44363446        0.88128677        0.22667603
H          -1.44363443       -0.88128678       -0.22667614
H           1.44363448        0.88128681       -0.22667590
H           1.44363447       -0.88128679        0.22667600
6
MD Time 1510.00
C          -0.78769742       -0.00000000       -0.00000002
C           0.78769742        0.00000000        0.00000002
H          -1.42027336        0.88360458        0.23184540
H          -1.42027334       -0.88360459       -0.23184551
H           1.42027338        0.88360462       -0.23184528
H           1.42027337       -0.88360460        0.23184538
6
MD Time 1520.00
C          -0.77948024       -0.00000000       -0.00000002
C           0.77948023        0.00000000        0.00000002
H          -1.39644145        0.88600466        0.23661920
H          -1.39644142       -0.88600467       -0.23661931
H           1.39644147        0.88600470       -0.23661909
H           1.39644145       -0.88600468        0.23661919
6
MD Time 1530.00
C          -0.77098859       -0.00000000       -0.00000002
C           0.77098859        0.00000000        0.00000002
H          -1.37225296        0.88853563        0.24099307
H          -1.37225293       -0.88853564       -0.24099317
H           1.37225297        0.88853567       -0.24099296
H           1.37225296       -0.88853565        0.24099307
6
MD Time 1540.00
C          -0.76222008       -0.00000000       -0.00000002
C           0.76222008        0.00000000        0.00000002
H          -1.34782304        0.89124792        0.24496324
H          -1.34782301       -0.89124793       -0.24496334
H           1.34782305        0.89124796       -0.24496314
H           1.34782304       -0.89124794        0.24496325
6
MD Time 1550.00
C          -0.75317490       -0.00000000       -0.00000002
C           0.75317490        0.00000000        0.00000002
H          -1.32326633        0.89419203        0.24852614
H          -1.32326630       -0.89419204       -0.24852624
H           1.32326634        0.89419208       -0.24852605
H           1.32326633       -0.89419206        0.24852616
6
MD Time 1560.00
C          -0.74385651       -0.00000000       -0.00000002
C           0.74385650        0.00000000        0.00000002
H          -1.29869547        0.89741663        0.25167789
H          -1.29869543       -0.89741664       -0.25167800
H           1.29869547        0.89741667       -0.25167781
H           1.29869545       -0.89741665        0.25167792
6
MD Time 1570.00
C          -0.73427222       -0.00000000       -0.00000002
C           0.73427221        0.00000000        0.00000002
H          -1.27421968        0.90096647        0.25441384
H          -1.27421964       -0.90096649       -0.25441394
H           1.27421968        0.90096652       -0.25441377
H           1.27421966       -0.90096650        0.25441387
6
MD Time 1580.00
C          -0.72443392       -0.00000000       -0.00000002
C           0.72443392        0.00000000        0.00000002
H          -1.24994353        0.90488040        0.25672803
H          -1.24994350       -0.90488042       -0.25672814
H           1.24994353        0.90488044       -0.25672797
H           1.24994351       -0.90488043        0.25672808
6
MD Time 1590.00
C          -0.71435877       -0.00000000       -0.00000002
C           0.71435877        0.00000000        0.00000002
H          -1.22596583        0.90918937        0.25861284
H          -1.22596579       -0.90918938       -0.25861295
H           1.22596582        0.90918941       -0.25861279
H           1.22596580       -0.90918939        0.25861290
6
MD Time 1600.00
C          -0.70406986       -0.00000000       -0.00000002
C           0.70406986        0.00000000        0.00000002
H          -1.20237873        0.91391470        0.26005860
H          -1.20237869       -0.91391472       -0.26005871
H           1.20237872        0.91391474       -0.26005856
H           1.20237870       -0.91391473        0.26005867
6
MD Time 1610.00
C          -0.69359693       -0.00000000       -0.00000002
C           0.69359693        0.00000000        0.00000002
H          -1.17926723        0.91906675        0.26105343
H          -1.17926720       -0.91906677       -0.26105353
H           1.17926722        0.91906679       -0.26105340
H           1.17926720       -0.91906677        0.26105351
6
MD Time 1620.00
C          -0.68297706       -0.00000000       -0.00000002
C           0.68297706        0.00000000        0.00000002
H          -1.15670888        0.92464389        0.26158318
H          -1.15670884       -0.92464391       -0.26158328
H           1.15670886        0.92464393       -0.26158315
H           1.15670884       -0.92464392        0.26158327
6
MD Time 1630.00
C          -0.67225523       -0.00000000       -0.00000002
C           0.67225523        0.00000000        0.00000002
H          -1.13477380        0.93063207        0.26163161
H          -1.13477376       -0.93063209       -0.26163171
H           1.13477378        0.93063210       -0.26163160
H           1.13477376       -0.93063209        0.26163171
6
MD Time 1640.00
C          -0.66148496       -0.00000000       -0.00000002
C           0.66148496        0.00000000        0.00000002
H          -1.11352507        0.93700484        0.26118073
H          -1.11352503       -0.93700486       -0.26118084
H           1.11352504        0.93700487       -0.26118073
H           1.11352502       -0.93700486        0.26118084
6
MD Time 1650.00
C          -0.65072872       -0.00000000       -0.00000002
C           0.65072873        0.00000000        0.00000002
H          -1.09301926        0.94372394        0.26021129
H          -1.09301922       -0.94372395       -0.26021139
H           1.09301923        0.94372396       -0.26021130
H           1.09301921       -0.94372395        0.26021141
6
MD Time 1660.00
C          -0.64005829       -0.00000000       -0.00000002
C           0.64005829        0.00000000        0.00000002
H          -1.07330725        0.95074025        0.25870344
H          -1.07330721       -0.95074027       -0.25870354
H           1.07330722        0.95074027       -0.25870345
H           1.07330720       -0.95074027        0.25870357
6
MD Time 1670.00
C          -0.62955482       -0.00000000       -0.00000002
C           0.62955482        0.00000000        0.00000002
H          -1.05443512        0.95799526        0.25663746
H          -1.05443508       -0.95799527       -0.25663756
H           1.05443508        0.95799528       -0.25663748
H           1.05443506       -0.95799527        0.25663760
6
MD Time 1680.00
C          -0.61930869       -0.00000000       -0.00000002
C           0.61930869        0.00000000        0.00000002
H          -1.03644514        0.96542269        0.25399462
H          -1.03644510       -0.96542270       -0.25399472
H           1.03644510        0.96542271       -0.25399465
H           1.03644508       -0.96542270        0.25399477
6
MD Time 1690.00
C          -0.60941893       -0.00000000       -0.00000002
C           0.60941893        0.00000000        0.00000002
H          -1.01937677        0.97295041        0.25075796
H          -1.01937672       -0.97295042       -0.25075806
H           1.01937672        0.97295042       -0.25075800
H           1.01937670       -0.97295041        0.25075812
6
MD Time 1700.00
C          -0.59999219       -0.00000000       -0.00000002
C           0.59999220        0.00000000        0.00000002
H          -1.00326757        0.98050237        0.24691308
H          -1.00326752       -0.98050238       -0.24691318
H           1.00326752        0.98050238       -0.24691312
H           1.00326749       -0.98050237        0.24691325
6
MD Time 1710.00
C          -0.59114110       -0.00000000       -0.00000002
C           0.59114111        0.00000000        0.00000002
H          -0.98815398        0.98800063        0.24244880
H          -0.98815394       -0.98800064       -0.24244890
H           0.98815393        0.98800064       -0.24244885
H           0.98815391       -0.98800063        0.24244898
6
MD Time 1720.00
C          -0.58298200       -0.00000000       -0.00000002
C           0.58298201        0.00000000        0.00000002
H          -0.97407199        0.99536720        0.23735780
H          -0.97407195       -0.99536722       -0.23735790
H           0.97407194        0.99536721       -0.23735786
H           0.97407191       -0.99536720        0.23735799
6
MD Time 1730.00
C          -0.57563191       -0.00000000       -0.00000002
C           0.57563192        0.00000000        0.00000002
H          -0.96105749        1.00252589        0.23163700
H          -0.96105744       -1.00252591       -0.23163710
H           0.96105743        1.00252590       -0.23163707
H           0.96105741       -1.00252589        0.23163720
6
MD Time 1740.00
C          -0.56920492       -0.00000000       -0.00000002
C           0.56920492        0.00000000        0.00000001
H          -0.94914650        1.00940389        0.22528786
H          -0.94914645       -1.00940390       -0.22528796
H           0.94914644        1.00940389       -0.22528793
H           0.94914641       -1.00940388        0.22528806
6
MD Time 1750.00
C          -0.56380792       -0.00000000       -0.00000002
C           0.56380793        0.00000000        0.00000001
H          -0.93837514        1.01593320        0.21831651
H          -0.93837509       -1.01593321       -0.21831661
H           0.93837508        1.01593320       -0.21831659
H           0.93837505       -1.01593319        0.21831672
6
MD Time 1760.00
C          -0.55953614       -0.00000000       -0.00000002
C           0.55953615        0.00000000        0.00000001
H          -0.92877938        1.02205191        0.21073375
H          -0.92877933       -1.02205192       -0.21073385
H           0.92877932        1.02205191       -0.21073384
H           0.92877929       -1.02205189        0.21073397
6
MD Time 1770.00
C          -0.55646856       -0.00000000       -0.00000002
C           0.55646857        0.00000000        0.00000001
H          -0.92039462        1.02770518        0.20255489
H          -0.92039457       -1.02770519       -0.20255499
H           0.92039455        1.02770518       -0.20255499
H           0.92039452       -1.02770516        0.20255513
6
MD Time 1780.00
C          -0.55466384       -0.00000000       -0.00000002
C           0.55466385        0.00000000        0.00000001
H          -0.91325509        1.03284610        0.19379951
H          -0.91325505       -1.03284611       -0.19379961
H           0.91325503        1.03284610       -0.19379961
H           0.91325500       -1.03284608        0.19379975
6
MD Time 1790.00
C          -0.55415702       -0.00000000       -0.00000002
C           0.55415703        0.00000000        0.00000001
H          -0.90739325        1.03743631        0.18449108
H          -0.90739321       -1.03743632       -0.18449118
H           0.90739319        1.03743631       -0.18449119
H           0.90739316       -1.03743629        0.18449133
6
MD Time 1800.00
C          -0.55495748       -0.00000000       -0.00000002
C           0.55495749        0.00000000        0.00000001
H          -0.90283900        1.04144639        0.17465664
H          -0.90283896       -1.04144640       -0.17465674
H           0.90283894        1.04144639       -0.17465676
H           0.90283891       -1.04144637        0.17465690
6
MD Time 1810.00
C          -0.55704828       -0.00000000       -0.00000002
C           0.55704829        0.00000000        0.00000002
H          -0.89961901        1.04485613        0.16432627
H          -0.89961897       -1.04485613       -0.16432637
H           0.89961895        1.04485613       -0.16432640
H           0.89961892       -1.04485610        0.16432653
6
MD Time 1820.00
C          -0.56038715       -0.00000000       -0.00000002
C           0.56038716        0.00000000        0.00000002
H          -0.89775606        1.04765448        0.15353267
H          -0.89775601       -1.04765449       -0.15353277
H           0.89775599        1.04765449       -0.15353280
H           0.89775597       -1.04765446        0.15353294
6
MD Time 1830.00
C          -0.56490874       -0.00000000       -0.00000002
C           0.56490875        0.00000000        0.00000002
H          -0.89726842        1.04983949        0.14231066
H          -0.89726838       -1.04983949       -0.14231076
H           0.89726836        1.04983949       -0.14231080
H           0.89726833       -1.04983947        0.14231094
6
MD Time 1840.00
C          -0.57052820       -0.00000000       -0.00000002
C           0.57052820        0.00000000        0.00000002
H          -0.89816945        1.05141784        0.13069669
H          -0.89816940       -1.05141785       -0.13069680
H           0.89816939        1.05141784       -0.13069684
H           0.89816936       -1.05141782        0.13069698
6
MD Time 1850.00
C          -0.57714533       -0.00000000       -0.00000002
C           0.57714534        0.00000000        0.00000002
H          -0.90046717        1.05240440        0.11872838
H          -0.90046713       -1.05240441       -0.11872848
H           0.90046711        1.05240441       -0.11872853
H           0.90046708       -1.05240439        0.11872868
6
MD Time 1860.00
C          -0.58464922       -0.00000000       -0.00000002
C           0.58464923        0.00000000        0.00000002
H          -0.90416412        1.05282149        0.10644401
H          -0.90416408       -1.05282150       -0.10644412
H           0.90416407        1.05282150       -0.10644417
H           0.90416404       -1.05282148        0.10644432
6
MD Time 1870.00
C          -0.59292271       -0.00000000       -0.00000002
C           0.59292271        0.00000000        0.00000002
H          -0.90925724        1.05269801        0.09388212
H          -0.90925720       -1.05269802       -0.09388223
H           0.90925718        1.05269802       -0.09388229
H           0.90925716       -1.05269800        0.09388243
6
MD Time 1880.00
C          -0.60184652       -0.00000000       -0.00000002
C           0.60184653        0.00000000        0.00000002
H          -0.91573787        1.05206841        0.08108104
H          -0.91573783       -1.05206842       -0.08108115
H           0.91573781        1.05206843       -0.08108121
H           0.91573779       -1.05206840        0.08108136
6
MD Time 1890.00
C          -0.61130280       -0.00000000       -0.00000002
C           0.61130281        0.00000000        0.00000002
H          -0.92359189        1.05097159        0.06807852
H          -0.92359185       -1.05097160       -0.06807862
H           0.92359184        1.05097161       -0.06807869
H           0.92359182       -1.05097159        0.06807884
6
MD Time 1900.00
C          -0.62117796       -0.00000000       -0.00000002
C           0.62117797        0.00000000        0.00000002
H          -0.93279988        1.04944955        0.05491137
H          -0.93279985       -1.04944957       -0.05491148
H           0.93279984        1.04944957       -0.05491155
H           0.93279982       -1.04944955        0.05491170
6
MD Time 1910.00
C          -0.63136478       -0.00000000       -0.00000002
C           0.63136479        0.00000000        0.00000002
H          -0.94333735        1.04754607        0.04161519
H          -0.94333732       -1.04754609       -0.04161530
H           0.94333731        1.04754610       -0.04161538
H           0.94333729       -1.04754608        0.04161553
6
MD Time 1920.00
C          -0.64176389       -0.00000000       -0.00000002
C           0.64176389        0.00000001        0.00000002
H          -0.95517492        1.04530523        0.02822412
H          -0.95517488       -1.04530525       -0.02822423
H           0.95517487        1.04530526       -0.02822431
H           0.95517486       -1.04530524        0.02822446
6
MD Time 1930.00
C          -0.65228465       -0.00000000       -0.00000002
C           0.65228465        0.00000001        0.00000002
H          -0.96827851        1.04276993        0.01477067
H          -0.96827848       -1.04276994       -0.01477079
H           0.96827847        1.04276995       -0.01477087
H           0.96827846       -1.04276994        0.01477102
6
MD Time 1940.00
C          -0.66284555       -0.00000001       -0.00000003
C           0.66284556        0.00000001        0.00000002
H          -0.98260953        1.03998041        0.00128568
H          -0.98260949       -1.03998043       -0.00128579
H           0.98260949        1.03998044       -0.00128588
H           0.98260948       -1.03998043        0.00128603
6
MD Time 1950.00
C          -0.67337430       -0.00000001       -0.00000003
C           0.67337430        0.00000001        0.00000002
H          -0.99812486        1.03697287       -0.01220173
H          -0.99812483       -1.03697289        0.01220161
H           0.99812482        1.03697290        0.01220153
H           0.99812481       -1.03697289       -0.01220137
6
MD Time 1960.00
C          -0.68380755       -0.00000001       -0.00000003
C           0.68380756        0.00000001        0.00000002
H          -1.01477688        1.03377812       -0.02566402
H          -1.01477685       -1.03377814        0.02566391
H           1.01477685        1.03377815        0.02566382
H           1.01477685       -1.03377815       -0.02566366
6
MD Time 1970.00
C          -0.69409057       -0.00000001       -0.00000003
C           0.69409058        0.00000001        0.00000002
H          -1.03251335        1.03042048       -0.03907512
H          -1.03251332       -1.03042050        0.03907500
H           1.03251332        1.03042052        0.03907492
H           1.03251332       -1.03042051       -0.03907476
6
MD Time 1980.00
C          -0.70417670       -0.00000001       -0.00000003
C           0.70417671        0.00000001        0.00000002
H          -1.05127719        1.02691690       -0.05241016
H          -1.05127717       -1.02691693        0.05241004
H           1.05127717        1.02691694        0.05240995
H           1.05127717       -1.02691694       -0.05240979
6
MD Time 1990.00
C          -0.71402681       -0.00000001       -0.00000003
C           0.71402681        0.00000001        0.00000003
H          -1.07100628        1.02327636       -0.06564519
H          -1.07100626       -1.02327639        0.06564507
H           1.07100626        1.02327640        0.06564498
H           1.07100626       -1.02327640       -0.06564482
6
MD Time 2000.00
C          -0.72360869       -0.00000001       -0.00000003
C           0.72360869        0.00000001        0.00000003
H          -1.09163321        1.01949958       -0.07875691
H          -1.09163319       -1.01949961        0.07875679
H           1.09163319        1.01949963        0.07875670
H           1.09163319       -1.01949962       -0.07875654
6
MD Time 2010.00
C          -0.73289651       -0.00000001       -0.00000003
C           0.73289651        0.00000001        0.00000003
H          -1.11308506        1.01557914       -0.09172233
H          -1.11308503       -1.01557916        0.09172220
H           1.11308504        1.01557918        0.09172212
H           1.11308505       -1.01557918       -0.09172195
6
MD Time 2020.00
C          -0.74187020       -0.00000001       -0.00000003
C           0.74187020        0.00000001        0.00000003
H          -1.13528331        1.01149986       -0.10451847
H          -1.13528329       -1.01149989        0.10451834
H           1.13528330        1.01149990        0.10451826
H           1.13528331       -1.01149990       -0.10451809
6
MD Time 2030.00
C          -0.75051492       -0.00000001       -0.00000003
C           0.75051492        0.00000001        0.00000003
H          -1.15814386        1.00723963       -0.11712217
H          -1.15814385       -1.00723966        0.11712203
H           1.15814385        1.00723968        0.11712195
H           1.15814387       -1.00723968       -0.11712178
6
MD Time 2040.00
C          -0.75882050       -0.00000001       -0.00000003
C           0.75882050        0.00000001        0.00000003
H          -1.18157720        1.00277045       -0.12950986
H          -1.18157718       -1.00277048        0.12950972
H           1.18157719        1.00277050        0.12950964
H           1.18157720       -1.00277050       -0.12950947
6
MD Time 2050.00
C          -0.76678093       -0.00000001       -0.00000003
C           0.76678093        0.00000001        0.00000003
H          -1.20548872        0.99805974       -0.14165753
H          -1.20548870       -0.99805977        0.14165739
H           1.20548871        0.99805978        0.14165732
H           1.20548873       -0.99805979       -0.14165714
6
MD Time 2060.00
C          -0.77439388       -0.00000001       -0.00000003
C           0.77439387        0.00000001        0.00000003
H          -1.22977928        0.99307179       -0.15354072
H          -1.22977927       -0.99307182        0.15354058
H           1.22977928        0.99307184        0.15354051
H           1.22977930       -0.99307184       -0.15354033
6
MD Time 2070.00
C          -0.78166019       -0.00000001       -0.00000003
C           0.78166019        0.00000001        0.00000003
H          -1.25434588        0.98776939       -0.16513460
H          -1.25434586       -0.98776942        0.16513445
H           1.25434588        0.98776944        0.16513439
H           1.25434590       -0.98776944       -0.16513421
6
MD Time 2080.00
C          -0.78858344       -0.00000001       -0.00000003
C           0.78858344        0.00000001        0.00000003
H          -1.27908239        0.98211537       -0.17641417
H          -1.27908238       -0.98211540        0.17641402
H           1.27908239        0.98211542        0.17641396
H           1.27908241       -0.98211542       -0.17641378
6
MD Time 2090.00
C          -0.79516951       -0.00000001       -0.00000003
C           0.79516950        0.00000001        0.00000003
H          -1.30388052        0.97607417       -0.18735448
H          -1.30388051       -0.97607420        0.18735433
H           1.30388052        0.97607421        0.18735428
H           1.30388055       -0.97607422       -0.18735410
6
MD Time 2100.00
C          -0.80142613       -0.00000001       -0.00000004
C           0.80142612        0.00000001        0.00000003
H          -1.32863072        0.96961329       -0.19793099
H          -1.32863071       -0.96961332        0.19793084
H           1.32863073        0.96961334        0.19793079
H           1.32863075       -0.96961334       -0.19793061
6
MD Time 2110.00
C          -0.80736254       -0.00000001       -0.00000004
C           0.80736253        0.00000001        0.00000003
H          -1.35322316        0.96270458       -0.20811983
H          -1.35322316       -0.96270462        0.20811968
H           1.35322317        0.96270463        0.20811964
H           1.35322320       -0.96270463       -0.20811945
6
MD Time 2120.00
C          -0.81298911       -0.00000001       -0.00000004
C           0.81298910        0.00000001        0.00000003
H          -1.37754871        0.95532538       -0.21789821
H          -1.37754870       -0.95532541        0.21789805
H           1.37754872        0.95532543        0.21789802
H           1.37754875       -0.95532543       -0.21789783
6
MD Time 2130.00
C          -0.81831700       -0.00000001       -0.00000004
C           0.81831699        0.00000001        0.00000003
H          -1.40149984        0.94745940       -0.22724474
H          -1.40149984       -0.94745944        0.22724457
H           1.40149986        0.94745945        0.22724456
H           1.40149989       -0.94745945       -0.22724436
6
MD Time 2140.00
C          -0.82335789       -0.00000001       -0.00000004
C           0.82335789        0.00000001        0.00000003
H          -1.42497155        0.93909748       -0.23613978
H          -1.42497155       -0.93909752        0.23613961
H           1.42497157        0.93909753        0.23613961
H           1.42497160       -0.93909753       -0.23613941
6
MD Time 2150.00
C          -0.82812369       -0.00000001       -0.00000004
C           0.82812369        0.00000001        0.00000003
H          -1.44786214        0.93023809       -0.24456579
H          -1.44786214       -0.93023813        0.24456562
H           1.44786216        0.93023814        0.24456562
H           1.44786219       -0.93023814       -0.24456542
6
MD Time 2160.00
C          -0.83262633       -0.00000001       -0.00000004
C           0.83262632        0.00000001        0.00000004
H          -1.47007401        0.92088768       -0.25250757
H          -1.47007401       -0.92088772        0.25250740
H           1.47007403        0.92088773        0.25250742
H           1.47007406       -0.92088773       -0.25250722
6
MD Time 2170.00
C          -0.83687752       -0.00000001       -0.00000004
C           0.83687751        0.00000001        0.00000004
H          -1.49151429        0.91106088       -0.25995260
H          -1.49151429       -0.91106091        0.25995243
H           1.49151431        0.91106092        0.25995245
H           1.49151434       -0.91106092       -0.25995225
6
MD Time 2180.00
C          -0.84088861       -0.00000001       -0.00000004
C           0.84088860        0.00000001        0.00000004
H          -1.51209548        0.90078049       -0.26689119
H          -1.51209548       -0.90078053        0.26689101
H           1.51209550        0.90078054        0.26689105
H           1.51209553       -0.90078053       -0.26689085
6
MD Time 2190.00
C          -0.84467042       -0.00000001       -0.00000004
C           0.84467041        0.00000001        0.00000004
H          -1.53173595        0.89007748       -0.27331673
H          -1.53173596       -0.89007751        0.27331655
H           1.53173598        0.89007752        0.27331660
H           1.53173601       -0.89007752       -0.27331640
6
MD Time 2200.00
C          -0.84823311       -0.00000001       -0.00000004
C           0.84823311        0.00000001        0.00000004
H          -1.55036047        0.87899076       -0.27922585
H          -1.55036048       -0.87899079        0.27922567
H           1.55036049        0.87899080        0.27922573
H           1.55036052       -0.87899079       -0.27922554
6
MD Time 2210.00
C          -0.85158609       -0.00000001       -0.00000004
C           0.85158608        0.00000001        0.00000004
H          -1.56790057        0.86756698       -0.28461855
H          -1.56790057       -0.86756702        0.28461837
H           1.56790059        0.86756702        0.28461845
H           1.56790062       -0.86756701       -0.28461825
6
MD Time 2220.00
C          -0.85473787       -0.00000001       -0.00000004
C           0.85473786        0.00000001        0.00000004
H          -1.58429496        0.85586024       -0.28949832
H          -1.58429497       -0.85586028        0.28949813
H           1.58429499        0.85586028        0.28949822
H           1.58429502       -0.85586027       -0.28949802
6
MD Time 2230.00
C          -0.85769602       -0.00000001       -0.00000004
C           0.85769601        0.00000001        0.00000004
H          -1.59948989        0.84393173       -0.29387220
H          -1.59948989       -0.84393177        0.29387201
H           1.59948991        0.84393176        0.29387212
H           1.59948994       -0.84393175       -0.29387192
6
MD Time 2240.00
C          -0.86046707       -0.00000001       -0.00000004
C           0.86046707        0.00000001        0.00000004
H          -1.61343942        0.83184937       -0.29775088
H          -1.61343942       -0.83184940        0.29775070
H           1.61343944        0.83184940        0.29775081
H           1.61343947       -0.83184939       -0.29775061
6
MD Time 2250.00
C          -0.86305647       -0.00000001       -0.00000004
C           0.86305646        0.00000001        0.00000004
H          -1.62610578        0.81968741       -0.30114871
H          -1.62610579       -0.81968745        0.30114853
H           1.62610580        0.81968745        0.30114866
H           1.62610583       -0.81968743       -0.30114846
6
MD Time 2260.00
C          -0.86546847       -0.00000001       -0.00000004
C           0.86546846        0.00000001        0.00000004
H          -1.63745962        0.80752602       -0.30408369
H          -1.63745963       -0.80752606        0.30408351
H           1.63745964        0.80752605        0.30408365
H           1.63745967       -0.80752604       -0.30408346
6
MD Time 2270.00
C          -0.86770610       -0.00000001       -0.00000004
C           0.86770609        0.00000001        0.00000004
H          -1.64748025        0.79545078       -0.30657746
H          -1.64748025       -0.79545082        0.30657727
H           1.64748026        0.79545081        0.30657744
H           1.64748029       -0.79545080       -0.30657724
6
MD Time 2280.00
C          -0.86977113       -0.00000001       -0.00000004
C           0.86977112        0.00000001        0.00000004
H          -1.65615587        0.78355221       -0.30865518
H          -1.65615588       -0.78355225        0.30865500
H           1.65615589        0.78355224        0.30865517
H           1.65615592       -0.78355222       -0.30865498
6
MD Time 2290.00
C          -0.87166398       -0.00000001       -0.00000004
C           0.87166398        0.00000001        0.00000004
H          -1.66348378        0.77192518       -0.31034545
H          -1.66348379       -0.77192522        0.31034526
H           1.66348379        0.77192520        0.31034546
H           1.66348382       -0.77192518       -0.31034526
6
MD Time 2300.00
C          -0.87338374       -0.00000001       -0.00000004
C           0.87338373        0.00000001        0.00000004
H          -1.66947043        0.76066830       -0.31168006
H          -1.66947044       -0.76066834        0.31167987
H           1.66947044        0.76066832        0.31168008
H           1.66947047       -0.76066830       -0.31167989
6
MD Time 2310.00
C          -0.87492807       -0.00000001       -0.00000004
C           0.87492807        0.00000001        0.00000004
H          -1.67413152        0.74988322       -0.31269375
H          -1.67413152       -0.74988327        0.31269356
H           1.67413152        0.74988324        0.31269379
H           1.67413155       -0.74988322       -0.31269360
6
MD Time 2320.00
C          -0.87629330       -0.00000001       -0.00000004
C           0.87629330        0.00000001        0.00000004
H          -1.67749185        0.73967380       -0.31342385
H          -1.67749185       -0.73967384        0.31342367
H           1.67749185        0.73967381        0.31342391
H           1.67749188       -0.73967379       -0.31342372
6
MD Time 2330.00
C          -0.87747434       -0.00000001       -0.00000004
C           0.87747434        0.00000001        0.00000004
H          -1.67958514        0.73014517       -0.31390982
H          -1.67958515       -0.73014521        0.31390964
H           1.67958514        0.73014518        0.31390990
H           1.67958517       -0.73014516       -0.31390971
6
MD Time 2340.00
C          -0.87846480       -0.00000001       -0.00000004
C           0.87846480        0.00000001        0.00000004
H          -1.68045363        0.72140270       -0.31419267
H          -1.68045363       -0.72140275        0.31419249
H           1.68045362        0.72140271        0.31419277
H           1.68045365       -0.72140269       -0.31419258
6
MD Time 2350.00
C          -0.87925706       -0.00000001       -0.00000004
C           0.87925706        0.00000001        0.00000004
H          -1.68014739        0.71355076       -0.31431429
H          -1.68014739       -0.71355080        0.31431410
H           1.68014738        0.71355075        0.31431440
H           1.68014740       -0.71355074       -0.31431422
6
MD Time 2360.00
C          -0.87984235       -0.00000001       -0.00000004
C           0.87984235        0.00000001        0.00000004
H          -1.67872350        0.70669130       -0.31431663
H          -1.67872351       -0.70669135        0.31431644
H           1.67872349        0.70669130        0.31431676
H           1.67872352       -0.70669128       -0.31431658
6
MD Time 2370.00
C          -0.88021100       -0.00000001       -0.00000004
C           0.88021101        0.00000001        0.00000004
H          -1.67624491        0.70092237       -0.31424081
H          -1.67624491       -0.70092241        0.31424063
H           1.67624489        0.70092236        0.31424096
H           1.67624492       -0.70092234       -0.31424078
6
MD Time 2380.00
C          -0.88035259       -0.00000001       -0.00000004
C           0.88035260        0.00000001        0.00000004
H          -1.67277894        0.69633631       -0.31412610
H          -1.67277894       -0.69633636        0.31412592
H           1.67277891        0.69633629        0.31412626
H           1.67277894       -0.69633628       -0.31412609
6
MD Time 2390.00
C          -0.88025625       -0.00000001       -0.00000004
C           0.88025626        0.00000001        0.00000004
H          -1.66839563        0.69301795       -0.31400879
H          -1.66839564       -0.69301800        0.31400861
H           1.66839561        0.69301792        0.31400897
H           1.66839563       -0.69301791       -0.31400880
6
MD Time 2400.00
C          -0.87991098       -0.00000001       -0.00000004
C           0.87991098        0.00000001        0.00000004
H          -1.66316579        0.69104259       -0.31392107
H          -1.66316579       -0.69104264        0.31392089
H           1.66316575        0.69104256        0.31392128
H           1.66316578       -0.69104255       -0.31392111
6
MD Time 2410.00
C          -0.87930596       -0.00000001       -0.00000004
C           0.87930596        0.00000001        0.00000004
H          -1.65715882        0.69047400       -0.31388991
H          -1.65715882       -0.69047405        0.31388973
H           1.65715878        0.69047396        0.31389013
H           1.65715881       -0.69047395       -0.31388997
6
MD Time 2420.00
C          -0.87843095       -0.00000001       -0.00000004
C           0.87843096        0.00000001        0.00000004
H          -1.65044057        0.69136237       -0.31393591
H          -1.65044058       -0.69136242        0.31393574
H           1.65044053        0.69136232        0.31393616
H           1.65044056       -0.69136231       -0.31393600
6
MD Time 2430.00
C          -0.87727664       -0.00000001       -0.00000004
C           0.87727665        0.00000001        0.00000004
H          -1.64307116        0.69374240       -0.31407237
H          -1.64307116       -0.69374245        0.31407220
H           1.64307111        0.69374235        0.31407263
H           1.64307114       -0.69374234       -0.31407248
6
MD Time 2440.00
C          -0.87583496       -0.00000000       -0.00000004
C           0.87583497        0.00000001        0.00000004
H          -1.63510299        0.69763161       -0.31430445
H          -1.63510300       -0.69763166        0.31430428
H           1.63510294        0.69763155        0.31430474
H           1.63510297       -0.69763154       -0.31430459
6
MD Time 2450.00
C          -0.87409939       -0.00000000       -0.00000004
C           0.87409940        0.00000001        0.00000004
H          -1.62657914        0.70302887       -0.31462863
H          -1.62657914       -0.70302893        0.31462846
H           1.62657909        0.70302881        0.31462893
H           1.62657911       -0.70302880       -0.31462879
6
MD Time 2460.00
C          -0.87206515       -0.00000000       -0.00000004
C           0.87206516        0.00000001        0.00000004
H          -1.61753216        0.70991347       -0.31503239
H          -1.61753216       -0.70991352        0.31503223
H           1.61753210        0.70991340        0.31503272
H           1.61753213       -0.70991339       -0.31503258
6
MD Time 2470.00
C          -0.86972933       -0.00000000       -0.00000004
C           0.86972934        0.00000001        0.00000004
H          -1.60798351        0.71824452       -0.31549431
H          -1.60798351       -0.71824457        0.31549414
H           1.60798345        0.71824444        0.31549465
H           1.60798347       -0.71824443       -0.31549451
6
MD Time 2480.00
C          -0.86709089       -0.00000000       -0.00000004
C           0.86709090        0.00000001        0.00000004
H          -1.59794358        0.72796104       -0.31598436
H          -1.59794358       -0.72796109        0.31598420
H           1.59794351        0.72796095        0.31598473
H           1.59794353       -0.72796094       -0.31598459
6
MD Time 2490.00
C          -0.86415059       -0.00000000       -0.00000004
C           0.86415060        0.00000001        0.00000004
H          -1.58741237        0.73898257       -0.31646472
H          -1.58741237       -0.73898262        0.31646456
H           1.58741230        0.73898247        0.31646511
H           1.58741232       -0.73898247       -0.31646497
6
MD Time 2500.00
C          -0.86091080       -0.00000000       -0.00000004
C           0.86091081        0.00000001        0.00000004
H          -1.57638077        0.75121038       -0.31689068
H          -1.57638076       -0.75121044        0.31689052
H           1.57638069        0.75121028        0.31689109
H           1.57638072       -0.75121027       -0.31689096
6
MD Time 2510.00
C          -0.85737526       -0.00000000       -0.00000004
C           0.85737527        0.00000001        0.00000004
H          -1.56483225        0.76452922       -0.31721197
H          -1.56483225       -0.76452927        0.31721181
H           1.56483218        0.76452911        0.31721239
H           1.56483220       -0.76452910       -0.31721227
6
MD Time 2520.00
C          -0.85354875       -0.00000000       -0.00000004
C           0.85354876        0.00000001        0.00000004
H          -1.55274499        0.77880950       -0.31737411
H          -1.55274498       -0.77880955        0.31737396
H           1.55274491        0.77880938        0.31737456
H           1.55274493       -0.77880938       -0.31737444
6
MD Time 2530.00
C          -0.84943679       -0.00000000       -0.00000004
C           0.84943680        0.00000001        0.00000004
H          -1.54009405        0.79390988       -0.31732000
H          -1.54009404       -0.79390994        0.31731985
H           1.54009397        0.79390976        0.31732047
H           1.54009399       -0.79390975       -0.31732035
6
MD Time 2540.00
C          -0.84504528       -0.00000000       -0.00000004
C           0.84504529        0.00000001        0.00000004
H          -1.52685367        0.80968006       -0.31699137
H          -1.52685366       -0.80968011        0.31699122
H           1.52685359        0.80967993        0.31699186
H           1.52685361       -0.80967992       -0.31699174
6
MD Time 2550.00
C          -0.84038021       -0.00000000       -0.00000004
C           0.84038022        0.00000001        0.00000004
H          -1.51299935        0.82596362       -0.31633029
H          -1.51299934       -0.82596367        0.31633014
H           1.51299928        0.82596348        0.31633080
H           1.51299929       -0.82596347       -0.31633068
6
MD Time 2560.00
C          -0.83544744       -0.00000000       -0.00000004
C           0.83544745        0.00000001        0.00000004
H          -1.49850976        0.84260095       -0.31528048
H          -1.49850974       -0.84260100        0.31528033
H           1.49850968        0.84260081        0.31528101
H           1.49850969       -0.84260080       -0.31528090
6
MD Time 2570.00
C          -0.83025245       -0.00000000       -0.00000004
C           0.83025246        0.00000001        0.00000004
H          -1.48336823        0.85943193       -0.31378851
H          -1.48336821       -0.85943198        0.31378837
H           1.48336815        0.85943179        0.31378906
H           1.48336816       -0.85943178       -0.31378895
6
MD Time 2580.00
C          -0.82480023       -0.00000000       -0.00000004
C           0.82480024        0.00000001        0.00000004
H          -1.46756403        0.87629844       -0.31180476
H          -1.46756401       -0.87629849        0.31180461
H           1.46756395        0.87629829        0.31180531
H           1.46756396       -0.87629828       -0.31180520
6
MD Time 2590.00
C          -0.81909523       -0.00000000       -0.00000004
C           0.81909524        0.00000001        0.00000004
H          -1.45109319        0.89304658       -0.30928416
H          -1.45109317       -0.89304663        0.30928402
H           1.45109312        0.89304643        0.30928474
H           1.45109312       -0.89304642       -0.30928463
6
MD Time 2600.00
C          -0.81314133       -0.00000000       -0.00000004
C           0.81314134        0.00000001        0.00000004
H          -1.43395909        0.90952860       -0.30618686
H          -1.43395907       -0.90952864        0.30618672
H           1.43395902        0.90952844        0.30618745
H           1.43395902       -0.90952843       -0.30618734
6
MD Time 2610.00
C          -0.80694193       -0.00000000       -0.00000004
C           0.80694194        0.00000001        0.00000004
H          -1.41617268        0.92560445       -0.30247850
H          -1.41617266       -0.92560450        0.30247836
H           1.41617261        0.92560429        0.30247910
H           1.41617262       -0.92560428       -0.30247900
6
MD Time 2620.00
C          -0.80050001       -0.00000000       -0.00000004
C           0.80050002        0.00000001        0.00000004
H          -1.39775258        0.94114313       -0.29813053
H          -1.39775255       -0.94114317        0.29813040
H           1.39775251        0.94114297        0.29813115
H           1.39775251       -0.94114296       -0.29813104
6
MD Time 2630.00
C          -0.79381830       -0.00000000       -0.00000004
C           0.79381831        0.00000001        0.00000004
H          -1.37872494        0.95602364       -0.29312027
H          -1.37872491       -0.95602369        0.29312013
H           1.37872487        0.95602349        0.29312089
H           1.37872487       -0.95602347       -0.29312078
6
MD Time 2640.00
C          -0.78689949       -0.00000000       -0.00000004
C           0.78689949        0.00000001        0.00000004
H          -1.35912322        0.97013584       -0.28743086
H          -1.35912319       -0.97013588        0.28743073
H           1.35912315        0.97013568        0.28743149
H           1.35912315       -0.97013567       -0.28743139
6
MD Time 2650.00
C          -0.77974638       -0.00000000       -0.00000003
C           0.77974639        0.00000001        0.00000004
H          -1.33898791        0.98338095       -0.28105124
H          -1.33898787       -0.98338099        0.28105111
H           1.33898785        0.98338080        0.28105188
H           1.33898784       -0.98338078       -0.28105178
6
MD Time 2660.00
C          -0.77236221       -0.00000000       -0.00000003
C           0.77236222        0.00000001        0.00000004
H          -1.31836617        0.99567206       -0.27397593
H          -1.31836613       -0.99567210        0.27397580
H           1.31836611        0.99567190        0.27397657
H           1.31836611       -0.99567189       -0.27397647
6
MD Time 2670.00
C          -0.76475084       -0.00000000       -0.00000003
C           0.76475084        0.00000001        0.00000004
H          -1.29731152        1.00693440       -0.26620484
H          -1.29731148       -1.00693444        0.26620471
H           1.29731146        1.00693425        0.26620549
H           1.29731146       -1.00693424       -0.26620538
6
MD Time 2680.00
C          -0.75691709       -0.00000000       -0.00000003
C           0.75691709        0.00000001        0.00000004
H          -1.27588348        1.01710566       -0.25774306
H          -1.27588344       -1.01710570        0.25774293
H           1.27588344        1.01710551        0.25774370
H           1.27588343       -1.01710550       -0.25774360
6
MD Time 2690.00
C          -0.74886705       -0.00000000       -0.00000003
C           0.74886705        0.00000001        0.00000003
H          -1.25414732        1.02613611       -0.24860058
H          -1.25414728       -1.02613614        0.24860045
H           1.25414728        1.02613596        0.24860122
H           1.25414727       -1.02613595       -0.24860112
6
MD Time 2700.00
C          -0.74060840       -0.00000000       -0.00000003
C           0.74060840        0.00000001        0.00000003
H          -1.23217372        1.03398884       -0.23879207
H          -1.23217368       -1.03398888        0.23879194
H           1.23217369        1.03398870        0.23879271
H           1.23217367       -1.03398869       -0.23879261
6
MD Time 2710.00
C          -0.73215077       -0.00000000       -0.00000003
C           0.73215078        0.00000001        0.00000003
H          -1.21003858        1.04063993       -0.22833656
H          -1.21003854       -1.04063997        0.22833644
H           1.21003855        1.04063980        0.22833720
H           1.21003854       -1.04063980       -0.22833710
6
MD Time 2720.00
C          -0.72350616       -0.00000000       -0.00000003
C           0.72350616        0.00000001        0.00000003
H          -1.18782278        1.04607861       -0.21725723
H          -1.18782274       -1.04607865        0.21725710
H           1.18782276        1.04607849        0.21725786
H           1.18782274       -1.04607848       -0.21725775
6
MD Time 2730.00
C          -0.71468929       -0.00000000       -0.00000003
C           0.71468929        0.00000001        0.00000003
H          -1.16561197        1.05030744       -0.20558103
H          -1.16561193       -1.05030747        0.20558091
H           1.16561195        1.05030732        0.20558165
H           1.16561194       -1.05030731       -0.20558155
6
MD Time 2740.00
C          -0.70571809       -0.00000000       -0.00000003
C           0.70571809        0.00000001        0.00000003
H          -1.14349641        1.05334246       -0.19333847
H          -1.14349636       -1.05334249        0.19333835
H           1.14349639        1.05334235        0.19333908
H           1.14349637       -1.05334235       -0.19333898
6
MD Time 2750.00
C          -0.69661411       -0.00000000       -0.00000003
C           0.69661410        0.00000001        0.00000003
H          -1.12157073        1.05521340       -0.18056324
H          -1.12157068       -1.05521343        0.18056312
H           1.12157072        1.05521330        0.18056384
H           1.12157070       -1.05521330       -0.18056374
6
MD Time 2760.00
C          -0.68740301       -0.00000000       -0.00000003
C           0.68740301        0.00000001        0.00000003
H          -1.09993378        1.05596372       -0.16729188
H          -1.09993373       -1.05596375        0.16729177
H           1.09993377        1.05596363        0.16729247
H           1.09993375       -1.05596363       -0.16729236
6
MD Time 2770.00
C          -0.67811505       -0.00000000       -0.00000003
C           0.67811505        0.00000001        0.00000003
H          -1.07868837        1.05565066       -0.15356341
H          -1.07868832       -1.05565069        0.15356330
H           1.07868837        1.05565058        0.15356399
H           1.07868835       -1.05565058       -0.15356388
6
MD Time 2780.00
C          -0.66878553       -0.00000000       -0.00000002
C           0.66878553        0.00000001        0.00000002
H          -1.05794100        1.05434512       -0.13941893
H          -1.05794095       -1.05434516        0.13941882
H           1.05794101        1.05434506        0.13941948
H           1.05794099       -1.05434506       -0.13941938
6
MD Time 2790.00
C          -0.65945523       -0.00000000       -0.00000002
C           0.65945523        0.00000001        0.00000002
H          -1.03780152        1.05213139       -0.12490111
H          -1.03780147       -1.05213142        0.12490101
H           1.03780154        1.05213134        0.12490165
H           1.03780152       -1.05213134       -0.12490154
6
MD Time 2800.00
C          -0.65017081       -0.00000000       -0.00000002
C           0.65017080        0.00000001        0.00000002
H          -1.01838270        1.04910658       -0.11005378
H          -1.01838265       -1.04910661        0.11005368
H           1.01838271        1.04910654        0.11005430
H           1.01838269       -1.04910654       -0.11005419
6
MD Time 2810.00
C          -0.64098507       -0.00000000       -0.00000002
C           0.64098506        0.00000001        0.00000002
H          -0.99979959        1.04537979       -0.09492132
H          -0.99979954       -1.04537982        0.09492121
H           0.99979961        1.04537975        0.09492181
H           0.99979959       -1.04537976       -0.09492170
6
MD Time 2820.00
C          -0.63195715       -0.00000000       -0.00000002
C           0.63195714        0.00000001        0.00000002
H          -0.98216882        1.04107085       -0.07954808
H          -0.98216877       -1.04107088        0.07954798
H           0.98216885        1.04107083        0.07954856
H           0.98216883       -1.04107083       -0.07954844
6
MD Time 2830.00
C          -0.62315245       -0.00000000       -0.00000002
C           0.62315244        0.00000001        0.00000002
H          -0.96560759        1.03630866       -0.06397785
H          -0.96560754       -1.03630869        0.06397775
H           0.96560762        1.03630865        0.06397831
H           0.96560760       -1.03630866       -0.06397819
6
MD Time 2840.00
C          -0.61464237       -0.00000000       -0.00000002
C           0.61464236        0.00000001        0.00000002
H          -0.95023240        1.03122897       -0.04825321
H          -0.95023235       -1.03122900        0.04825311
H           0.95023243        1.03122896        0.04825364
H           0.95023241       -1.03122897       -0.04825352
6
MD Time 2850.00
C          -0.60650374       -0.00000000       -0.00000002
C           0.60650373        0.00000001        0.00000002
H          -0.93615753        1.02597164       -0.03241502
H          -0.93615748       -1.02597167        0.03241492
H           0.93615757        1.02597165        0.03241542
H           0.93615755       -1.02597166       -0.03241530
6
MD Time 2860.00
C          -0.59881785       -0.00000000       -0.00000002
C           0.59881785        0.00000001        0.00000002
H          -0.92349325        1.02067747       -0.01650195
H          -0.92349320       -1.02067749        0.01650186
H           0.92349329        1.02067749        0.01650233
H           0.92349327       -1.02067750       -0.01650220
6
MD Time 2870.00
C          -0.59166914       -0.00000000       -0.00000002
C           0.59166913        0.00000001        0.00000001
H          -0.91234375        1.01548444       -0.00055026
H          -0.91234371       -1.01548446        0.00055016
H           0.91234380        1.01548446        0.00055061
H           0.91234378       -1.01548447       -0.00055048
6
MD Time 2880.00
C          -0.58514337       -0.00000000       -0.00000002
C           0.58514336        0.00000001        0.00000001
H          -0.90280493        1.01052376        0.01540639
H          -0.90280489       -1.01052379       -0.01540648
H           0.90280498        1.01052380       -0.01540607
H           0.90280496       -1.01052381        0.01540620
6
MD Time 2890.00
C          -0.57932548       -0.00000000       -0.00000002
C           0.57932547        0.00000001        0.00000001
H          -0.89496204        1.00591575        0.03133671
H          -0.89496200       -1.00591577       -0.03133681
H           0.89496209        1.00591579       -0.03133642
H           0.89496207       -1.00591580        0.03133655
6
MD Time 2900.00
C          -0.57429701       -0.00000000       -0.00000001
C           0.57429700        0.00000001        0.00000001
H          -0.88888743        1.00176574        0.04721147
H          -0.88888739       -1.00176576       -0.04721156
H           0.88888748        1.00176579       -0.04721120
H           0.88888746       -1.00176579        0.04721134
6
MD Time 2910.00
C          -0.57013331       -0.00000000       -0.00000001
C           0.57013330        0.00000001        0.00000001
H          -0.88463843        0.99816044        0.06300278
H          -0.88463839       -0.99816046       -0.06300287
H           0.88463848        0.99816050       -0.06300255
H           0.88463846       -0.99816050        0.06300268
6
MD Time 2920.00
C          -0.56690067       -0.00000000       -0.00000001
C           0.56690066        0.00000001        0.00000001
H          -0.88225556        0.99516489        0.07868337
H          -0.88225552       -0.99516491       -0.07868346
H           0.88225560        0.99516495       -0.07868316
H           0.88225558       -0.99516495        0.07868330
6
MD Time 2930.00
C          -0.56465351       -0.00000000       -0.00000001
C           0.56465351        0.00000000        0.00000001
H          -0.88176120        0.99282023        0.09422559
H          -0.88176116       -0.99282025       -0.09422568
H           0.88176124        0.99282030       -0.09422542
H           0.88176122       -0.99282030        0.09422556
6
MD Time 2940.00
C          -0.56343197       -0.00000000       -0.00000001
C           0.56343196        0.00000000        0.00000001
H          -0.88315886        0.99114260        0.10960052
H          -0.88315882       -0.99114262       -0.10960061
H           0.88315890        0.99114267       -0.10960037
H           0.88315888       -0.99114266        0.10960052
6
MD Time 2950.00
C          -0.56325998       -0.00000000       -0.00000001
C           0.56325998        0.00000000        0.00000001
H          -0.88643300        0.99012303        0.12477707
H          -0.88643296       -0.99012304       -0.12477716
H           0.88643304        0.99012309       -0.12477695
H           0.88643302       -0.99012309        0.12477710
6
MD Time 2960.00
C          -0.56414420       -0.00000000       -0.00000001
C           0.56414419        0.00000000        0.00000001
H          -0.89154961        0.98972851        0.13972137
H          -0.89154958       -0.98972853       -0.13972146
H           0.89154964        0.98972858       -0.13972129
H           0.89154962       -0.98972857        0.13972144
6
MD Time 2970.00
C          -0.56607364       -0.00000000       -0.00000001
C           0.56607364        0.00000000        0.00000001
H          -0.89845730        0.98990405        0.15439634
H          -0.89845727       -0.98990406       -0.15439643
H           0.89845733        0.98990411       -0.15439629
H           0.89845731       -0.98990410        0.15439644
6
MD Time 2980.00
C          -0.56902035       -0.00000000       -0.00000001
C           0.56902035        0.00000000        0.00000000
H          -0.90708896        0.99057545        0.16876160
H          -0.90708893       -0.99057546       -0.16876169
H           0.90708898        0.99057551       -0.16876157
H           0.90708896       -0.99057549        0.16876173
6
MD Time 2990.00
C          -0.57294079       -0.00000000       -0.00000001
C           0.57294079        0.00000000        0.00000000
H          -0.91736380        0.99165271        0.18277366
H          -0.91736376       -0.99165272       -0.18277375
H           0.91736381        0.99165276       -0.18277367
H           0.91736379       -0.99165274        0.18277382
