6
MD Time 0.00
C          -1.00424993        0.00000000        0.00000000
C           1.00424993        0.00000000        0.00000000
H          -1.57974221        0.85087473        0.35244385
H          -1.57974221       -0.85087473       -0.35244385
H           1.57974221        0.85087473       -0.35244385
H           1.57974221       -0.85087473        0.35244385
6
MD Time 10.00
C          -1.00410655       -0.00000000        0.00000000
C           1.00410655        0.00000000       -0.00000000
H          -1.57963132        0.85109785        0.35238670
H          -1.57963132       -0.85109785       -0.35238670
H           1.57963132        0.85109785       -0.35238670
H           1.57963132       -0.85109785        0.35238670
6
MD Time 20.00
C          -1.00367663       -0.00000000        0.00000000
C           1.00367663        0.00000000       -0.00000000
H          -1.57929693        0.85176341        0.35221367
H          -1.57929693       -0.85176341       -0.35221367
H           1.57929693        0.85176341       -0.35221367
H           1.57929693       -0.85176341        0.35221367
6
MD Time 30.00
C          -1.00296082       -0.00000000        0.00000000
C           1.00296082        0.00000000       -0.00000000
H          -1.57873396        0.85286003        0.35192008
H          -1.57873396       -0.85286003       -0.35192008
H           1.57873396        0.85286003       -0.35192008
H           1.57873396       -0.85286003        0.35192008
6
MD Time 40.00
C          -1.00196020       -0.00000000        0.00000000
C           1.00196020        0.00000000       -0.00000000
H          -1.57793414        0.85436913        0.35149830
H          -1.57793414       -0.85436913       -0.35149830
H           1.57793414        0.85436913       -0.35149830
H           1.57793414       -0.85436913        0.35149830
6
MD Time 50.00
C          -1.00067616       -0.00000000        0.00000000
C           1.00067616        0.00000000       -0.00000000
H          -1.57688630        0.85626541        0.35093798
H          -1.57688630       -0.85626541       -0.35093798
H           1.57688630        0.85626541       -0.35093798
H           1.57688630       -0.85626541        0.35093798
6
MD Time 60.00
C          -0.99911039       -0.00000000        0.00000000
C           0.99911039        0.00000000       -0.00000000
H          -1.57557685        0.85851755        0.35022640
H          -1.57557685       -0.85851755       -0.35022640
H           1.57557685        0.85851755       -0.35022640
H           1.57557685       -0.85851755        0.35022640
6
MD Time 70.00
C          -0.99726479       -0.00000000        0.00000000
C           0.99726479        0.00000000       -0.00000000
H          -1.57399019        0.86108904        0.34934885
H          -1.57399019       -0.86108904       -0.34934885
H           1.57399019        0.86108904       -0.34934885
H           1.57399019       -0.86108904        0.34934885
6
MD Time 80.00
C          -0.99514133       -0.00000000        0.00000000
C           0.99514133        0.00000000       -0.00000000
H          -1.57210928        0.86393910        0.34828907
H          -1.57210928       -0.86393910       -0.34828907
H           1.57210928        0.86393910       -0.34828907
H           1.57210928       -0.86393910        0.34828907
6
MD Time 90.00
C          -0.99274201       -0.00000000        0.00000000
C           0.99274201        0.00000000       -0.00000000
H          -1.56991625        0.86702369        0.34702971
H          -1.56991625       -0.86702369       -0.34702971
H           1.56991625        0.86702369       -0.34702971
H           1.56991625       -0.86702369        0.34702971
6
MD Time 100.00
C          -0.99006873       -0.00000000        0.00000000
C           0.99006873        0.00000000       -0.00000000
H          -1.56739294        0.87029658        0.34555278
H          -1.56739294       -0.87029658       -0.34555278
H           1.56739294        0.87029658       -0.34555278
H           1.56739294       -0.87029658        0.34555278
6
MD Time 110.00
C          -0.98712319       -0.00000000        0.00000000
C           0.98712319       -0.00000000       -0.00000000
H          -1.56452153        0.87371035        0.34384016
H          -1.56452153       -0.87371035       -0.34384016
H           1.56452153        0.87371035       -0.34384016
H           1.56452153       -0.87371035        0.34384016
6
MD Time 120.00
C          -0.98390679       -0.00000000        0.00000000
C           0.98390679       -0.00000000       -0.00000000
H          -1.56128505        0.87721743        0.34187403
H          -1.56128505       -0.87721743       -0.34187403
H           1.56128505        0.87721743       -0.34187403
H           1.56128505       -0.87721743        0.34187403
6
MD Time 130.00
C          -0.98042059       -0.00000000        0.00000000
C           0.98042059       -0.00000000       -0.00000000
H          -1.55766791        0.88077105        0.33963725
H          -1.55766791       -0.88077105       -0.33963725
H           1.55766791        0.88077105       -0.33963725
H           1.55766791       -0.88077105        0.33963725
6
MD Time 140.00
C          -0.97666514       -0.00000000        0.00000000
C           0.97666514       -0.00000000       -0.00000000
H          -1.55365638        0.88432615        0.33711373
H          -1.55365638       -0.88432615       -0.33711373
H           1.55365638        0.88432615       -0.33711373
H           1.55365638       -0.88432615        0.33711373
6
MD Time 150.00
C          -0.97264053       -0.00000000        0.00000000
C           0.97264053       -0.00000000       -0.00000000
H          -1.54923896        0.88784019        0.33428877
H          -1.54923896       -0.88784019       -0.33428877
H           1.54923896        0.88784019       -0.33428877
H           1.54923896       -0.88784019        0.33428877
6
MD Time 160.00
C          -0.96834622       -0.00000000        0.00000000
C           0.96834622       -0.00000000       -0.00000000
H          -1.54440672        0.89127386        0.33114930
H          -1.54440672       -0.89127386       -0.33114930
H           1.54440672        0.89127386       -0.33114930
H           1.54440672       -0.89127386        0.33114930
6
MD Time 170.00
C          -0.96378110       -0.00000000        0.00000000
C           0.96378110       -0.00000000       -0.00000000
H          -1.53915358        0.89459168        0.32768406
H          -1.53915358       -0.89459168       -0.32768406
H           1.53915358        0.89459168       -0.32768406
H           1.53915358       -0.89459168        0.32768406
6
MD Time 180.00
C          -0.95894336       -0.00000000        0.00000000
C           0.95894336       -0.00000000       -0.00000000
H          -1.53347651        0.89776256        0.32388376
H          -1.53347651       -0.89776256       -0.32388376
H           1.53347651        0.89776256       -0.32388376
H           1.53347651       -0.89776256        0.32388376
6
MD Time 190.00
C          -0.95383057       -0.00000000        0.00000000
C           0.95383057       -0.00000000       -0.00000000
H          -1.52737565        0.90076017        0.31974119
H          -1.52737565       -0.90076017       -0.31974119
H           1.52737565        0.90076017       -0.31974119
H           1.52737565       -0.90076017        0.31974119
6
MD Time 200.00
C          -0.94843959       -0.00000000        0.00000000
C           0.94843959       -0.00000000       -0.00000000
H          -1.52085443        0.90356329        0.31525122
H          -1.52085443       -0.90356329       -0.31525122
H           1.52085443        0.90356329       -0.31525122
H           1.52085443       -0.90356329        0.31525122
6
MD Time 210.00
C          -0.94276662       -0.00000000        0.00000000
C           0.94276662       -0.00000000       -0.00000000
H          -1.51391956        0.90615602        0.31041078
H          -1.51391956       -0.90615602       -0.31041079
H           1.51391956        0.90615602       -0.31041078
H           1.51391956       -0.90615602        0.31041079
6
MD Time 220.00
C          -0.93680722       -0.00000000        0.00000000
C           0.93680722       -0.00000000       -0.00000000
H          -1.50658100        0.90852786        0.30521885
H          -1.50658100       -0.90852786       -0.30521885
H           1.50658100        0.90852786       -0.30521885
H           1.50658100       -0.90852786        0.30521885
6
MD Time 230.00
C          -0.93055632       -0.00000000        0.00000000
C           0.93055632       -0.00000000       -0.00000000
H          -1.49885186        0.91067378        0.29967628
H          -1.49885186       -0.91067378       -0.29967628
H           1.49885186        0.91067378       -0.29967628
H           1.49885186       -0.91067378        0.29967628
6
MD Time 240.00
C          -0.92400827       -0.00000000        0.00000000
C           0.92400827       -0.00000000       -0.00000000
H          -1.49074827        0.91259412        0.29378569
H          -1.49074827       -0.91259412       -0.29378569
H           1.49074827        0.91259412       -0.29378568
H           1.49074827       -0.91259412        0.29378569
6
MD Time 250.00
C          -0.91715691       -0.00000000        0.00000000
C           0.91715691       -0.00000000       -0.00000000
H          -1.48228916        0.91429438        0.28755127
H          -1.48228916       -0.91429438       -0.28755127
H           1.48228916        0.91429438       -0.28755126
H           1.48228916       -0.91429438        0.28755127
6
MD Time 260.00
C          -0.90999565       -0.00000000        0.00000000
C           0.90999565       -0.00000000       -0.00000000
H          -1.47349603        0.91578498        0.28097856
H          -1.47349603       -0.91578498       -0.28097856
H           1.47349603        0.91578498       -0.28097856
H           1.47349603       -0.91578498        0.28097856
6
MD Time 270.00
C          -0.90251755       -0.00000000        0.00000000
C           0.90251755       -0.00000000       -0.00000000
H          -1.46439265        0.91708085        0.27407422
H          -1.46439264       -0.91708085       -0.27407422
H           1.46439265        0.91708085       -0.27407422
H           1.46439264       -0.91708085        0.27407422
6
MD Time 280.00
C          -0.89471542       -0.00000000        0.00000000
C           0.89471542       -0.00000000       -0.00000000
H          -1.45500467        0.91820092        0.26684575
H          -1.45500467       -0.91820092       -0.26684575
H           1.45500467        0.91820092       -0.26684574
H           1.45500467       -0.91820092        0.26684575
6
MD Time 290.00
C          -0.88658200       -0.00000000        0.00000000
C           0.88658200       -0.00000000       -0.00000000
H          -1.44535930        0.91916758        0.25930120
H          -1.44535930       -0.91916758       -0.25930120
H           1.44535930        0.91916758       -0.25930120
H           1.44535930       -0.91916758        0.25930120
6
MD Time 300.00
C          -0.87811006       -0.00000000        0.00000000
C           0.87811006       -0.00000000       -0.00000000
H          -1.43548478        0.92000593        0.25144894
H          -1.43548478       -0.92000593       -0.25144894
H           1.43548478        0.92000593       -0.25144893
H           1.43548478       -0.92000593        0.25144894
6
MD Time 310.00
C          -0.86929263       -0.00000000        0.00000000
C           0.86929263       -0.00000000       -0.00000000
H          -1.42540996        0.92074303        0.24329732
H          -1.42540996       -0.92074303       -0.24329733
H           1.42540996        0.92074303       -0.24329732
H           1.42540996       -0.92074303        0.24329732
6
MD Time 320.00
C          -0.86012320       -0.00000000        0.00000000
C           0.86012320       -0.00000000       -0.00000000
H          -1.41516375        0.92140702        0.23485447
H          -1.41516375       -0.92140702       -0.23485447
H           1.41516375        0.92140702       -0.23485446
H           1.41516375       -0.92140702        0.23485447
6
MD Time 330.00
C          -0.85059595       -0.00000000        0.00000000
C           0.85059595       -0.00000000       -0.00000000
H          -1.40477461        0.92202618        0.22612803
H          -1.40477461       -0.92202618       -0.22612803
H           1.40477461        0.92202618       -0.22612802
H           1.40477461       -0.92202618        0.22612803
6
MD Time 340.00
C          -0.84070605       -0.00000000        0.00000000
C           0.84070605       -0.00000000       -0.00000000
H          -1.39426998        0.92262798        0.21712499
H          -1.39426998       -0.92262798       -0.21712500
H           1.39426998        0.92262798       -0.21712499
H           1.39426998       -0.92262798        0.21712500
6
MD Time 350.00
C          -0.83044997       -0.00000000        0.00000000
C           0.83044997       -0.00000000       -0.00000000
H          -1.38367576        0.92323807        0.20785157
H          -1.38367575       -0.92323807       -0.20785158
H           1.38367576        0.92323807       -0.20785157
H           1.38367575       -0.92323807        0.20785158
6
MD Time 360.00
C          -0.81982584       -0.00000000        0.00000000
C           0.81982584       -0.00000000       -0.00000000
H          -1.37301574        0.92387931        0.19831316
H          -1.37301574       -0.92387931       -0.19831317
H           1.37301574        0.92387931       -0.19831316
H           1.37301573       -0.92387931        0.19831317
6
MD Time 370.00
C          -0.80883388       -0.00000000        0.00000000
C           0.80883388       -0.00000000       -0.00000000
H          -1.36231116        0.92457088        0.18851434
H          -1.36231115       -0.92457088       -0.18851435
H           1.36231115        0.92457088       -0.18851434
H           1.36231115       -0.92457088        0.18851435
6
MD Time 380.00
C          -0.79747681       -0.00000000        0.00000000
C           0.79747682       -0.00000000       -0.00000000
H          -1.35158023        0.92532741        0.17845902
H          -1.35158023       -0.92532740       -0.17845903
H           1.35158023        0.92532741       -0.17845901
H           1.35158023       -0.92532741        0.17845902
6
MD Time 390.00
C          -0.78576047       -0.00000000        0.00000000
C           0.78576047       -0.00000000       -0.00000000
H          -1.34083783        0.92615830        0.16815061
H          -1.34083783       -0.92615830       -0.16815062
H           1.34083783        0.92615831       -0.16815060
H           1.34083783       -0.92615830        0.16815061
6
MD Time 400.00
C          -0.77369431       -0.00000000        0.00000000
C           0.77369431       -0.00000000       -0.00000000
H          -1.33009519        0.92706722        0.15759238
H          -1.33009518       -0.92706722       -0.15759240
H           1.33009518        0.92706723       -0.15759238
H           1.33009518       -0.92706722        0.15759239
6
MD Time 410.00
C          -0.76129210       -0.00000000        0.00000000
C           0.76129210       -0.00000000       -0.00000000
H          -1.31935973        0.92805172        0.14678784
H          -1.31935973       -0.92805171       -0.14678786
H           1.31935973        0.92805172       -0.14678783
H           1.31935973       -0.92805172        0.14678785
6
MD Time 420.00
C          -0.74857270       -0.00000000        0.00000000
C           0.74857270       -0.00000000       -0.00000000
H          -1.30863510        0.92910311        0.13574119
H          -1.30863510       -0.92910311       -0.13574120
H           1.30863510        0.92910311       -0.13574118
H           1.30863510       -0.92910311        0.13574120
6
MD Time 430.00
C          -0.73556083       -0.00000000        0.00000000
C           0.73556083       -0.00000000       -0.00000000
H          -1.29792121        0.93020662        0.12445784
H          -1.29792120       -0.93020662       -0.12445786
H           1.29792121        0.93020662       -0.12445783
H           1.29792120       -0.93020662        0.12445785
6
MD Time 440.00
C          -0.72228810       -0.00000000        0.00000000
C           0.72228810       -0.00000000       -0.00000000
H          -1.28721450        0.93134169        0.11294505
H          -1.28721450       -0.93134169       -0.11294507
H           1.28721450        0.93134170       -0.11294504
H           1.28721449       -0.93134169        0.11294506
6
MD Time 450.00
C          -0.70879393       -0.00000000        0.00000000
C           0.70879393       -0.00000000       -0.00000000
H          -1.27650835        0.93248260        0.10121242
H          -1.27650834       -0.93248260       -0.10121244
H           1.27650834        0.93248261       -0.10121241
H           1.27650834       -0.93248260        0.10121244
6
MD Time 460.00
C          -0.69512678       -0.00000000        0.00000000
C           0.69512678       -0.00000000       -0.00000000
H          -1.26579358        0.93359922        0.08927255
H          -1.26579358       -0.93359922       -0.08927257
H           1.26579358        0.93359922       -0.08927254
H           1.26579357       -0.93359922        0.08927257
6
MD Time 470.00
C          -0.68134528       -0.00000000        0.00000000
C           0.68134528       -0.00000000       -0.00000000
H          -1.25505919        0.93465802        0.07714148
H          -1.25505918       -0.93465802       -0.07714151
H           1.25505918        0.93465803       -0.07714147
H           1.25505918       -0.93465802        0.07714150
6
MD Time 480.00
C          -0.66751947       -0.00000000        0.00000000
C           0.66751947        0.00000000       -0.00000000
H          -1.24429312        0.93562325        0.06483921
H          -1.24429312       -0.93562325       -0.06483923
H           1.24429312        0.93562325       -0.06483919
H           1.24429311       -0.93562325        0.06483922
6
MD Time 490.00
C          -0.65373202       -0.00000000        0.00000000
C           0.65373202        0.00000000       -0.00000000
H          -1.23348330        0.93645821        0.05238999
H          -1.23348329       -0.93645820       -0.05239002
H           1.23348329        0.93645821       -0.05238998
H           1.23348329       -0.93645821        0.05239001
6
MD Time 500.00
C          -0.64007928       -0.00000000        0.00000000
C           0.64007928        0.00000000       -0.00000000
H          -1.22261866        0.93712667        0.03982260
H          -1.22261866       -0.93712667       -0.03982263
H           1.22261866        0.93712667       -0.03982258
H           1.22261865       -0.93712667        0.03982262
6
MD Time 510.00
C          -0.62667204       -0.00000000        0.00000000
C           0.62667204        0.00000000       -0.00000000
H          -1.21169045        0.93759438        0.02717038
H          -1.21169044       -0.93759438       -0.02717041
H           1.21169044        0.93759438       -0.02717036
H           1.21169044       -0.93759438        0.02717040
6
MD Time 520.00
C          -0.61363591       -0.00000000        0.00000000
C           0.61363591        0.00000000       -0.00000000
H          -1.20069348        0.93783058        0.01447113
H          -1.20069347       -0.93783058       -0.01447117
H           1.20069347        0.93783058       -0.01447111
H           1.20069347       -0.93783058        0.01447115
6
MD Time 530.00
C          -0.60111090       -0.00000000        0.00000000
C           0.60111090        0.00000000       -0.00000000
H          -1.18962763        0.93780958        0.00176690
H          -1.18962762       -0.93780958       -0.00176693
H           1.18962762        0.93780958       -0.00176688
H           1.18962762       -0.93780958        0.00176692
6
MD Time 540.00
C          -0.58925006       -0.00000000        0.00000000
C           0.58925006        0.00000000       -0.00000000
H          -1.17849929        0.93751235       -0.01089654
H          -1.17849928       -0.93751235        0.01089651
H           1.17849928        0.93751235        0.01089657
H           1.17849928       -0.93751235       -0.01089652
6
MD Time 550.00
C          -0.57821688       -0.00000000        0.00000000
C           0.57821688        0.00000000       -0.00000000
H          -1.16732290        0.93692807       -0.02347030
H          -1.16732289       -0.93692808        0.02347027
H           1.16732289        0.93692808        0.02347033
H           1.16732289       -0.93692808       -0.02347028
6
MD Time 560.00
C          -0.56818121       -0.00000000        0.00000000
C           0.56818121        0.00000000       -0.00000000
H          -1.15612245        0.93605569       -0.03590316
H          -1.15612244       -0.93605569        0.03590312
H           1.15612244        0.93605569        0.03590319
H           1.15612244       -0.93605569       -0.03590314
6
MD Time 570.00
C          -0.55931359       -0.00000000        0.00000000
C           0.55931359        0.00000000       -0.00000000
H          -1.14493290        0.93490536       -0.04814254
H          -1.14493289       -0.93490536        0.04814250
H           1.14493289        0.93490536        0.04814257
H           1.14493289       -0.93490536       -0.04814252
6
MD Time 580.00
C          -0.55177805       -0.00000000        0.00000000
C           0.55177806        0.00000000       -0.00000000
H          -1.13380140        0.93349984       -0.06013555
H          -1.13380139       -0.93349985        0.06013551
H           1.13380139        0.93349984        0.06013558
H           1.13380139       -0.93349985       -0.06013553
6
MD Time 590.00
C          -0.54572375       -0.00000000        0.00000000
C           0.54572376        0.00000000       -0.00000000
H          -1.12278828        0.93187572       -0.07183015
H          -1.12278827       -0.93187572        0.07183010
H           1.12278827        0.93187572        0.07183018
H           1.12278827       -0.93187572       -0.07183012
6
MD Time 600.00
C          -0.54127611       -0.00000000        0.00000000
C           0.54127611        0.00000000       -0.00000000
H          -1.11196765        0.93008433       -0.08317629
H          -1.11196764       -0.93008433        0.08317624
H           1.11196764        0.93008433        0.08317632
H           1.11196763       -0.93008434       -0.08317626
6
MD Time 610.00
C          -0.53852832       -0.00000000        0.00000000
C           0.53852832        0.00000000       -0.00000000
H          -1.10142754        0.92819241       -0.09412711
H          -1.10142753       -0.92819242        0.09412707
H           1.10142753        0.92819241        0.09412715
H           1.10142753       -0.92819242       -0.09412708
6
MD Time 620.00
C          -0.53753439       -0.00000000        0.00000000
C           0.53753439        0.00000000       -0.00000000
H          -1.09126943        0.92628216       -0.10464004
H          -1.09126942       -0.92628217        0.10463999
H           1.09126942        0.92628216        0.10464008
H           1.09126941       -0.92628217       -0.10464001
6
MD Time 630.00
C          -0.53830459       -0.00000000        0.00000000
C           0.53830459        0.00000000       -0.00000000
H          -1.08160706        0.92445067       -0.11467773
H          -1.08160705       -0.92445068        0.11467767
H           1.08160705        0.92445068        0.11467776
H           1.08160705       -0.92445068       -0.11467769
6
MD Time 640.00
C          -0.54080417       -0.00000000        0.00000000
C           0.54080417        0.00000000       -0.00000000
H          -1.07256451        0.92280845       -0.12420886
H          -1.07256450       -0.92280846        0.12420881
H           1.07256449        0.92280845        0.12420890
H           1.07256449       -0.92280846       -0.12420883
6
MD Time 650.00
C          -0.54495551       -0.00000000       -0.00000000
C           0.54495551        0.00000000       -0.00000000
H          -1.06427332        0.92147686       -0.13320867
H          -1.06427331       -0.92147687        0.13320861
H           1.06427331        0.92147686        0.13320871
H           1.06427331       -0.92147687       -0.13320864
6
MD Time 660.00
C          -0.55064338       -0.00000000       -0.00000000
C           0.55064338        0.00000000       -0.00000000
H          -1.05686894        0.92058444       -0.14165911
H          -1.05686893       -0.92058445        0.14165905
H           1.05686893        0.92058444        0.14165915
H           1.05686893       -0.92058445       -0.14165907
6
MD Time 670.00
C          -0.55772259       -0.00000000       -0.00000000
C           0.55772259        0.00000000       -0.00000000
H          -1.05048638        0.92026189       -0.14954861
H          -1.05048637       -0.92026190        0.14954855
H           1.05048636        0.92026189        0.14954866
H           1.05048636       -0.92026190       -0.14954858
6
MD Time 680.00
C          -0.56602705       -0.00000000       -0.00000000
C           0.56602705        0.00000000       -0.00000000
H          -1.04525536        0.92063604       -0.15687146
H          -1.04525535       -0.92063605        0.15687139
H           1.04525535        0.92063604        0.15687150
H           1.04525535       -0.92063605       -0.15687142
6
MD Time 690.00
C          -0.57537895       -0.00000000       -0.00000000
C           0.57537895        0.00000000       -0.00000000
H          -1.04129542        0.92182288       -0.16362666
H          -1.04129541       -0.92182289        0.16362660
H           1.04129540        0.92182288        0.16362671
H           1.04129540       -0.92182289       -0.16362662
6
MD Time 700.00
C          -0.58559739       -0.00000000       -0.00000000
C           0.58559739        0.00000000       -0.00000000
H          -1.03871116        0.92392030       -0.16981655
H          -1.03871115       -0.92392032        0.16981648
H           1.03871114        0.92392030        0.16981660
H           1.03871114       -0.92392031       -0.16981651
6
MD Time 710.00
C          -0.59650564       -0.00000000       -0.00000000
C           0.59650564        0.00000000       -0.00000000
H          -1.03758823        0.92700110       -0.17544511
H          -1.03758822       -0.92700111        0.17544504
H           1.03758821        0.92700110        0.17544516
H           1.03758821       -0.92700111       -0.17544507
6
MD Time 720.00
C          -0.60793671       -0.00000000       -0.00000000
C           0.60793671        0.00000000        0.00000000
H          -1.03799031        0.93110689       -0.18051630
H          -1.03799030       -0.93110691        0.18051623
H           1.03799030        0.93110689        0.18051635
H           1.03799030       -0.93110690       -0.18051626
6
MD Time 730.00
C          -0.61973721       -0.00000000       -0.00000000
C           0.61973721        0.00000000        0.00000000
H          -1.03995740        0.93624371       -0.18503257
H          -1.03995739       -0.93624373        0.18503250
H           1.03995739        0.93624371        0.18503262
H           1.03995739       -0.93624372       -0.18503253
6
MD Time 740.00
C          -0.63176962       -0.00000000       -0.00000000
C           0.63176962        0.00000000        0.00000000
H          -1.04350537        0.94237972       -0.18899368
H          -1.04350536       -0.94237974        0.18899360
H           1.04350536        0.94237972        0.18899373
H           1.04350536       -0.94237973       -0.18899363
6
MD Time 750.00
C          -0.64391318       -0.00000000       -0.00000000
C           0.64391318        0.00000000        0.00000000
H          -1.04862684        0.94944524       -0.19239603
H          -1.04862683       -0.94944527        0.19239595
H           1.04862682        0.94944524        0.19239609
H           1.04862682       -0.94944526       -0.19239598
6
MD Time 760.00
C          -0.65606377       -0.00000000       -0.00000000
C           0.65606377        0.00000000        0.00000000
H          -1.05529301        0.95733518       -0.19523252
H          -1.05529300       -0.95733521        0.19523244
H           1.05529299        0.95733518        0.19523258
H           1.05529299       -0.95733520       -0.19523247
6
MD Time 770.00
C          -0.66813306       -0.00000000       -0.00000000
C           0.66813306        0.00000000        0.00000000
H          -1.06345624        0.96591334       -0.19749288
H          -1.06345622       -0.96591336        0.19749280
H           1.06345622        0.96591334        0.19749295
H           1.06345622       -0.96591335       -0.19749284
6
MD Time 780.00
C          -0.68004722       -0.00000000       -0.00000000
C           0.68004722        0.00000000        0.00000000
H          -1.07305298        0.97501826       -0.19916443
H          -1.07305297       -0.97501828        0.19916434
H           1.07305297        0.97501825        0.19916449
H           1.07305296       -0.97501827       -0.19916438
6
MD Time 790.00
C          -0.69174538       -0.00000000       -0.00000000
C           0.69174539        0.00000000        0.00000000
H          -1.08400684        0.98446985       -0.20023302
H          -1.08400682       -0.98446988        0.20023293
H           1.08400682        0.98446985        0.20023309
H           1.08400682       -0.98446986       -0.20023297
6
MD Time 800.00
C          -0.70317806       -0.00000000       -0.00000001
C           0.70317806        0.00000000        0.00000000
H          -1.09623140        0.99407629       -0.20068422
H          -1.09623139       -0.99407632        0.20068412
H           1.09623138        0.99407629        0.20068429
H           1.09623138       -0.99407631       -0.20068417
6
MD Time 810.00
C          -0.71430561       -0.00000000       -0.00000001
C           0.71430561        0.00000000        0.00000000
H          -1.10963291        1.00364060       -0.20050435
H          -1.10963289       -1.00364062        0.20050425
H           1.10963289        1.00364059        0.20050442
H           1.10963289       -1.00364061       -0.20050429
6
MD Time 820.00
C          -0.72509680       -0.00000000       -0.00000001
C           0.72509681        0.00000000        0.00000000
H          -1.12411244        1.01296654       -0.19968149
H          -1.12411242       -1.01296657        0.19968139
H           1.12411242        1.01296654        0.19968156
H           1.12411242       -1.01296655       -0.19968143
6
MD Time 830.00
C          -0.73552758       -0.00000000       -0.00000001
C           0.73552758        0.00000000        0.00000000
H          -1.13956778        1.02186371       -0.19820627
H          -1.13956776       -1.02186374        0.19820617
H           1.13956776        1.02186371        0.19820634
H           1.13956776       -1.02186372       -0.19820621
6
MD Time 840.00
C          -0.74557989       -0.00000000       -0.00000001
C           0.74557989        0.00000000        0.00000000
H          -1.15589490        1.03015157       -0.19607249
H          -1.15589488       -1.03015160        0.19607239
H           1.15589488        1.03015157        0.19607257
H           1.15589488       -1.03015159       -0.19607244
6
MD Time 850.00
C          -0.75524074       -0.00000000       -0.00000001
C           0.75524074        0.00000000        0.00000001
H          -1.17298914        1.03766259       -0.19327753
H          -1.17298912       -1.03766262        0.19327742
H           1.17298912        1.03766259        0.19327761
H           1.17298912       -1.03766261       -0.19327747
6
MD Time 860.00
C          -0.76450138       -0.00000000       -0.00000001
C           0.76450139        0.00000001        0.00000001
H          -1.19074609        1.04424450       -0.18982257
H          -1.19074607       -1.04424453        0.18982246
H           1.19074607        1.04424450        0.18982265
H           1.19074607       -1.04424452       -0.18982251
6
MD Time 870.00
C          -0.77335659       -0.00000000       -0.00000001
C           0.77335659        0.00000001        0.00000001
H          -1.20906230        1.04976184       -0.18571268
H          -1.20906228       -1.04976187        0.18571256
H           1.20906228        1.04976184        0.18571276
H           1.20906227       -1.04976185       -0.18571261
6
MD Time 880.00
C          -0.78180403       -0.00000000       -0.00000001
C           0.78180403        0.00000001        0.00000001
H          -1.22783582        1.05409689       -0.18095680
H          -1.22783579       -1.05409692        0.18095668
H           1.22783580        1.05409689        0.18095688
H           1.22783579       -1.05409690       -0.18095673
6
MD Time 890.00
C          -0.78984381       -0.00000000       -0.00000001
C           0.78984381        0.00000001        0.00000001
H          -1.24696663        1.05715024       -0.17556762
H          -1.24696661       -1.05715027        0.17556751
H           1.24696662        1.05715024        0.17556771
H           1.24696661       -1.05715025       -0.17556756
6
MD Time 900.00
C          -0.79747795       -0.00000000       -0.00000001
C           0.79747795        0.00000001        0.00000001
H          -1.26635702        1.05884096       -0.16956143
H          -1.26635699       -1.05884099        0.16956131
H           1.26635700        1.05884096        0.16956151
H           1.26635699       -1.05884097       -0.16956136
6
MD Time 910.00
C          -0.80471007       -0.00000000       -0.00000001
C           0.80471007        0.00000001        0.00000001
H          -1.28591185        1.05910665       -0.16295786
H          -1.28591182       -1.05910668        0.16295774
H           1.28591183        1.05910665        0.16295794
H           1.28591182       -1.05910666       -0.16295779
6
MD Time 920.00
C          -0.81154501       -0.00000000       -0.00000001
C           0.81154501        0.00000001        0.00000001
H          -1.30553889        1.05790331       -0.15577968
H          -1.30553887       -1.05790334        0.15577956
H           1.30553888        1.05790332        0.15577977
H           1.30553887       -1.05790333       -0.15577961
6
MD Time 930.00
C          -0.81798856       -0.00000000       -0.00000001
C           0.81798857        0.00000001        0.00000001
H          -1.32514912        1.05520523       -0.14805255
H          -1.32514910       -1.05520526        0.14805242
H           1.32514911        1.05520523        0.14805263
H           1.32514910       -1.05520524       -0.14805247
6
MD Time 940.00
C          -0.82404718       -0.00000000       -0.00000001
C           0.82404718        0.00000001        0.00000001
H          -1.34465701        1.05100477       -0.13980470
H          -1.34465698       -1.05100480        0.13980457
H           1.34465699        1.05100478        0.13980478
H           1.34465698       -1.05100479       -0.13980463
6
MD Time 950.00
C          -0.82972776       -0.00000000       -0.00000001
C           0.82972776        0.00000001        0.00000001
H          -1.36398086        1.04531230       -0.13106672
H          -1.36398083       -1.04531232        0.13106659
H           1.36398084        1.04531230        0.13106681
H           1.36398083       -1.04531231       -0.13106665
6
MD Time 960.00
C          -0.83503740       -0.00000000       -0.00000001
C           0.83503741        0.00000001        0.00000001
H          -1.38304320        1.03815598       -0.12187121
H          -1.38304317       -1.03815601        0.12187108
H           1.38304318        1.03815599        0.12187129
H           1.38304317       -1.03815599       -0.12187113
6
MD Time 970.00
C          -0.83998325       -0.00000000       -0.00000001
C           0.83998325        0.00000001        0.00000001
H          -1.40177119        1.02958176       -0.11225248
H          -1.40177116       -1.02958179        0.11225234
H           1.40177118        1.02958177        0.11225256
H           1.40177116       -1.02958177       -0.11225240
6
MD Time 980.00
C          -0.84457226       -0.00000000       -0.00000002
C           0.84457226        0.00000001        0.00000001
H          -1.42009705        1.01965319       -0.10224619
H          -1.42009702       -1.01965322        0.10224606
H           1.42009704        1.01965320        0.10224627
H           1.42009703       -1.01965321       -0.10224611
6
MD Time 990.00
C          -0.84881107       -0.00000000       -0.00000002
C           0.84881107        0.00000001        0.00000001
H          -1.43795854        1.00845133       -0.09188903
H          -1.43795851       -1.00845136        0.09188890
H           1.43795853        1.00845134        0.09188911
H           1.43795851       -1.00845134       -0.09188895
6
MD Time 1000.00
C          -0.85270579       -0.00000000       -0.00000002
C           0.85270579        0.00000001        0.00000001
H          -1.45529942        0.99607446       -0.08121824
H          -1.45529938       -0.99607449        0.08121811
H           1.45529940        0.99607447        0.08121831
H           1.45529939       -0.99607447       -0.08121815
6
MD Time 1010.00
C          -0.85626196       -0.00000000       -0.00000002
C           0.85626196        0.00000001        0.00000001
H          -1.47206990        0.98263776       -0.07027122
H          -1.47206987       -0.98263779        0.07027108
H           1.47206989        0.98263777        0.07027129
H           1.47206987       -0.98263778       -0.07027113
6
MD Time 1020.00
C          -0.85948431       -0.00000000       -0.00000002
C           0.85948431        0.00000001        0.00000002
H          -1.48822708        0.96827274       -0.05908502
H          -1.48822705       -0.96827277        0.05908488
H           1.48822707        0.96827275        0.05908509
H           1.48822705       -0.96827275       -0.05908493
6
MD Time 1030.00
C          -0.86237679       -0.00000000       -0.00000002
C           0.86237679        0.00000001        0.00000002
H          -1.50373521        0.95312634       -0.04769583
H          -1.50373517       -0.95312636        0.04769570
H           1.50373520        0.95312635        0.04769590
H           1.50373518       -0.95312635       -0.04769574
6
MD Time 1040.00
C          -0.86494245       -0.00000000       -0.00000002
C           0.86494245        0.00000001        0.00000002
H          -1.51856587        0.93735977       -0.03613846
H          -1.51856583       -0.93735979        0.03613833
H           1.51856586        0.93735978        0.03613853
H           1.51856584       -0.93735978       -0.03613837
6
MD Time 1050.00
C          -0.86718343       -0.00000000       -0.00000002
C           0.86718343        0.00000001        0.00000002
H          -1.53269794        0.92114688       -0.02444575
H          -1.53269790       -0.92114691        0.02444561
H           1.53269792        0.92114689        0.02444581
H           1.53269791       -0.92114689       -0.02444566
6
MD Time 1060.00
C          -0.86910103       -0.00000000       -0.00000002
C           0.86910103        0.00000001        0.00000002
H          -1.54611729        0.90467205       -0.01264807
H          -1.54611725       -0.90467207        0.01264794
H           1.54611727        0.90467206        0.01264813
H           1.54611726       -0.90467206       -0.01264798
6
MD Time 1070.00
C          -0.87069581       -0.00000000       -0.00000002
C           0.87069581        0.00000001        0.00000002
H          -1.55881618        0.88812752       -0.00077283
H          -1.55881615       -0.88812754        0.00077270
H           1.55881617        0.88812753        0.00077290
H           1.55881615       -0.88812753       -0.00077275
6
MD Time 1080.00
C          -0.87196772       -0.00000000       -0.00000002
C           0.87196772        0.00000001        0.00000002
H          -1.57079233        0.87171025        0.01115590
H          -1.57079230       -0.87171028       -0.01115603
H           1.57079232        0.87171027       -0.01115583
H           1.57079230       -0.87171026        0.01115599
6
MD Time 1090.00
C          -0.87291636       -0.00000000       -0.00000002
C           0.87291636        0.00000001        0.00000002
H          -1.58204757        0.85561827        0.02311769
H          -1.58204754       -0.85561830       -0.02311782
H           1.58204757        0.85561829       -0.02311763
H           1.58204754       -0.85561828        0.02311778
6
MD Time 1100.00
C          -0.87354125       -0.00000000       -0.00000002
C           0.87354125        0.00000001        0.00000002
H          -1.59258619        0.84004660        0.03509583
H          -1.59258615       -0.84004663       -0.03509596
H           1.59258618        0.84004662       -0.03509577
H           1.59258616       -0.84004661        0.03509592
6
MD Time 1110.00
C          -0.87384217       -0.00000000       -0.00000002
C           0.87384217        0.00000001        0.00000002
H          -1.60241297        0.82518303        0.04707718
H          -1.60241294       -0.82518306       -0.04707730
H           1.60241297        0.82518305       -0.04707712
H           1.60241295       -0.82518304        0.04707726
6
MD Time 1120.00
C          -0.87381954       -0.00000000       -0.00000002
C           0.87381954        0.00000001        0.00000002
H          -1.61153104        0.81120388        0.05905185
H          -1.61153101       -0.81120391       -0.05905197
H           1.61153104        0.81120390       -0.05905179
H           1.61153102       -0.81120389        0.05905194
6
MD Time 1130.00
C          -0.87347477       -0.00000000       -0.00000003
C           0.87347477        0.00000001        0.00000002
H          -1.61993966        0.79826993        0.07101262
H          -1.61993962       -0.79826996       -0.07101274
H           1.61993966        0.79826995       -0.07101256
H           1.61993963       -0.79826994        0.07101270
6
MD Time 1140.00
C          -0.87281063       -0.00000000       -0.00000003
C           0.87281063        0.00000001        0.00000003
H          -1.62763213        0.78652288        0.08295411
H          -1.62763210       -0.78652291       -0.08295423
H           1.62763213        0.78652290       -0.08295406
H           1.62763211       -0.78652289        0.08295419
6
MD Time 1150.00
C          -0.87183151       -0.00000000       -0.00000003
C           0.87183151        0.00000001        0.00000003
H          -1.63459406        0.77608242        0.09487183
H          -1.63459402       -0.77608246       -0.09487196
H           1.63459405        0.77608245       -0.09487179
H           1.63459403       -0.77608244        0.09487192
6
MD Time 1160.00
C          -0.87054367       -0.00000000       -0.00000003
C           0.87054367        0.00000001        0.00000003
H          -1.64080203        0.76704415        0.10676113
H          -1.64080199       -0.76704418       -0.10676125
H           1.64080203        0.76704417       -0.10676109
H           1.64080200       -0.76704417        0.10676122
6
MD Time 1170.00
C          -0.86895528       -0.00000000       -0.00000003
C           0.86895528        0.00000001        0.00000003
H          -1.64622297        0.75947826        0.11861605
H          -1.64622294       -0.75947830       -0.11861617
H           1.64622297        0.75947829       -0.11861601
H           1.64622295       -0.75947828        0.11861613
6
MD Time 1180.00
C          -0.86707645       -0.00000000       -0.00000003
C           0.86707645        0.00000001        0.00000003
H          -1.65081416        0.75342923        0.13042829
H          -1.65081412       -0.75342926       -0.13042841
H           1.65081415        0.75342925       -0.13042825
H           1.65081413       -0.75342925        0.13042837
6
MD Time 1190.00
C          -0.86491905       -0.00000000       -0.00000003
C           0.86491905        0.00000001        0.00000003
H          -1.65452387        0.74891620        0.14218630
H          -1.65452383       -0.74891623       -0.14218641
H           1.65452387        0.74891622       -0.14218626
H           1.65452385       -0.74891621        0.14218638
6
MD Time 1200.00
C          -0.86249649       -0.00000000       -0.00000003
C           0.86249649        0.00000001        0.00000003
H          -1.65729277        0.74593418        0.15387451
H          -1.65729273       -0.74593421       -0.15387463
H           1.65729277        0.74593420       -0.15387448
H           1.65729274       -0.74593420        0.15387460
6
MD Time 1210.00
C          -0.85982340       -0.00000000       -0.00000003
C           0.85982340        0.00000001        0.00000003
H          -1.65905563        0.74445578        0.16547287
H          -1.65905559       -0.74445581       -0.16547298
H           1.65905563        0.74445580       -0.16547283
H           1.65905561       -0.74445579        0.16547295
6
MD Time 1220.00
C          -0.85691521       -0.00000000       -0.00000003
C           0.85691521        0.00000001        0.00000003
H          -1.65974354        0.74443338        0.17695649
H          -1.65974351       -0.74443342       -0.17695660
H           1.65974354        0.74443341       -0.17695646
H           1.65974352       -0.74443340        0.17695657
6
MD Time 1230.00
C          -0.85378777       -0.00000000       -0.00000003
C           0.85378777        0.00000001        0.00000003
H          -1.65928622        0.74580166        0.18829575
H          -1.65928618       -0.74580169       -0.18829586
H           1.65928622        0.74580169       -0.18829572
H           1.65928620       -0.74580168        0.18829583
6
MD Time 1240.00
C          -0.85045692       -0.00000000       -0.00000003
C           0.85045692        0.00000001        0.00000003
H          -1.65761438        0.74848015        0.19945643
H          -1.65761434       -0.74848018       -0.19945653
H           1.65761437        0.74848018       -0.19945639
H           1.65761435       -0.74848017        0.19945650
6
MD Time 1250.00
C          -0.84693811       -0.00000000       -0.00000003
C           0.84693811        0.00000001        0.00000003
H          -1.65466197        0.75237597        0.21040014
H          -1.65466193       -0.75237601       -0.21040024
H           1.65466196        0.75237600       -0.21040010
H           1.65466194       -0.75237599        0.21040021
6
MD Time 1260.00
C          -0.84324603       -0.00000000       -0.00000003
C           0.84324603        0.00000001        0.00000003
H          -1.65036832        0.75738640        0.22108493
H          -1.65036828       -0.75738644       -0.22108503
H           1.65036831        0.75738643       -0.22108490
H           1.65036829       -0.75738643        0.22108500
6
MD Time 1270.00
C          -0.83939429       -0.00000000       -0.00000003
C           0.83939429        0.00000001        0.00000003
H          -1.64467988        0.76340138        0.23146596
H          -1.64467984       -0.76340141       -0.23146607
H           1.64467987        0.76340141       -0.23146593
H           1.64467985       -0.76340140        0.23146604
6
MD Time 1280.00
C          -0.83539521       -0.00000000       -0.00000003
C           0.83539521        0.00000001        0.00000003
H          -1.63755181        0.77030576        0.24149627
H          -1.63755177       -0.77030580       -0.24149637
H           1.63755180        0.77030580       -0.24149624
H           1.63755178       -0.77030579        0.24149634
6
MD Time 1290.00
C          -0.83125957       -0.00000000       -0.00000003
C           0.83125958        0.00000001        0.00000003
H          -1.62894919        0.77798151        0.25112754
H          -1.62894916       -0.77798155       -0.25112764
H           1.62894918        0.77798154       -0.25112752
H           1.62894916       -0.77798153        0.25112761
6
MD Time 1300.00
C          -0.82699651       -0.00000000       -0.00000003
C           0.82699651        0.00000001        0.00000003
H          -1.61884802        0.78630952        0.26031096
H          -1.61884798       -0.78630955       -0.26031106
H           1.61884800        0.78630955       -0.26031093
H           1.61884798       -0.78630954        0.26031103
6
MD Time 1310.00
C          -0.82261337       -0.00000000       -0.00000003
C           0.82261337        0.00000001        0.00000003
H          -1.60723587        0.79517139        0.26899796
H          -1.60723583       -0.79517143       -0.26899805
H           1.60723585        0.79517143       -0.26899793
H           1.60723583       -0.79517142        0.26899802
6
MD Time 1320.00
C          -0.81811572       -0.00000000       -0.00000003
C           0.81811572        0.00000001        0.00000004
H          -1.59411242        0.80445097        0.27714096
H          -1.59411238       -0.80445101       -0.27714106
H           1.59411240        0.80445100       -0.27714094
H           1.59411238       -0.80445099        0.27714103
6
MD Time 1330.00
C          -0.81350725       -0.00000000       -0.00000003
C           0.81350725        0.00000001        0.00000004
H          -1.57948975        0.81403570        0.28469414
H          -1.57948971       -0.81403573       -0.28469423
H           1.57948973        0.81403573       -0.28469411
H           1.57948972       -0.81403572        0.28469420
6
MD Time 1340.00
C          -0.80878987       -0.00000000       -0.00000004
C           0.80878987        0.00000001        0.00000004
H          -1.56339247        0.82381789        0.29161398
H          -1.56339243       -0.82381792       -0.29161408
H           1.56339245        0.82381792       -0.29161396
H           1.56339243       -0.82381791        0.29161404
6
MD Time 1350.00
C          -0.80396369       -0.00000000       -0.00000004
C           0.80396369        0.00000001        0.00000004
H          -1.54585772        0.83369585        0.29785996
H          -1.54585768       -0.83369588       -0.29786005
H           1.54585770        0.83369588       -0.29785994
H           1.54585768       -0.83369587        0.29786002
6
MD Time 1360.00
C          -0.79902710       -0.00000000       -0.00000004
C           0.79902710        0.00000001        0.00000004
H          -1.52693508        0.84357489        0.30339501
H          -1.52693504       -0.84357493       -0.30339510
H           1.52693506        0.84357493       -0.30339499
H           1.52693504       -0.84357492        0.30339507
6
MD Time 1370.00
C          -0.79397690       -0.00000000       -0.00000004
C           0.79397690        0.00000001        0.00000004
H          -1.50668638        0.85336829        0.30818604
H          -1.50668634       -0.85336833       -0.30818613
H           1.50668635        0.85336833       -0.30818602
H           1.50668634       -0.85336832        0.30818610
6
MD Time 1380.00
C          -0.78880836       -0.00000000       -0.00000004
C           0.78880837        0.00000001        0.00000004
H          -1.48518537        0.86299811        0.31220432
H          -1.48518533       -0.86299814       -0.31220441
H           1.48518535        0.86299814       -0.31220430
H           1.48518533       -0.86299813        0.31220438
6
MD Time 1390.00
C          -0.78351542       -0.00000000       -0.00000004
C           0.78351542        0.00000001        0.00000004
H          -1.46251739        0.87239597        0.31542585
H          -1.46251735       -0.87239600       -0.31542593
H           1.46251737        0.87239600       -0.31542583
H           1.46251736       -0.87239599        0.31542590
6
MD Time 1400.00
C          -0.77809078       -0.00000001       -0.00000004
C           0.77809078        0.00000001        0.00000004
H          -1.43877886        0.88150376        0.31783163
H          -1.43877882       -0.88150379       -0.31783171
H           1.43877883        0.88150380       -0.31783161
H           1.43877882       -0.88150379        0.31783168
6
MD Time 1410.00
C          -0.77252620       -0.00000001       -0.00000004
C           0.77252620        0.00000001        0.00000004
H          -1.41407671        0.89027419        0.31940788
H          -1.41407667       -0.89027423       -0.31940796
H           1.41407668        0.89027423       -0.31940786
H           1.41407667       -0.89027422        0.31940793
6
MD Time 1420.00
C          -0.76681263       -0.00000001       -0.00000004
C           0.76681263        0.00000001        0.00000004
H          -1.38852772        0.89867128        0.32014619
H          -1.38852768       -0.89867131       -0.32014627
H           1.38852770        0.89867131       -0.32014617
H           1.38852769       -0.89867130        0.32014624
6
MD Time 1430.00
C          -0.76094058       -0.00000001       -0.00000004
C           0.76094058        0.00000001        0.00000004
H          -1.36225771        0.90667063        0.32004353
H          -1.36225767       -0.90667066       -0.32004361
H           1.36225768        0.90667066       -0.32004352
H           1.36225767       -0.90667065        0.32004358
6
MD Time 1440.00
C          -0.75490035       -0.00000001       -0.00000004
C           0.75490035        0.00000001        0.00000004
H          -1.33540059        0.91425963        0.31910228
H          -1.33540056       -0.91425965       -0.31910236
H           1.33540056        0.91425966       -0.31910227
H           1.33540056       -0.91425965        0.31910233
6
MD Time 1450.00
C          -0.74868245       -0.00000001       -0.00000004
C           0.74868246        0.00000001        0.00000004
H          -1.30809733        0.92143731        0.31733001
H          -1.30809730       -0.92143734       -0.31733009
H           1.30809730        0.92143734       -0.31733000
H           1.30809730       -0.92143733        0.31733006
6
MD Time 1460.00
C          -0.74227802       -0.00000001       -0.00000004
C           0.74227802        0.00000001        0.00000004
H          -1.28049474        0.92821406        0.31473929
H          -1.28049470       -0.92821409       -0.31473936
H           1.28049471        0.92821409       -0.31473927
H           1.28049471       -0.92821408        0.31473933
6
MD Time 1470.00
C          -0.73567925       -0.00000001       -0.00000003
C           0.73567925        0.00000001        0.00000004
H          -1.25274413        0.93461095        0.31134727
H          -1.25274410       -0.93461098       -0.31134735
H           1.25274410        0.93461099       -0.31134726
H           1.25274410       -0.93461098        0.31134732
6
MD Time 1480.00
C          -0.72887992       -0.00000001       -0.00000003
C           0.72887993        0.00000001        0.00000004
H          -1.22499991        0.94065881        0.30717530
H          -1.22499988       -0.94065883       -0.30717537
H           1.22499988        0.94065884       -0.30717528
H           1.22499988       -0.94065883        0.30717535
6
MD Time 1490.00
C          -0.72187599       -0.00000001       -0.00000003
C           0.72187599        0.00000001        0.00000004
H          -1.19741802        0.94639686        0.30224825
H          -1.19741798       -0.94639688       -0.30224832
H           1.19741799        0.94639689       -0.30224824
H           1.19741799       -0.94639688        0.30224830
6
MD Time 1500.00
C          -0.71466614       -0.00000001       -0.00000003
C           0.71466615        0.00000001        0.00000003
H          -1.17015435        0.95187110        0.29659393
H          -1.17015432       -0.95187112       -0.29659401
H           1.17015432        0.95187113       -0.29659392
H           1.17015432       -0.95187112        0.29659398
6
MD Time 1510.00
C          -0.70725246       -0.00000001       -0.00000003
C           0.70725247        0.00000001        0.00000003
H          -1.14336319        0.95713228        0.29024235
H          -1.14336316       -0.95713230       -0.29024242
H           1.14336316        0.95713231       -0.29024234
H           1.14336316       -0.95713230        0.29024240
6
MD Time 1520.00
C          -0.69964106       -0.00000001       -0.00000003
C           0.69964106        0.00000001        0.00000003
H          -1.11719562        0.96223360        0.28322495
H          -1.11719559       -0.96223362       -0.28322502
H           1.11719559        0.96223363       -0.28322494
H           1.11719559       -0.96223362        0.28322500
6
MD Time 1530.00
C          -0.69184273       -0.00000001       -0.00000003
C           0.69184273        0.00000001        0.00000003
H          -1.09179811        0.96722823        0.27557387
H          -1.09179809       -0.96722825       -0.27557394
H           1.09179809        0.96722826       -0.27557386
H           1.09179809       -0.96722824        0.27557393
6
MD Time 1540.00
C          -0.68387359       -0.00000001       -0.00000003
C           0.68387359        0.00000001        0.00000003
H          -1.06731126        0.97216663        0.26732132
H          -1.06731123       -0.97216665       -0.26732139
H           1.06731123        0.97216666       -0.26732131
H           1.06731124       -0.97216664        0.26732137
6
MD Time 1550.00
C          -0.67575570       -0.00000001       -0.00000003
C           0.67575571        0.00000001        0.00000003
H          -1.04386867        0.97709397        0.25849893
H          -1.04386864       -0.97709399       -0.25849900
H           1.04386864        0.97709400       -0.25849892
H           1.04386865       -0.97709399        0.25849898
6
MD Time 1560.00
C          -0.66751764       -0.00000001       -0.00000003
C           0.66751764        0.00000001        0.00000003
H          -1.02159615        0.98204763        0.24913740
H          -1.02159612       -0.98204765       -0.24913747
H           1.02159612        0.98204766       -0.24913739
H           1.02159613       -0.98204764        0.24913746
6
MD Time 1570.00
C          -0.65919495       -0.00000001       -0.00000003
C           0.65919495        0.00000001        0.00000003
H          -1.00061109        0.98705498        0.23926620
H          -1.00061107       -0.98705500       -0.23926627
H           1.00061106        0.98705501       -0.23926619
H           1.00061107       -0.98705499        0.23926625
6
MD Time 1580.00
C          -0.65083057       -0.00000001       -0.00000003
C           0.65083057        0.00000001        0.00000003
H          -0.98102204        0.99213161        0.22891349
H          -0.98102202       -0.99213163       -0.22891356
H           0.98102202        0.99213164       -0.22891348
H           0.98102203       -0.99213162        0.22891355
6
MD Time 1590.00
C          -0.64247507       -0.00000001       -0.00000003
C           0.64247507        0.00000001        0.00000003
H          -0.96292844        0.99728009        0.21810624
H          -0.96292842       -0.99728011       -0.21810632
H           0.96292842        0.99728012       -0.21810623
H           0.96292843       -0.99728010        0.21810630
6
MD Time 1600.00
C          -0.63418674       -0.00000001       -0.00000003
C           0.63418674        0.00000001        0.00000003
H          -0.94642038        1.00248926        0.20687049
H          -0.94642037       -1.00248928       -0.20687057
H           0.94642036        1.00248929       -0.20687048
H           0.94642037       -1.00248927        0.20687055
6
MD Time 1610.00
C          -0.62603149       -0.00000001       -0.00000003
C           0.62603150        0.00000001        0.00000003
H          -0.93157842        1.00773424        0.19523168
H          -0.93157841       -1.00773425       -0.19523176
H           0.93157840        1.00773426       -0.19523167
H           0.93157841       -1.00773424        0.19523175
6
MD Time 1620.00
C          -0.61808244       -0.00000001       -0.00000003
C           0.61808244        0.00000001        0.00000003
H          -0.91847331        1.01297694        0.18321513
H          -0.91847329       -1.01297695       -0.18321521
H           0.91847328        1.01297696       -0.18321512
H           0.91847330       -1.01297694        0.18321520
6
MD Time 1630.00
C          -0.61041918       -0.00000001       -0.00000003
C           0.61041918        0.00000001        0.00000003
H          -0.90716563        1.01816727        0.17084651
H          -0.90716561       -1.01816728       -0.17084659
H           0.90716560        1.01816729       -0.17084650
H           0.90716562       -1.01816727        0.17084658
6
MD Time 1640.00
C          -0.60312673       -0.00000001       -0.00000003
C           0.60312673        0.00000001        0.00000003
H          -0.89770541        1.02324467        0.15815229
H          -0.89770540       -1.02324468       -0.15815238
H           0.89770539        1.02324469       -0.15815228
H           0.89770540       -1.02324467        0.15815237
6
MD Time 1650.00
C          -0.59629403       -0.00000001       -0.00000003
C           0.59629404        0.00000001        0.00000003
H          -0.89013163        1.02814016        0.14516020
H          -0.89013162       -1.02814017       -0.14516028
H           0.89013161        1.02814018       -0.14516019
H           0.89013163       -1.02814016        0.14516027
6
MD Time 1660.00
C          -0.59001199       -0.00000001       -0.00000002
C           0.59001199        0.00000001        0.00000002
H          -0.88447172        1.03277855        0.13189954
H          -0.88447171       -1.03277856       -0.13189963
H           0.88447170        1.03277857       -0.13189953
H           0.88447172       -1.03277855        0.13189962
6
MD Time 1670.00
C          -0.58437113       -0.00000001       -0.00000002
C           0.58437113        0.00000001        0.00000002
H          -0.88074112        1.03708087        0.11840150
H          -0.88074111       -1.03708088       -0.11840159
H           0.88074110        1.03708089       -0.11840149
H           0.88074112       -1.03708087        0.11840159
6
MD Time 1680.00
C          -0.57945884       -0.00000001       -0.00000002
C           0.57945884        0.00000001        0.00000002
H          -0.87894297        1.04096682        0.10469933
H          -0.87894295       -1.04096683       -0.10469942
H           0.87894295        1.04096684       -0.10469932
H           0.87894296       -1.04096681        0.10469942
6
MD Time 1690.00
C          -0.57535642       -0.00000001       -0.00000002
C           0.57535642        0.00000001        0.00000002
H          -0.87906793        1.04435715        0.09082838
H          -0.87906792       -1.04435716       -0.09082848
H           0.87906791        1.04435717       -0.09082838
H           0.87906793       -1.04435714        0.09082848
6
MD Time 1700.00
C          -0.57213596       -0.00000001       -0.00000002
C           0.57213596        0.00000001        0.00000002
H          -0.88109433        1.04717599        0.07682618
H          -0.88109432       -1.04717600       -0.07682628
H           0.88109431        1.04717601       -0.07682617
H           0.88109433       -1.04717598        0.07682628
6
MD Time 1710.00
C          -0.56985735       -0.00000001       -0.00000002
C           0.56985735        0.00000001        0.00000002
H          -0.88498846        1.04935288        0.06273226
H          -0.88498846       -1.04935288       -0.06273236
H           0.88498845        1.04935289       -0.06273225
H           0.88498847       -1.04935286        0.06273236
6
MD Time 1720.00
C          -0.56856567       -0.00000001       -0.00000002
C           0.56856567        0.00000001        0.00000002
H          -0.89070533        1.05082460        0.04858800
H          -0.89070532       -1.05082460       -0.04858811
H           0.89070531        1.05082461       -0.04858799
H           0.89070533       -1.05082458        0.04858811
6
MD Time 1730.00
C          -0.56828910       -0.00000001       -0.00000002
C           0.56828910        0.00000001        0.00000002
H          -0.89818951        1.05153674        0.03443638
H          -0.89818951       -1.05153675       -0.03443649
H           0.89818950        1.05153675       -0.03443637
H           0.89818952       -1.05153673        0.03443649
6
MD Time 1740.00
C          -0.56903765       -0.00000001       -0.00000002
C           0.56903765        0.00000001        0.00000002
H          -0.90737643        1.05144493        0.02032159
H          -0.90737642       -1.05144494       -0.02032171
H           0.90737641        1.05144494       -0.02032158
H           0.90737644       -1.05144491        0.02032171
6
MD Time 1750.00
C          -0.57080274       -0.00000001       -0.00000002
C           0.57080274        0.00000001        0.00000002
H          -0.91819371        1.05051569        0.00628868
H          -0.91819370       -1.05051570       -0.00628880
H           0.91819369        1.05051570       -0.00628867
H           0.91819371       -1.05051567        0.00628880
6
MD Time 1760.00
C          -0.57355773       -0.00000001       -0.00000002
C           0.57355773        0.00000001        0.00000002
H          -0.93056270        1.04872708       -0.00761700
H          -0.93056269       -1.04872709        0.00761688
H           0.93056268        1.04872709        0.00761701
H           0.93056270       -1.04872707       -0.00761687
6
MD Time 1770.00
C          -0.57725935       -0.00000001       -0.00000002
C           0.57725935        0.00000001        0.00000002
H          -0.94440005        1.04606897       -0.02135026
H          -0.94440004       -1.04606898        0.02135014
H           0.94440003        1.04606898        0.02135027
H           0.94440006       -1.04606895       -0.02135013
6
MD Time 1780.00
C          -0.58184982       -0.00000001       -0.00000002
C           0.58184982        0.00000001        0.00000002
H          -0.95961924        1.04254297       -0.03486670
H          -0.95961924       -1.04254299        0.03486657
H           0.95961923        1.04254299        0.03486671
H           0.95961925       -1.04254296       -0.03486656
6
MD Time 1790.00
C          -0.58725953       -0.00000001       -0.00000002
C           0.58725953        0.00000001        0.00000002
H          -0.97613196        1.03816225       -0.04812323
H          -0.97613196       -1.03816227        0.04812310
H           0.97613195        1.03816226        0.04812325
H           0.97613198       -1.03816224       -0.04812309
6
MD Time 1800.00
C          -0.59340994       -0.00000001       -0.00000002
C           0.59340994        0.00000001        0.00000002
H          -0.99384934        1.03295094       -0.06107871
H          -0.99384933       -1.03295095        0.06107857
H           0.99384933        1.03295095        0.06107872
H           0.99384935       -1.03295093       -0.06107857
6
MD Time 1810.00
C          -0.60021665       -0.00000001       -0.00000002
C           0.60021665        0.00000001        0.00000002
H          -1.01268290        1.02694342       -0.07369443
H          -1.01268290       -1.02694344        0.07369429
H           1.01268289        1.02694343        0.07369444
H           1.01268292       -1.02694341       -0.07369428
6
MD Time 1820.00
C          -0.60759222       -0.00000001       -0.00000002
C           0.60759222        0.00000001        0.00000002
H          -1.03254530        1.02018344       -0.08593462
H          -1.03254530       -1.02018345        0.08593447
H           1.03254529        1.02018345        0.08593463
H           1.03254532       -1.02018343       -0.08593446
6
MD Time 1830.00
C          -0.61544874       -0.00000001       -0.00000002
C           0.61544874        0.00000001        0.00000002
H          -1.05335074        1.01272300       -0.09776686
H          -1.05335073       -1.01272301        0.09776671
H           1.05335073        1.01272301        0.09776688
H           1.05335075       -1.01272299       -0.09776670
6
MD Time 1840.00
C          -0.62370008       -0.00000001       -0.00000002
C           0.62370008        0.00000001        0.00000002
H          -1.07501512        1.00462118       -0.10916240
H          -1.07501512       -1.00462120        0.10916225
H           1.07501511        1.00462119        0.10916242
H           1.07501514       -1.00462117       -0.10916224
6
MD Time 1850.00
C          -0.63226358       -0.00000001       -0.00000002
C           0.63226358        0.00000001        0.00000002
H          -1.09745604        0.99594283       -0.12009635
H          -1.09745603       -0.99594285        0.12009620
H           1.09745602        0.99594284        0.12009637
H           1.09745605       -0.99594283       -0.12009619
6
MD Time 1860.00
C          -0.64106147       -0.00000001       -0.00000002
C           0.64106147        0.00000001        0.00000002
H          -1.12059244        0.98675721       -0.13054781
H          -1.12059244       -0.98675723        0.13054766
H           1.12059243        0.98675722        0.13054783
H           1.12059246       -0.98675721       -0.13054765
6
MD Time 1870.00
C          -0.65002175       -0.00000001       -0.00000002
C           0.65002174        0.00000001        0.00000002
H          -1.14434430        0.97713654       -0.14049988
H          -1.14434429       -0.97713657        0.14049972
H           1.14434429        0.97713656        0.14049990
H           1.14434431       -0.97713655       -0.14049971
6
MD Time 1880.00
C          -0.65907882       -0.00000001       -0.00000002
C           0.65907882        0.00000001        0.00000002
H          -1.16863202        0.96715465       -0.14993952
H          -1.16863202       -0.96715467        0.14993936
H           1.16863201        0.96715466        0.14993954
H           1.16863204       -0.96715465       -0.14993935
6
MD Time 1890.00
C          -0.66817380       -0.00000001       -0.00000002
C           0.66817380        0.00000001        0.00000002
H          -1.19337593        0.95688552       -0.15885744
H          -1.19337592       -0.95688555        0.15885727
H           1.19337592        0.95688553        0.15885746
H           1.19337594       -0.95688552       -0.15885726
6
MD Time 1900.00
C          -0.67725460       -0.00000001       -0.00000002
C           0.67725460        0.00000001        0.00000002
H          -1.21849556        0.94640207       -0.16724774
H          -1.21849555       -0.94640210        0.16724757
H           1.21849555        0.94640208        0.16724776
H           1.21849558       -0.94640208       -0.16724756
6
MD Time 1910.00
C          -0.68627582       -0.00000001       -0.00000002
C           0.68627582        0.00000001        0.00000002
H          -1.24390913        0.93577496       -0.17510767
H          -1.24390912       -0.93577499        0.17510750
H           1.24390912        0.93577497        0.17510769
H           1.24390915       -0.93577497       -0.17510749
6
MD Time 1920.00
C          -0.69519854       -0.00000001       -0.00000002
C           0.69519854        0.00000001        0.00000002
H          -1.26953291        0.92507160       -0.18243718
H          -1.26953290       -0.92507164        0.18243701
H           1.26953290        0.92507162        0.18243721
H           1.26953293       -0.92507161       -0.18243700
6
MD Time 1930.00
C          -0.70399000       -0.00000001       -0.00000002
C           0.70399000        0.00000001        0.00000002
H          -1.29528074        0.91435540       -0.18923860
H          -1.29528074       -0.91435544        0.18923842
H           1.29528073        0.91435542        0.18923862
H           1.29528076       -0.91435542       -0.18923842
6
MD Time 1940.00
C          -0.71262323       -0.00000001       -0.00000002
C           0.71262323        0.00000001        0.00000002
H          -1.32106369        0.90368522       -0.19551617
H          -1.32106369       -0.90368527        0.19551599
H           1.32106368        0.90368524        0.19551620
H           1.32106371       -0.90368524       -0.19551599
6
MD Time 1950.00
C          -0.72107660       -0.00000001       -0.00000002
C           0.72107660        0.00000001        0.00000002
H          -1.34678982        0.89311511       -0.20127571
H          -1.34678981       -0.89311515        0.20127553
H           1.34678981        0.89311513        0.20127574
H           1.34678983       -0.89311513       -0.20127553
6
MD Time 1960.00
C          -0.72933335       -0.00000001       -0.00000002
C           0.72933335        0.00000001        0.00000002
H          -1.37236415        0.88269423       -0.20652427
H          -1.37236415       -0.88269428        0.20652409
H           1.37236414        0.88269425        0.20652430
H           1.37236417       -0.88269425       -0.20652409
6
MD Time 1970.00
C          -0.73738116       -0.00000001       -0.00000002
C           0.73738116        0.00000001        0.00000002
H          -1.39768893        0.87246708       -0.21126982
H          -1.39768892       -0.87246713        0.21126964
H           1.39768892        0.87246710        0.21126985
H           1.39768895       -0.87246711       -0.21126963
6
MD Time 1980.00
C          -0.74521158       -0.00000001       -0.00000002
C           0.74521158        0.00000001        0.00000002
H          -1.42266396        0.86247384       -0.21552102
H          -1.42266395       -0.86247389        0.21552084
H           1.42266394        0.86247386        0.21552105
H           1.42266397       -0.86247386       -0.21552083
6
MD Time 1990.00
C          -0.75281958       -0.00000001       -0.00000002
C           0.75281958        0.00000001        0.00000002
H          -1.44718724        0.85275086       -0.21928706
H          -1.44718722       -0.85275091        0.21928688
H           1.44718722        0.85275088        0.21928709
H           1.44718725       -0.85275089       -0.21928687
6
MD Time 2000.00
C          -0.76020305       -0.00000001       -0.00000002
C           0.76020305        0.00000001        0.00000002
H          -1.47115577        0.84333130       -0.22257752
H          -1.47115576       -0.84333135        0.22257734
H           1.47115576        0.84333132        0.22257756
H           1.47115578       -0.84333133       -0.22257734
6
MD Time 2010.00
C          -0.76736227       -0.00000001       -0.00000002
C           0.76736227        0.00000001        0.00000002
H          -1.49446646        0.83424573       -0.22540233
H          -1.49446645       -0.83424579        0.22540215
H           1.49446645        0.83424575        0.22540237
H           1.49446647       -0.83424576       -0.22540215
6
MD Time 2020.00
C          -0.77429949       -0.00000000       -0.00000002
C           0.77429949        0.00000001        0.00000002
H          -1.51701719        0.82552282       -0.22777170
H          -1.51701717       -0.82552288        0.22777152
H           1.51701717        0.82552284        0.22777174
H           1.51701719       -0.82552285       -0.22777152
6
MD Time 2030.00
C          -0.78101844       -0.00000000       -0.00000002
C           0.78101844        0.00000001        0.00000002
H          -1.53870784        0.81718990       -0.22969616
H          -1.53870782       -0.81718997        0.22969598
H           1.53870782        0.81718992        0.22969620
H           1.53870784       -0.81718994       -0.22969598
6
MD Time 2040.00
C          -0.78752392       -0.00000000       -0.00000002
C           0.78752392        0.00000001        0.00000002
H          -1.55944145        0.80927355       -0.23118656
H          -1.55944144       -0.80927361        0.23118638
H           1.55944144        0.80927357        0.23118660
H           1.55944145       -0.80927358       -0.23118638
6
MD Time 2050.00
C          -0.79382141       -0.00000000       -0.00000002
C           0.79382141        0.00000001        0.00000002
H          -1.57912532        0.80179997       -0.23225413
H          -1.57912530       -0.80180004        0.23225395
H           1.57912530        0.80179999        0.23225417
H           1.57912531       -0.80180001       -0.23225395
6
MD Time 2060.00
C          -0.79991673       -0.00000000       -0.00000002
C           0.79991673        0.00000001        0.00000002
H          -1.59767196        0.79479542       -0.23291045
H          -1.59767194       -0.79479549        0.23291027
H           1.59767194        0.79479544        0.23291050
H           1.59767195       -0.79479546       -0.23291028
6
MD Time 2070.00
C          -0.80581569       -0.00000000       -0.00000002
C           0.80581569        0.00000001        0.00000002
H          -1.61500016        0.78828636       -0.23316754
H          -1.61500013       -0.78828643        0.23316736
H           1.61500014        0.78828638        0.23316759
H           1.61500014       -0.78828640       -0.23316737
6
MD Time 2080.00
C          -0.81152380       -0.00000000       -0.00000002
C           0.81152380        0.00000001        0.00000002
H          -1.63103577        0.78229963       -0.23303780
H          -1.63103575       -0.78229970        0.23303762
H           1.63103575        0.78229965        0.23303784
H           1.63103576       -0.78229966       -0.23303763
6
MD Time 2090.00
C          -0.81704607       -0.00000000       -0.00000002
C           0.81704607        0.00000001        0.00000002
H          -1.64571255        0.77686241       -0.23253400
H          -1.64571252       -0.77686248        0.23253382
H           1.64571253        0.77686243        0.23253405
H           1.64571253       -0.77686245       -0.23253383
6
MD Time 2100.00
C          -0.82238674       -0.00000000       -0.00000002
C           0.82238675        0.00000001        0.00000002
H          -1.65897275        0.77200218       -0.23166927
H          -1.65897272       -0.77200226        0.23166909
H           1.65897273        0.77200220        0.23166932
H           1.65897273       -0.77200222       -0.23166911
6
MD Time 2110.00
C          -0.82754916       -0.00000000       -0.00000002
C           0.82754916        0.00000001        0.00000002
H          -1.67076771        0.76774656       -0.23045700
H          -1.67076768       -0.76774664        0.23045682
H           1.67076769        0.76774658        0.23045705
H           1.67076769       -0.76774660       -0.23045684
6
MD Time 2120.00
C          -0.83253556       -0.00000000       -0.00000002
C           0.83253556        0.00000001        0.00000002
H          -1.68105827        0.76412305       -0.22891076
H          -1.68105823       -0.76412312        0.22891058
H           1.68105825        0.76412307        0.22891081
H           1.68105824       -0.76412309       -0.22891060
6
MD Time 2130.00
C          -0.83734702       -0.00000000       -0.00000002
C           0.83734702        0.00000001        0.00000002
H          -1.68981509        0.76115876       -0.22704419
H          -1.68981505       -0.76115884        0.22704402
H           1.68981507        0.76115878        0.22704425
H           1.68981506       -0.76115880       -0.22704404
6
MD Time 2140.00
C          -0.84198330       -0.00000000       -0.00000002
C           0.84198331        0.00000001        0.00000002
H          -1.69701889        0.75888015       -0.22487089
H          -1.69701885       -0.75888023        0.22487072
H           1.69701887        0.75888017        0.22487096
H           1.69701886       -0.75888019       -0.22487075
6
MD Time 2150.00
C          -0.84644285       -0.00000000       -0.00000002
C           0.84644285        0.00000001        0.00000002
H          -1.70266052        0.75731264       -0.22240427
H          -1.70266047       -0.75731272        0.22240410
H           1.70266050        0.75731266        0.22240434
H           1.70266049       -0.75731268       -0.22240414
6
MD Time 2160.00
C          -0.85072270       -0.00000000       -0.00000002
C           0.85072270        0.00000001        0.00000002
H          -1.70674097        0.75648029       -0.21965740
H          -1.70674092       -0.75648037        0.21965724
H           1.70674095        0.75648031        0.21965747
H           1.70674093       -0.75648033       -0.21965727
6
MD Time 2170.00
C          -0.85481847       -0.00000000       -0.00000002
C           0.85481847        0.00000001        0.00000002
H          -1.70927126        0.75640545       -0.21664286
H          -1.70927121       -0.75640553        0.21664270
H           1.70927124        0.75640547        0.21664293
H           1.70927123       -0.75640549       -0.21664274
6
MD Time 2180.00
C          -0.85872442       -0.00000000       -0.00000002
C           0.85872442        0.00000001        0.00000002
H          -1.71027222        0.75710840       -0.21337260
H          -1.71027217       -0.75710848        0.21337244
H           1.71027221        0.75710841        0.21337267
H           1.71027219       -0.75710844       -0.21337249
6
MD Time 2190.00
C          -0.86243341       -0.00000000       -0.00000003
C           0.86243341        0.00000001        0.00000002
H          -1.70977410        0.75860699       -0.20985775
H          -1.70977405       -0.75860707        0.20985760
H           1.70977409        0.75860700        0.20985783
H           1.70977407       -0.75860702       -0.20985765
6
MD Time 2200.00
C          -0.86593702       -0.00000000       -0.00000003
C           0.86593702        0.00000001        0.00000002
H          -1.70781612        0.76091627       -0.20610850
H          -1.70781606       -0.76091635        0.20610835
H           1.70781611        0.76091628        0.20610858
H           1.70781608       -0.76091630       -0.20610841
6
MD Time 2210.00
C          -0.86922564       -0.00000000       -0.00000003
C           0.86922563        0.00000001        0.00000002
H          -1.70444580        0.76404810       -0.20213393
H          -1.70444574       -0.76404818        0.20213378
H           1.70444579        0.76404811        0.20213401
H           1.70444576       -0.76404813       -0.20213384
6
MD Time 2220.00
C          -0.87228852       -0.00000000       -0.00000003
C           0.87228852        0.00000001        0.00000002
H          -1.69971823        0.76801073       -0.19794184
H          -1.69971817       -0.76801081        0.19794169
H           1.69971821        0.76801074        0.19794192
H           1.69971818       -0.76801076       -0.19794176
6
MD Time 2230.00
C          -0.87511401       -0.00000000       -0.00000003
C           0.87511401        0.00000001        0.00000002
H          -1.69369512        0.77280831       -0.19353865
H          -1.69369506       -0.77280840        0.19353851
H           1.69369511        0.77280832        0.19353875
H           1.69369508       -0.77280835       -0.19353858
6
MD Time 2240.00
C          -0.87768967       -0.00000000       -0.00000003
C           0.87768967        0.00000001        0.00000002
H          -1.68644377        0.77844041       -0.18892928
H          -1.68644371       -0.77844049        0.18892914
H           1.68644376        0.77844041        0.18892937
H           1.68644373       -0.77844044       -0.18892921
6
MD Time 2250.00
C          -0.88000248       -0.00000000       -0.00000003
C           0.88000248        0.00000001        0.00000003
H          -1.67803589        0.78490136       -0.18411697
H          -1.67803583       -0.78490144        0.18411684
H           1.67803589        0.78490136        0.18411707
H           1.67803585       -0.78490139       -0.18411692
6
MD Time 2260.00
C          -0.88203907       -0.00000000       -0.00000003
C           0.88203907        0.00000001        0.00000003
H          -1.66854633        0.79217967       -0.17910331
H          -1.66854626       -0.79217976        0.17910318
H           1.66854632        0.79217968        0.17910341
H           1.66854629       -0.79217970       -0.17910326
6
MD Time 2270.00
C          -0.88378591       -0.00000000       -0.00000003
C           0.88378591        0.00000001        0.00000003
H          -1.65805174        0.80025729       -0.17388810
H          -1.65805167       -0.80025737        0.17388797
H           1.65805174        0.80025729        0.17388820
H           1.65805170       -0.80025732       -0.17388806
6
MD Time 2280.00
C          -0.88522959       -0.00000000       -0.00000003
C           0.88522959        0.00000001        0.00000003
H          -1.64662930        0.80910885       -0.16846941
H          -1.64662922       -0.80910894        0.16846929
H           1.64662930        0.80910885        0.16846952
H           1.64662925       -0.80910888       -0.16846938
6
MD Time 2290.00
C          -0.88635699       -0.00000000       -0.00000003
C           0.88635699        0.00000001        0.00000003
H          -1.63435536        0.81870097       -0.16284364
H          -1.63435528       -0.81870105        0.16284352
H           1.63435536        0.81870097        0.16284375
H           1.63435531       -0.81870099       -0.16284362
6
MD Time 2300.00
C          -0.88715552       -0.00000000       -0.00000003
C           0.88715552        0.00000001        0.00000003
H          -1.62130434        0.82899154       -0.15700561
H          -1.62130426       -0.82899162        0.15700549
H           1.62130434        0.82899153        0.15700573
H           1.62130430       -0.82899156       -0.15700560
6
MD Time 2310.00
C          -0.88761330       -0.00000000       -0.00000003
C           0.88761330        0.00000001        0.00000003
H          -1.60754767        0.83992918       -0.15094881
H          -1.60754759       -0.83992926        0.15094870
H           1.60754768        0.83992917        0.15094893
H           1.60754763       -0.83992920       -0.15094881
6
MD Time 2320.00
C          -0.88771929       -0.00000000       -0.00000003
C           0.88771928        0.00000001        0.00000003
H          -1.59315301        0.85145286       -0.14466565
H          -1.59315293       -0.85145294        0.14466555
H           1.59315302        0.85145285        0.14466578
H           1.59315297       -0.85145287       -0.14466566
6
MD Time 2330.00
C          -0.88746337       -0.00000000       -0.00000003
C           0.88746337        0.00000001        0.00000003
H          -1.57818368        0.86349176       -0.13814782
H          -1.57818360       -0.86349184        0.13814772
H           1.57818369        0.86349175        0.13814796
H           1.57818364       -0.86349177       -0.13814785
6
MD Time 2340.00
C          -0.88683647       -0.00000000       -0.00000003
C           0.88683646        0.00000001        0.00000003
H          -1.56269837        0.87596542       -0.13138670
H          -1.56269829       -0.87596550        0.13138660
H           1.56269838        0.87596541        0.13138684
H           1.56269833       -0.87596543       -0.13138673
6
MD Time 2350.00
C          -0.88583049       -0.00000000       -0.00000003
C           0.88583048        0.00000001        0.00000003
H          -1.54675112        0.88878423       -0.12437380
H          -1.54675103       -0.88878430        0.12437371
H           1.54675113        0.88878421        0.12437395
H           1.54675108       -0.88878423       -0.12437385
6
MD Time 2360.00
C          -0.88443833       -0.00000000       -0.00000003
C           0.88443832        0.00000001        0.00000003
H          -1.53039154        0.90185019       -0.11710128
H          -1.53039145       -0.90185027        0.11710119
H           1.53039156        0.90185018        0.11710144
H           1.53039150       -0.90185020       -0.11710133
6
MD Time 2370.00
C          -0.88265381       -0.00000000       -0.00000003
C           0.88265380        0.00000001        0.00000003
H          -1.51366525        0.91505812       -0.10956240
H          -1.51366516       -0.91505819        0.10956231
H           1.51366527        0.91505810        0.10956256
H           1.51366521       -0.91505812       -0.10956246
6
MD Time 2380.00
C          -0.88047154       -0.00000000       -0.00000003
C           0.88047153        0.00000001        0.00000003
H          -1.49661447        0.92829697       -0.10175200
H          -1.49661438       -0.92829704        0.10175192
H           1.49661449        0.92829695        0.10175217
H           1.49661443       -0.92829697       -0.10175207
6
MD Time 2390.00
C          -0.87788686       -0.00000000       -0.00000003
C           0.87788686        0.00000001        0.00000003
H          -1.47927877        0.94145150       -0.09366692
H          -1.47927867       -0.94145157        0.09366683
H           1.47927878        0.94145148        0.09366709
H           1.47927872       -0.94145150       -0.09366700
6
MD Time 2400.00
C          -0.87489569       -0.00000000       -0.00000003
C           0.87489568        0.00000001        0.00000003
H          -1.46169577        0.95440406       -0.08530634
H          -1.46169568       -0.95440413        0.08530626
H           1.46169579        0.95440404        0.08530651
H           1.46169573       -0.95440406       -0.08530643
6
MD Time 2410.00
C          -0.87149440       -0.00000000       -0.00000003
C           0.87149440        0.00000001        0.00000003
H          -1.44390200        0.96703646       -0.07667209
H          -1.44390191       -0.96703653        0.07667201
H           1.44390202        0.96703644        0.07667226
H           1.44390196       -0.96703646       -0.07667218
6
MD Time 2420.00
C          -0.86767977       -0.00000000       -0.00000003
C           0.86767976        0.00000001        0.00000003
H          -1.42593353        0.97923185       -0.06776883
H          -1.42593343       -0.97923192        0.06776875
H           1.42593356        0.97923183        0.06776901
H           1.42593349       -0.97923185       -0.06776893
6
MD Time 2430.00
C          -0.86344882       -0.00000000       -0.00000003
C           0.86344882        0.00000001        0.00000003
H          -1.40782665        0.99087655       -0.05860417
H          -1.40782655       -0.99087662        0.05860409
H           1.40782667        0.99087653        0.05860435
H           1.40782660       -0.99087655       -0.05860428
6
MD Time 2440.00
C          -0.85879887       -0.00000000       -0.00000003
C           0.85879886        0.00000001        0.00000003
H          -1.38961836        1.00186182       -0.04918873
H          -1.38961826       -1.00186188        0.04918865
H           1.38961839        1.00186179        0.04918891
H           1.38961832       -1.00186181       -0.04918884
6
MD Time 2450.00
C          -0.85372742       -0.00000000       -0.00000003
C           0.85372741        0.00000001        0.00000003
H          -1.37134684        1.01208540       -0.03953605
H          -1.37134674       -1.01208546        0.03953597
H           1.37134686        1.01208538        0.03953624
H           1.37134679       -1.01208539       -0.03953617
6
MD Time 2460.00
C          -0.84823221       -0.00000000       -0.00000003
C           0.84823220        0.00000001        0.00000003
H          -1.35305166        1.02145299       -0.02966253
H          -1.35305156       -1.02145305        0.02966246
H           1.35305169        1.02145297        0.02966273
H           1.35305162       -1.02145298       -0.02966266
6
MD Time 2470.00
C          -0.84231126       -0.00000000       -0.00000003
C           0.84231125        0.00000001        0.00000003
H          -1.33477406        1.02987945       -0.01958728
H          -1.33477396       -1.02987950        0.01958721
H           1.33477408        1.02987943        0.01958747
H           1.33477401       -1.02987944       -0.01958740
6
MD Time 2480.00
C          -0.83596294       -0.00000000       -0.00000003
C           0.83596293        0.00000001        0.00000003
H          -1.31655696        1.03728987       -0.00933184
H          -1.31655686       -1.03728992        0.00933178
H           1.31655698        1.03728985        0.00933204
H           1.31655691       -1.03728986       -0.00933198
6
MD Time 2490.00
C          -0.82918606       -0.00000000       -0.00000002
C           0.82918606        0.00000001        0.00000003
H          -1.29844502        1.04362046        0.00107994
H          -1.29844492       -1.04362051       -0.00108001
H           1.29844505        1.04362045       -0.00107975
H           1.29844497       -1.04362046        0.00107981
6
MD Time 2500.00
C          -0.82198006       -0.00000000       -0.00000002
C           0.82198005        0.00000001        0.00000002
H          -1.28048462        1.04881927        0.01162227
H          -1.28048452       -1.04881932       -0.01162234
H           1.28048464        1.04881926       -0.01162208
H           1.28048457       -1.04881927        0.01162214
6
MD Time 2510.00
C          -0.81434510       -0.00000000       -0.00000002
C           0.81434509        0.00000001        0.00000002
H          -1.26272371        1.05284678        0.02226762
H          -1.26272361       -1.05284683       -0.02226769
H           1.26272373        1.05284677       -0.02226743
H           1.26272367       -1.05284678        0.02226749
6
MD Time 2520.00
C          -0.80628234       -0.00000000       -0.00000002
C           0.80628233        0.00000001        0.00000002
H          -1.24521178        1.05567637        0.03298703
H          -1.24521168       -1.05567641       -0.03298709
H           1.24521180        1.05567636       -0.03298684
H           1.24521174       -1.05567637        0.03298689
6
MD Time 2530.00
C          -0.79779414       -0.00000000       -0.00000002
C           0.79779414        0.00000001        0.00000002
H          -1.22799967        1.05729466        0.04375039
H          -1.22799958       -1.05729470       -0.04375045
H           1.22799969        1.05729466       -0.04375020
H           1.22799962       -1.05729466        0.04375025
6
MD Time 2540.00
C          -0.78888436       -0.00000000       -0.00000002
C           0.78888436        0.00000001        0.00000002
H          -1.21113945        1.05770183        0.05452673
H          -1.21113936       -1.05770187       -0.05452679
H           1.21113947        1.05770183       -0.05452654
H           1.21113941       -1.05770183        0.05452660
6
MD Time 2550.00
C          -0.77955869       -0.00000000       -0.00000002
C           0.77955868        0.00000001        0.00000002
H          -1.19468428        1.05691175        0.06528452
H          -1.19468419       -1.05691178       -0.06528458
H           1.19468430        1.05691175       -0.06528433
H           1.19468424       -1.05691175        0.06528439
6
MD Time 2560.00
C          -0.76982500       -0.00000000       -0.00000002
C           0.76982499        0.00000001        0.00000002
H          -1.17868825        1.05495211        0.07599191
H          -1.17868816       -1.05495215       -0.07599197
H           1.17868826        1.05495212       -0.07599173
H           1.17868820       -1.05495212        0.07599178
6
MD Time 2570.00
C          -0.75969383       -0.00000000       -0.00000002
C           0.75969382        0.00000001        0.00000002
H          -1.16320621        1.05186439        0.08661704
H          -1.16320612       -1.05186443       -0.08661710
H           1.16320623        1.05186440       -0.08661685
H           1.16320617       -1.05186440        0.08661690
6
MD Time 2580.00
C          -0.74917888       -0.00000000       -0.00000002
C           0.74917888        0.00000001        0.00000002
H          -1.14829362        1.04770372        0.09712825
H          -1.14829353       -1.04770375       -0.09712831
H           1.14829363        1.04770374       -0.09712807
H           1.14829357       -1.04770374        0.09712812
6
MD Time 2590.00
C          -0.73829761       -0.00000000       -0.00000002
C           0.73829760        0.00000001        0.00000002
H          -1.13400630        1.04253856        0.10749438
H          -1.13400622       -1.04253859       -0.10749444
H           1.13400631        1.04253858       -0.10749421
H           1.13400626       -1.04253858        0.10749426
6
MD Time 2600.00
C          -0.72707190       -0.00000000       -0.00000002
C           0.72707190        0.00000001        0.00000002
H          -1.12040024        1.03645020        0.11768494
H          -1.12040016       -1.03645023       -0.11768500
H           1.12040025        1.03645023       -0.11768477
H           1.12040020       -1.03645023        0.11768482
6
MD Time 2610.00
C          -0.71552889       -0.00000000       -0.00000002
C           0.71552888        0.00000001        0.00000002
H          -1.10753125        1.02953202        0.12767030
H          -1.10753118       -1.02953205       -0.12767035
H           1.10753126        1.02953205       -0.12767013
H           1.10753121       -1.02953205        0.12767018
6
MD Time 2620.00
C          -0.70370180       -0.00000000       -0.00000002
C           0.70370180        0.00000001        0.00000002
H          -1.09545463        1.02188838        0.13742183
H          -1.09545456       -1.02188841       -0.13742188
H           1.09545463        1.02188842       -0.13742166
H           1.09545459       -1.02188841        0.13742171
6
MD Time 2630.00
C          -0.69163100       -0.00000000       -0.00000002
C           0.69163099        0.00000001        0.00000002
H          -1.08422465        1.01363328        0.14691199
H          -1.08422459       -1.01363331       -0.14691205
H           1.08422465        1.01363332       -0.14691183
H           1.08422461       -1.01363332        0.14691188
6
MD Time 2640.00
C          -0.67936506       -0.00000000       -0.00000002
C           0.67936505        0.00000001        0.00000002
H          -1.07389404        1.00488855        0.15611435
H          -1.07389398       -1.00488858       -0.15611441
H           1.07389404        1.00488860       -0.15611420
H           1.07389400       -1.00488859        0.15611425
6
MD Time 2650.00
C          -0.66696196       -0.00000000       -0.00000001
C           0.66696196        0.00000001        0.00000002
H          -1.06451320        0.99578175        0.16500352
H          -1.06451315       -0.99578178       -0.16500358
H           1.06451320        0.99578180       -0.16500338
H           1.06451317       -0.99578179        0.16500343
6
MD Time 2660.00
C          -0.65449032       -0.00000000       -0.00000001
C           0.65449032        0.00000001        0.00000001
H          -1.05612943        0.98644366        0.17355501
H          -1.05612939       -0.98644368       -0.17355507
H           1.05612943        0.98644371       -0.17355487
H           1.05612940       -0.98644371        0.17355492
6
MD Time 2670.00
C          -0.64203057       -0.00000000       -0.00000001
C           0.64203057        0.00000001        0.00000001
H          -1.04878593        0.97700553        0.18174502
H          -1.04878589       -0.97700555       -0.18174507
H           1.04878592        0.97700558       -0.18174488
H           1.04878590       -0.97700557        0.18174494
6
MD Time 2680.00
C          -0.62967601       -0.00000000       -0.00000001
C           0.62967601        0.00000001        0.00000001
H          -1.04252073        0.96759612        0.18955018
H          -1.04252069       -0.96759614       -0.18955024
H           1.04252071        0.96759617       -0.18955005
H           1.04252069       -0.96759617        0.18955011
6
MD Time 2690.00
C          -0.61753365       -0.00000000       -0.00000001
C           0.61753366        0.00000000        0.00000001
H          -1.03736557        0.95833875        0.19694726
H          -1.03736554       -0.95833877       -0.19694732
H           1.03736555        0.95833880       -0.19694714
H           1.03736554       -0.95833880        0.19694719
6
MD Time 2700.00
C          -0.60572449       -0.00000000       -0.00000001
C           0.60572449        0.00000000        0.00000001
H          -1.03334483        0.94934847        0.20391285
H          -1.03334480       -0.94934848       -0.20391291
H           1.03334481        0.94934852       -0.20391273
H           1.03334480       -0.94934852        0.20391279
6
MD Time 2710.00
C          -0.59438317       -0.00000000       -0.00000001
C           0.59438317        0.00000000        0.00000001
H          -1.03047445        0.94072957        0.21042314
H          -1.03047443       -0.94072958       -0.21042320
H           1.03047443        0.94072963       -0.21042303
H           1.03047442       -0.94072962        0.21042309
6
MD Time 2720.00
C          -0.58365668       -0.00000000       -0.00000001
C           0.58365668        0.00000000        0.00000001
H          -1.02876119        0.93257363        0.21645381
H          -1.02876117       -0.93257365       -0.21645387
H           1.02876116        0.93257369       -0.21645371
H           1.02876116       -0.93257369        0.21645376
6
MD Time 2730.00
C          -0.57370184       -0.00000000       -0.00000001
C           0.57370185        0.00000000        0.00000001
H          -1.02820207        0.92495824        0.22198000
H          -1.02820206       -0.92495826       -0.22198006
H           1.02820204        0.92495830       -0.22197990
H           1.02820204       -0.92495830        0.22197996
6
MD Time 2740.00
C          -0.56468147       -0.00000000       -0.00000001
C           0.56468148        0.00000000        0.00000001
H          -1.02878424        0.91794642        0.22697654
H          -1.02878423       -0.91794643       -0.22697660
H           1.02878420        0.91794648       -0.22697645
H           1.02878421       -0.91794647        0.22697651
6
MD Time 2750.00
C          -0.55675899       -0.00000000       -0.00000001
C           0.55675899        0.00000000        0.00000001
H          -1.03048528        0.91158683        0.23141830
H          -1.03048528       -0.91158684       -0.23141836
H           1.03048524        0.91158689       -0.23141821
H           1.03048526       -0.91158688        0.23141828
6
MD Time 2760.00
C          -0.55009175       -0.00000000       -0.00000001
C           0.55009175        0.00000000        0.00000001
H          -1.03327393        0.90591466        0.23528069
H          -1.03327393       -0.90591467       -0.23528076
H           1.03327388        0.90591472       -0.23528061
H           1.03327390       -0.90591471        0.23528068
6
MD Time 2770.00
C          -0.54482334       -0.00000000       -0.00000001
C           0.54482335        0.00000000        0.00000001
H          -1.03711111        0.90095297        0.23854033
H          -1.03711112       -0.90095298       -0.23854039
H           1.03711107        0.90095303       -0.23854025
H           1.03711109       -0.90095302        0.23854032
6
MD Time 2780.00
C          -0.54107554       -0.00000000       -0.00000001
C           0.54107555        0.00000000        0.00000000
H          -1.04195142        0.89671446        0.24117567
H          -1.04195143       -0.89671447       -0.24117574
H           1.04195137        0.89671452       -0.24117561
H           1.04195139       -0.89671450        0.24117568
6
MD Time 2790.00
C          -0.53894067       -0.00000000       -0.00000000
C           0.53894068        0.00000000        0.00000000
H          -1.04774458        0.89320323        0.24316774
H          -1.04774459       -0.89320323       -0.24316781
H           1.04774453        0.89320329       -0.24316768
H           1.04774455       -0.89320327        0.24316775
6
MD Time 2800.00
C          -0.53847544       -0.00000000       -0.00000000
C           0.53847544        0.00000000        0.00000000
H          -1.05443711        0.89041653        0.24450070
H          -1.05443713       -0.89041653       -0.24450077
H           1.05443705        0.89041658       -0.24450064
H           1.05443708       -0.89041656        0.24450072
6
MD Time 2810.00
C          -0.53969699       -0.00000000       -0.00000000
C           0.53969700        0.00000000        0.00000000
H          -1.06197378        0.88834624        0.24516235
H          -1.06197380       -0.88834623       -0.24516242
H           1.06197372        0.88834629       -0.24516230
H           1.06197375       -0.88834626        0.24516238
6
MD Time 2820.00
C          -0.54258185       -0.00000000       -0.00000000
C           0.54258186        0.00000000        0.00000000
H          -1.07029894        0.88697994        0.24514453
H          -1.07029896       -0.88697993       -0.24514459
H           1.07029887        0.88697999       -0.24514448
H           1.07029891       -0.88697996        0.24514456
6
MD Time 2830.00
C          -0.54706784       -0.00000000       -0.00000000
C           0.54706785        0.00000000        0.00000000
H          -1.07935756        0.88630168        0.24444327
H          -1.07935759       -0.88630166       -0.24444333
H           1.07935749        0.88630173       -0.24444323
H           1.07935754       -0.88630169        0.24444331
6
MD Time 2840.00
C          -0.55305871       -0.00000000       -0.00000000
C           0.55305872        0.00000000        0.00000000
H          -1.08909598        0.88629221        0.24305890
H          -1.08909601       -0.88629219       -0.24305897
H           1.08909592        0.88629225       -0.24305887
H           1.08909596       -0.88629221        0.24305895
6
MD Time 2850.00
C          -0.56043078       -0.00000001       -0.00000000
C           0.56043079       -0.00000000        0.00000000
H          -1.09946232        0.88692899        0.24099596
H          -1.09946235       -0.88692897       -0.24099603
H           1.09946225        0.88692904       -0.24099593
H           1.09946230       -0.88692900        0.24099601
6
MD Time 2860.00
C          -0.56904072       -0.00000001       -0.00000000
C           0.56904073       -0.00000000       -0.00000000
H          -1.11040663        0.88818595        0.23826299
H          -1.11040667       -0.88818593       -0.23826305
H           1.11040656        0.88818599       -0.23826296
H           1.11040661       -0.88818595        0.23826305
6
MD Time 2870.00
C          -0.57873350       -0.00000001       -0.00000000
C           0.57873351       -0.00000000       -0.00000000
H          -1.12188081        0.89003301        0.23487221
H          -1.12188084       -0.89003298       -0.23487228
H           1.12188074        0.89003305       -0.23487220
H           1.12188079       -0.89003300        0.23487228
6
MD Time 2880.00
C          -0.58934976       -0.00000001       -0.00000000
C           0.58934977       -0.00000000       -0.00000000
H          -1.13383833        0.89243565        0.23083921
H          -1.13383838       -0.89243562       -0.23083928
H           1.13383827        0.89243569       -0.23083920
H           1.13383832       -0.89243564        0.23083929
6
MD Time 2890.00
C          -0.60073208       -0.00000001        0.00000000
C           0.60073209       -0.00000000       -0.00000000
H          -1.14623393        0.89535455        0.22618246
H          -1.14623397       -0.89535451       -0.22618253
H           1.14623386        0.89535458       -0.22618246
H           1.14623391       -0.89535453        0.22618255
6
MD Time 2900.00
C          -0.61272991       -0.00000001        0.00000000
C           0.61272992       -0.00000000       -0.00000000
H          -1.15902314        0.89874524        0.22092293
H          -1.15902318       -0.89874520       -0.22092300
H           1.15902307        0.89874527       -0.22092293
H           1.15902313       -0.89874521        0.22092302
6
MD Time 2910.00
C          -0.62520297       -0.00000001        0.00000000
C           0.62520298       -0.00000000       -0.00000000
H          -1.17216200        0.90255807        0.21508364
H          -1.17216204       -0.90255803       -0.21508371
H           1.17216193        0.90255810       -0.21508365
H           1.17216199       -0.90255804        0.21508374
6
MD Time 2920.00
C          -0.63802347       -0.00000001        0.00000000
C           0.63802348       -0.00000000       -0.00000000
H          -1.18560671        0.90673830        0.20868933
H          -1.18560676       -0.90673826       -0.20868940
H           1.18560665        0.90673833       -0.20868935
H           1.18560670       -0.90673827        0.20868944
6
MD Time 2930.00
C          -0.65107714       -0.00000001        0.00000000
C           0.65107715       -0.00000000       -0.00000000
H          -1.19931346        0.91122644        0.20176611
H          -1.19931351       -0.91122639       -0.20176618
H           1.19931340        0.91122646       -0.20176613
H           1.19931346       -0.91122640        0.20176622
6
MD Time 2940.00
C          -0.66426340       -0.00000001        0.00000000
C           0.66426341       -0.00000000       -0.00000000
H          -1.21323833        0.91595878        0.19434118
H          -1.21323839       -0.91595873       -0.19434124
H           1.21323828        0.91595880       -0.19434120
H           1.21323834       -0.91595873        0.19434129
6
MD Time 2950.00
C          -0.67749496       -0.00000001        0.00000000
C           0.67749497       -0.00000000       -0.00000000
H          -1.22733732        0.92086816        0.18644263
H          -1.22733738       -0.92086811       -0.18644269
H           1.22733727        0.92086818       -0.18644266
H           1.22733733       -0.92086811        0.18644275
6
MD Time 2960.00
C          -0.69069694       -0.00000001        0.00000000
C           0.69069695       -0.00000000       -0.00000000
H          -1.24156646        0.92588484        0.17809931
H          -1.24156651       -0.92588479       -0.17809938
H           1.24156641        0.92588486       -0.17809934
H           1.24156647       -0.92588479        0.17809944
6
MD Time 2970.00
C          -0.70380581       -0.00000001        0.00000000
C           0.70380581       -0.00000000       -0.00000000
H          -1.25588201        0.93093753        0.16934071
H          -1.25588206       -0.93093748       -0.16934078
H           1.25588196        0.93093755       -0.16934075
H           1.25588203       -0.93093748        0.16934085
6
MD Time 2980.00
C          -0.71676814       -0.00000001        0.00000000
C           0.71676814       -0.00000000       -0.00000000
H          -1.27024073        0.93595445        0.16019689
H          -1.27024079       -0.93595439       -0.16019696
H           1.27024069        0.93595447       -0.16019694
H           1.27024076       -0.93595440        0.16019703
6
MD Time 2990.00
C          -0.72953941       -0.00000001        0.00000000
C           0.72953942       -0.00000000       -0.00000000
H          -1.28460020        0.94086443        0.15069841
H          -1.28460026       -0.94086438       -0.15069848
H           1.28460016        0.94086445       -0.15069846
H           1.28460023       -0.94086438        0.15069856
