6
MD Time 0.00
C          -1.00424993        0.00000000        0.00000000
C           1.00424993        0.00000000        0.00000000
H          -1.57974221        0.85087473        0.35244385
H          -1.57974221       -0.85087473       -0.35244385
H           1.57974221        0.85087473       -0.35244385
H           1.57974221       -0.85087473        0.35244385
6
MD Time 10.00
C          -1.00410965        0.00000000       -0.00000000
C           1.00410965        0.00000000        0.00000000
H          -1.57962978        0.85109714        0.35239236
H          -1.57962978       -0.85109714       -0.35239236
H           1.57962978        0.85109714       -0.35239236
H           1.57962978       -0.85109714        0.35239236
6
MD Time 20.00
C          -1.00368904        0.00000000       -0.00000000
C           1.00368904        0.00000000        0.00000000
H          -1.57929077        0.85176067        0.35223625
H          -1.57929077       -0.85176067       -0.35223625
H           1.57929077        0.85176067       -0.35223625
H           1.57929077       -0.85176067        0.35223625
6
MD Time 30.00
C          -1.00298870        0.00000000       -0.00000000
C           1.00298870        0.00000000        0.00000000
H          -1.57872010        0.85285433        0.35197067
H          -1.57872010       -0.85285433       -0.35197067
H           1.57872010        0.85285433       -0.35197067
H           1.57872010       -0.85285433        0.35197067
6
MD Time 40.00
C          -1.00200962        0.00000000       -0.00000000
C           1.00200962        0.00000000        0.00000000
H          -1.57790950        0.85436012        0.35158767
H          -1.57790950       -0.85436012       -0.35158767
H           1.57790950        0.85436012       -0.35158767
H           1.57790950       -0.85436012        0.35158767
6
MD Time 50.00
C          -1.00075310        0.00000000       -0.00000000
C           1.00075310        0.00000000        0.00000000
H          -1.57684785        0.85625355        0.35107651
H          -1.57684785       -0.85625355       -0.35107651
H           1.57684785        0.85625355       -0.35107651
H           1.57684785       -0.85625355        0.35107651
6
MD Time 60.00
C          -0.99922070        0.00000000       -0.00000000
C           0.99922070        0.00000000        0.00000000
H          -1.57552150        0.85850433        0.35042390
H          -1.57552150       -0.85850433       -0.35042390
H           1.57552150        0.85850433       -0.35042390
H           1.57552150       -0.85850433        0.35042390
6
MD Time 70.00
C          -0.99741416        0.00000000       -0.00000000
C           0.99741416        0.00000000        0.00000000
H          -1.57391483        0.86107710        0.34961443
H          -1.57391483       -0.86107710       -0.34961443
H           1.57391483        0.86107710       -0.34961443
H           1.57391483       -0.86107710        0.34961443
6
MD Time 80.00
C          -0.99533530        0.00000000       -0.00000000
C           0.99533530        0.00000000        0.00000000
H          -1.57201074        0.86393240        0.34863099
H          -1.57201074       -0.86393240       -0.34863099
H           1.57201074        0.86393240       -0.34863099
H           1.57201074       -0.86393240        0.34863099
6
MD Time 90.00
C          -0.99298593        0.00000000       -0.00000000
C           0.99298593        0.00000000        0.00000000
H          -1.56979123        0.86702761        0.34745524
H          -1.56979123       -0.86702761       -0.34745523
H           1.56979123        0.86702761       -0.34745524
H           1.56979123       -0.86702761        0.34745523
6
MD Time 100.00
C          -0.99036778        0.00000000       -0.00000000
C           0.99036778        0.00000000        0.00000000
H          -1.56723796        0.87031797        0.34606802
H          -1.56723796       -0.87031797       -0.34606802
H           1.56723796        0.87031797       -0.34606802
H           1.56723796       -0.87031797        0.34606802
6
MD Time 110.00
C          -0.98748234        0.00000000       -0.00000000
C           0.98748234        0.00000000        0.00000000
H          -1.56433286        0.87375756        0.34444990
H          -1.56433286       -0.87375757       -0.34444990
H           1.56433286        0.87375756       -0.34444991
H           1.56433286       -0.87375757        0.34444990
6
MD Time 120.00
C          -0.98433083        0.00000000       -0.00000000
C           0.98433083        0.00000000        0.00000000
H          -1.56105862        0.87730035        0.34258156
H          -1.56105862       -0.87730035       -0.34258156
H           1.56105862        0.87730035       -0.34258156
H           1.56105862       -0.87730035        0.34258156
6
MD Time 130.00
C          -0.98091411        0.00000000       -0.00000000
C           0.98091411        0.00000000        0.00000000
H          -1.55739925        0.88090102        0.34044419
H          -1.55739925       -0.88090102       -0.34044419
H           1.55739925        0.88090102       -0.34044419
H           1.55739925       -0.88090102        0.34044419
6
MD Time 140.00
C          -0.97723259        0.00000000       -0.00000000
C           0.97723259        0.00000000        0.00000000
H          -1.55334048        0.88451593        0.33801990
H          -1.55334048       -0.88451593       -0.33801990
H           1.55334048        0.88451593       -0.33801990
H           1.55334048       -0.88451593        0.33801990
6
MD Time 150.00
C          -0.97328615        0.00000000       -0.00000000
C           0.97328615        0.00000000        0.00000000
H          -1.54887019        0.88810384        0.33529202
H          -1.54887019       -0.88810384       -0.33529202
H           1.54887019        0.88810384       -0.33529202
H           1.54887019       -0.88810384        0.33529202
6
MD Time 160.00
C          -0.96907414        0.00000000       -0.00000000
C           0.96907414        0.00000000        0.00000000
H          -1.54397872        0.89162661        0.33224535
H          -1.54397872       -0.89162661       -0.33224534
H           1.54397872        0.89162661       -0.33224535
H           1.54397872       -0.89162661        0.33224535
6
MD Time 170.00
C          -0.96459529        0.00000000       -0.00000000
C           0.96459529        0.00000000        0.00000000
H          -1.53865916        0.89504979        0.32886638
H          -1.53865916       -0.89504979       -0.32886638
H           1.53865916        0.89504979       -0.32886639
H           1.53865916       -0.89504979        0.32886638
6
MD Time 180.00
C          -0.95984773        0.00000000       -0.00000000
C           0.95984773        0.00000000        0.00000000
H          -1.53290754        0.89834312        0.32514350
H          -1.53290754       -0.89834312       -0.32514350
H           1.53290754        0.89834312       -0.32514350
H           1.53290754       -0.89834312        0.32514350
6
MD Time 190.00
C          -0.95482891        0.00000000       -0.00000000
C           0.95482891        0.00000000        0.00000000
H          -1.52672295        0.90148094        0.32106703
H          -1.52672295       -0.90148094       -0.32106703
H           1.52672295        0.90148094       -0.32106703
H           1.52672295       -0.90148094        0.32106703
6
MD Time 200.00
C          -0.94953566        0.00000000        0.00000000
C           0.94953566       -0.00000000        0.00000000
H          -1.52010769        0.90444244        0.31662933
H          -1.52010769       -0.90444244       -0.31662933
H           1.52010769        0.90444245       -0.31662933
H           1.52010769       -0.90444245        0.31662933
6
MD Time 210.00
C          -0.94396416        0.00000000        0.00000000
C           0.94396416       -0.00000000        0.00000000
H          -1.51306725        0.90721193        0.31182481
H          -1.51306725       -0.90721193       -0.31182481
H           1.51306725        0.90721193       -0.31182481
H           1.51306725       -0.90721193        0.31182481
6
MD Time 220.00
C          -0.93810997        0.00000000        0.00000000
C           0.93810997       -0.00000000        0.00000000
H          -1.50561029        0.90977887        0.30664990
H          -1.50561029       -0.90977887       -0.30664990
H           1.50561029        0.90977887       -0.30664990
H           1.50561029       -0.90977887        0.30664990
6
MD Time 230.00
C          -0.93196805        0.00000000        0.00000000
C           0.93196805       -0.00000000       -0.00000000
H          -1.49774858        0.91213794        0.30110295
H          -1.49774858       -0.91213794       -0.30110295
H           1.49774858        0.91213794       -0.30110295
H           1.49774858       -0.91213794        0.30110294
6
MD Time 240.00
C          -0.92553284       -0.00000000        0.00000000
C           0.92553284       -0.00000000       -0.00000000
H          -1.48949687        0.91428893        0.29518416
H          -1.48949687       -0.91428893       -0.29518416
H           1.48949687        0.91428893       -0.29518416
H           1.48949687       -0.91428893        0.29518416
6
MD Time 250.00
C          -0.91879827       -0.00000000        0.00000000
C           0.91879827       -0.00000000       -0.00000000
H          -1.48087270        0.91623654        0.28889544
H          -1.48087270       -0.91623654       -0.28889544
H           1.48087270        0.91623654       -0.28889544
H           1.48087270       -0.91623654        0.28889544
6
MD Time 260.00
C          -0.91175788       -0.00000000        0.00000000
C           0.91175788       -0.00000000       -0.00000000
H          -1.47189622        0.91799015        0.28224020
H          -1.47189622       -0.91799015       -0.28224020
H           1.47189622        0.91799015       -0.28224020
H           1.47189622       -0.91799015        0.28224020
6
MD Time 270.00
C          -0.90440487       -0.00000000        0.00000000
C           0.90440487       -0.00000000       -0.00000000
H          -1.46258987        0.91956340        0.27522322
H          -1.46258987       -0.91956340       -0.27522323
H           1.46258987        0.91956340       -0.27522322
H           1.46258987       -0.91956340        0.27522322
6
MD Time 280.00
C          -0.89673227       -0.00000000        0.00000000
C           0.89673227       -0.00000000       -0.00000000
H          -1.45297812        0.92097373        0.26785040
H          -1.45297812       -0.92097373       -0.26785040
H           1.45297812        0.92097373       -0.26785040
H           1.45297812       -0.92097373        0.26785040
6
MD Time 290.00
C          -0.88873298       -0.00000000        0.00000000
C           0.88873298       -0.00000000       -0.00000000
H          -1.44308707        0.92224181        0.26012853
H          -1.44308707       -0.92224180       -0.26012853
H           1.44308707        0.92224181       -0.26012852
H           1.44308707       -0.92224181        0.26012853
6
MD Time 300.00
C          -0.88040002       -0.00000000        0.00000000
C           0.88040002       -0.00000000       -0.00000000
H          -1.43294408        0.92339085        0.25206509
H          -1.43294408       -0.92339085       -0.25206510
H           1.43294408        0.92339085       -0.25206509
H           1.43294408       -0.92339085        0.25206510
6
MD Time 310.00
C          -0.87172664       -0.00000000        0.00000000
C           0.87172664       -0.00000000       -0.00000000
H          -1.42257734        0.92444589        0.24366805
H          -1.42257734       -0.92444589       -0.24366805
H           1.42257734        0.92444590       -0.24366805
H           1.42257734       -0.92444589        0.24366805
6
MD Time 320.00
C          -0.86270654       -0.00000000        0.00000000
C           0.86270654       -0.00000000       -0.00000000
H          -1.41201540        0.92543292        0.23494559
H          -1.41201539       -0.92543292       -0.23494559
H           1.41201540        0.92543292       -0.23494558
H           1.41201539       -0.92543292        0.23494559
6
MD Time 330.00
C          -0.85333413       -0.00000000        0.00000000
C           0.85333413       -0.00000000       -0.00000000
H          -1.40128667        0.92637799        0.22590596
H          -1.40128667       -0.92637799       -0.22590597
H           1.40128667        0.92637799       -0.22590596
H           1.40128667       -0.92637799        0.22590596
6
MD Time 340.00
C          -0.84360475       -0.00000000        0.00000000
C           0.84360475       -0.00000000       -0.00000000
H          -1.39041897        0.92730631        0.21655734
H          -1.39041896       -0.92730631       -0.21655735
H           1.39041897        0.92730631       -0.21655734
H           1.39041897       -0.92730631        0.21655734
6
MD Time 350.00
C          -0.83351501       -0.00000000        0.00000000
C           0.83351501       -0.00000000       -0.00000000
H          -1.37943899        0.92824127        0.20690768
H          -1.37943899       -0.92824127       -0.20690769
H           1.37943899        0.92824128       -0.20690768
H           1.37943899       -0.92824127        0.20690769
6
MD Time 360.00
C          -0.82306310       -0.00000000        0.00000000
C           0.82306310       -0.00000000       -0.00000000
H          -1.36837185        0.92920353        0.19696469
H          -1.36837185       -0.92920353       -0.19696470
H           1.36837185        0.92920353       -0.19696469
H           1.36837185       -0.92920353        0.19696469
6
MD Time 370.00
C          -0.81224918       -0.00000000        0.00000000
C           0.81224918       -0.00000000       -0.00000000
H          -1.35724063        0.93021011        0.18673580
H          -1.35724063       -0.93021011       -0.18673580
H           1.35724064        0.93021011       -0.18673579
H           1.35724063       -0.93021011        0.18673580
6
MD Time 380.00
C          -0.80107578       -0.00000000        0.00000000
C           0.80107578       -0.00000000       -0.00000000
H          -1.34606600        0.93127364        0.17622823
H          -1.34606600       -0.93127363       -0.17622825
H           1.34606600        0.93127364       -0.17622823
H           1.34606600       -0.93127364        0.17622824
6
MD Time 390.00
C          -0.78954831       -0.00000000        0.00000000
C           0.78954831       -0.00000000       -0.00000000
H          -1.33486587        0.93240166        0.16544918
H          -1.33486586       -0.93240165       -0.16544919
H           1.33486587        0.93240166       -0.16544917
H           1.33486586       -0.93240166        0.16544918
6
MD Time 400.00
C          -0.77767551       -0.00000000        0.00000000
C           0.77767551       -0.00000000       -0.00000000
H          -1.32365515        0.93359614        0.15440591
H          -1.32365515       -0.93359614       -0.15440593
H           1.32365515        0.93359614       -0.15440591
H           1.32365515       -0.93359614        0.15440592
6
MD Time 410.00
C          -0.76547010       -0.00000000        0.00000000
C           0.76547010       -0.00000000       -0.00000000
H          -1.31244566        0.93485315        0.14310612
H          -1.31244565       -0.93485315       -0.14310614
H           1.31244566        0.93485316       -0.14310612
H           1.31244565       -0.93485315        0.14310613
6
MD Time 420.00
C          -0.75294936       -0.00000000        0.00000000
C           0.75294936       -0.00000000       -0.00000000
H          -1.30124601        0.93616279        0.13155817
H          -1.30124600       -0.93616278       -0.13155819
H           1.30124601        0.93616279       -0.13155816
H           1.30124600       -0.93616279        0.13155818
6
MD Time 430.00
C          -0.74013588       -0.00000000        0.00000000
C           0.74013588       -0.00000000       -0.00000000
H          -1.29006177        0.93750925        0.11977142
H          -1.29006176       -0.93750925       -0.11977144
H           1.29006177        0.93750925       -0.11977141
H           1.29006177       -0.93750925        0.11977143
6
MD Time 440.00
C          -0.72705832       -0.00000000        0.00000000
C           0.72705832       -0.00000000       -0.00000000
H          -1.27889566        0.93887124        0.10775664
H          -1.27889565       -0.93887124       -0.10775667
H           1.27889566        0.93887125       -0.10775663
H           1.27889565       -0.93887124        0.10775666
6
MD Time 450.00
C          -0.71375229       -0.00000000        0.00000000
C           0.71375229       -0.00000000       -0.00000000
H          -1.26774789        0.94022256        0.09552632
H          -1.26774788       -0.94022256       -0.09552634
H           1.26774788        0.94022256       -0.09552630
H           1.26774788       -0.94022256        0.09552633
6
MD Time 460.00
C          -0.70026126       -0.00000000        0.00000000
C           0.70026126       -0.00000000       -0.00000000
H          -1.25661664        0.94153284        0.08309499
H          -1.25661664       -0.94153284       -0.08309501
H           1.25661664        0.94153285       -0.08309497
H           1.25661664       -0.94153284        0.08309500
6
MD Time 470.00
C          -0.68663760       -0.00000000        0.00000000
C           0.68663760       -0.00000000       -0.00000000
H          -1.24549870        0.94276861        0.07047957
H          -1.24549869       -0.94276861       -0.07047959
H           1.24549869        0.94276862       -0.07047955
H           1.24549869       -0.94276861        0.07047958
6
MD Time 480.00
C          -0.67294358       -0.00000000        0.00000000
C           0.67294358        0.00000000       -0.00000000
H          -1.23439009        0.94389437        0.05769957
H          -1.23439008       -0.94389437       -0.05769960
H           1.23439008        0.94389438       -0.05769955
H           1.23439008       -0.94389437        0.05769958
6
MD Time 490.00
C          -0.65925247       -0.00000000        0.00000000
C           0.65925247        0.00000000       -0.00000000
H          -1.22328696        0.94487389        0.04477727
H          -1.22328695       -0.94487389       -0.04477730
H           1.22328696        0.94487390       -0.04477725
H           1.22328695       -0.94487389        0.04477728
6
MD Time 500.00
C          -0.64564948       -0.00000000        0.00000000
C           0.64564948        0.00000000       -0.00000000
H          -1.21218645        0.94567154        0.03173780
H          -1.21218644       -0.94567154       -0.03173783
H           1.21218645        0.94567154       -0.03173778
H           1.21218644       -0.94567154        0.03173782
6
MD Time 510.00
C          -0.63223262       -0.00000000        0.00000000
C           0.63223262        0.00000000       -0.00000000
H          -1.20108765        0.94625369        0.01860914
H          -1.20108765       -0.94625369       -0.01860918
H           1.20108765        0.94625369       -0.01860912
H           1.20108765       -0.94625369        0.01860916
6
MD Time 520.00
C          -0.61911318       -0.00000000        0.00000000
C           0.61911318        0.00000000       -0.00000000
H          -1.18999264        0.94659013        0.00542202
H          -1.18999263       -0.94659013       -0.00542206
H           1.18999264        0.94659013       -0.00542200
H           1.18999263       -0.94659013        0.00542204
6
MD Time 530.00
C          -0.60641583       -0.00000000        0.00000000
C           0.60641583        0.00000000       -0.00000000
H          -1.17890751        0.94665548       -0.00779031
H          -1.17890750       -0.94665548        0.00779027
H           1.17890750        0.94665548        0.00779034
H           1.17890750       -0.94665548       -0.00779029
6
MD Time 540.00
C          -0.59427795       -0.00000000        0.00000000
C           0.59427795        0.00000000       -0.00000000
H          -1.16784341        0.94643052       -0.02099236
H          -1.16784340       -0.94643052        0.02099232
H           1.16784340        0.94643052        0.02099239
H           1.16784340       -0.94643052       -0.02099234
6
MD Time 550.00
C          -0.58284805       -0.00000000        0.00000000
C           0.58284805        0.00000000       -0.00000000
H          -1.15681757        0.94590356       -0.03414679
H          -1.15681756       -0.94590356        0.03414675
H           1.15681756        0.94590356        0.03414682
H           1.15681756       -0.94590356       -0.03414677
6
MD Time 560.00
C          -0.57228306       -0.00000000        0.00000000
C           0.57228306        0.00000000       -0.00000000
H          -1.14585424        0.94507163       -0.04721492
H          -1.14585423       -0.94507163        0.04721487
H           1.14585423        0.94507163        0.04721495
H           1.14585423       -0.94507163       -0.04721489
6
MD Time 570.00
C          -0.56274422       -0.00000000        0.00000000
C           0.56274422        0.00000000       -0.00000000
H          -1.13498553        0.94394164       -0.06015723
H          -1.13498552       -0.94394165        0.06015718
H           1.13498552        0.94394164        0.06015726
H           1.13498552       -0.94394165       -0.06015720
6
MD Time 580.00
C          -0.55439161       -0.00000000        0.00000000
C           0.55439161        0.00000000       -0.00000000
H          -1.12425211        0.94253148       -0.07293404
H          -1.12425211       -0.94253149        0.07293399
H           1.12425210        0.94253148        0.07293408
H           1.12425210       -0.94253149       -0.07293402
6
MD Time 590.00
C          -0.54737729       -0.00000000        0.00000000
C           0.54737729        0.00000000       -0.00000000
H          -1.11370370        0.94087088       -0.08550617
H          -1.11370369       -0.94087089        0.08550612
H           1.11370369        0.94087089        0.08550621
H           1.11370369       -0.94087089       -0.08550615
6
MD Time 600.00
C          -0.54183762       -0.00000000        0.00000000
C           0.54183762        0.00000000       -0.00000000
H          -1.10339930        0.93900219       -0.09783565
H          -1.10339930       -0.93900219        0.09783560
H           1.10339929        0.93900219        0.09783569
H           1.10339929       -0.93900219       -0.09783562
6
MD Time 610.00
C          -0.53788516       -0.00000000        0.00000000
C           0.53788516        0.00000000       -0.00000000
H          -1.09340713        0.93698083       -0.10988648
H          -1.09340713       -0.93698084        0.10988642
H           1.09340712        0.93698083        0.10988652
H           1.09340712       -0.93698084       -0.10988645
6
MD Time 620.00
C          -0.53560125       -0.00000000        0.00000000
C           0.53560125        0.00000000       -0.00000000
H          -1.08380416        0.93487549       -0.12162539
H          -1.08380415       -0.93487550        0.12162534
H           1.08380415        0.93487549        0.12162544
H           1.08380415       -0.93487550       -0.12162536
6
MD Time 630.00
C          -0.53503007       -0.00000000        0.00000000
C           0.53503007        0.00000000       -0.00000000
H          -1.07467518        0.93276773       -0.13302260
H          -1.07467517       -0.93276774        0.13302254
H           1.07467517        0.93276773        0.13302264
H           1.07467517       -0.93276774       -0.13302257
6
MD Time 640.00
C          -0.53617510       -0.00000000        0.00000000
C           0.53617510        0.00000000       -0.00000000
H          -1.06611145        0.93075106       -0.14405244
H          -1.06611145       -0.93075107        0.14405238
H           1.06611144        0.93075106        0.14405249
H           1.06611144       -0.93075107       -0.14405241
6
MD Time 650.00
C          -0.53899858        0.00000000        0.00000000
C           0.53899858        0.00000000       -0.00000000
H          -1.05820876        0.92892922       -0.15469398
H          -1.05820876       -0.92892923        0.15469392
H           1.05820875        0.92892922        0.15469403
H           1.05820875       -0.92892923       -0.15469395
6
MD Time 660.00
C          -0.54342405        0.00000000        0.00000000
C           0.54342406        0.00000000       -0.00000000
H          -1.05106499        0.92741359       -0.16493134
H          -1.05106499       -0.92741361        0.16493128
H           1.05106498        0.92741360        0.16493139
H           1.05106498       -0.92741360       -0.16493131
6
MD Time 670.00
C          -0.54934162        0.00000000       -0.00000000
C           0.54934163        0.00000000       -0.00000000
H          -1.04477726        0.92631969       -0.17475383
H          -1.04477725       -0.92631970        0.17475376
H           1.04477725        0.92631969        0.17475388
H           1.04477725       -0.92631970       -0.17475380
6
MD Time 680.00
C          -0.55661514        0.00000000       -0.00000000
C           0.55661514        0.00000000       -0.00000000
H          -1.03943874        0.92576276       -0.18415576
H          -1.03943873       -0.92576278        0.18415569
H           1.03943873        0.92576276        0.18415581
H           1.03943873       -0.92576277       -0.18415573
6
MD Time 690.00
C          -0.56509044        0.00000000       -0.00000000
C           0.56509044        0.00000000       -0.00000000
H          -1.03513530        0.92585264       -0.19313586
H          -1.03513529       -0.92585265        0.19313580
H           1.03513529        0.92585264        0.19313591
H           1.03513529       -0.92585265       -0.19313583
6
MD Time 700.00
C          -0.57460360        0.00000000       -0.00000000
C           0.57460360        0.00000000       -0.00000000
H          -1.03194229        0.92668811       -0.20169637
H          -1.03194228       -0.92668813        0.20169631
H           1.03194228        0.92668811        0.20169643
H           1.03194228       -0.92668812       -0.20169634
6
MD Time 710.00
C          -0.58498851        0.00000000       -0.00000000
C           0.58498851        0.00000000       -0.00000000
H          -1.02992163        0.92835121       -0.20984179
H          -1.02992162       -0.92835123        0.20984172
H           1.02992162        0.92835121        0.20984184
H           1.02992162       -0.92835122       -0.20984175
6
MD Time 720.00
C          -0.59608317        0.00000000       -0.00000000
C           0.59608317        0.00000000       -0.00000000
H          -1.02911948        0.93090185       -0.21757737
H          -1.02911948       -0.93090187        0.21757730
H           1.02911947        0.93090185        0.21757743
H           1.02911947       -0.93090187       -0.21757734
6
MD Time 730.00
C          -0.60773454        0.00000000       -0.00000000
C           0.60773454        0.00000000        0.00000000
H          -1.02956474        0.93437332       -0.22490765
H          -1.02956473       -0.93437334        0.22490758
H           1.02956472        0.93437332        0.22490771
H           1.02956473       -0.93437333       -0.22490762
6
MD Time 740.00
C          -0.61980181        0.00000000       -0.00000000
C           0.61980181        0.00000000        0.00000000
H          -1.03126837        0.93876905       -0.23183493
H          -1.03126836       -0.93876907        0.23183486
H           1.03126835        0.93876905        0.23183499
H           1.03126836       -0.93876906       -0.23183490
6
MD Time 750.00
C          -0.63215838        0.00000000       -0.00000000
C           0.63215838        0.00000000        0.00000000
H          -1.03422374        0.94406107       -0.23835806
H          -1.03422373       -0.94406109        0.23835799
H           1.03422372        0.94406107        0.23835812
H           1.03422373       -0.94406109       -0.23835803
6
MD Time 760.00
C          -0.64469259        0.00000000       -0.00000000
C           0.64469260        0.00000000        0.00000000
H          -1.03840773        0.95019016       -0.24447166
H          -1.03840773       -0.95019018        0.24447159
H           1.03840772        0.95019015        0.24447172
H           1.03840772       -0.95019017       -0.24447163
6
MD Time 770.00
C          -0.65730765       -0.00000000       -0.00000000
C           0.65730765        0.00000000        0.00000000
H          -1.04378255        0.95706774       -0.25016571
H          -1.04378255       -0.95706776        0.25016563
H           1.04378254        0.95706773        0.25016577
H           1.04378255       -0.95706775       -0.25016568
6
MD Time 780.00
C          -0.66992086       -0.00000000       -0.00000000
C           0.66992086        0.00000000        0.00000000
H          -1.05029802        0.96457931       -0.25542561
H          -1.05029801       -0.96457934        0.25542553
H           1.05029800        0.96457931        0.25542567
H           1.05029801       -0.96457933       -0.25542558
6
MD Time 790.00
C          -0.68246248       -0.00000000       -0.00000000
C           0.68246248        0.00000000        0.00000000
H          -1.05789402        0.97258903       -0.26023272
H          -1.05789402       -0.97258905        0.26023265
H           1.05789401        0.97258902        0.26023279
H           1.05789401       -0.97258904       -0.26023269
6
MD Time 800.00
C          -0.69487439       -0.00000000       -0.00000000
C           0.69487439        0.00000000        0.00000000
H          -1.06650307        0.98094490       -0.26456515
H          -1.06650307       -0.98094492        0.26456508
H           1.06650306        0.98094489        0.26456522
H           1.06650306       -0.98094490       -0.26456512
6
MD Time 810.00
C          -0.70710864       -0.00000000       -0.00000000
C           0.70710864        0.00000000        0.00000000
H          -1.07605264        0.98948435       -0.26839879
H          -1.07605264       -0.98948437        0.26839871
H           1.07605263        0.98948434        0.26839886
H           1.07605263       -0.98948436       -0.26839876
6
MD Time 820.00
C          -0.71912608       -0.00000000       -0.00000000
C           0.71912608        0.00000000        0.00000000
H          -1.08646726        0.99803966       -0.27170842
H          -1.08646726       -0.99803968        0.27170834
H           1.08646725        0.99803965        0.27170849
H           1.08646726       -0.99803967       -0.27170838
6
MD Time 830.00
C          -0.73089504       -0.00000000       -0.00000001
C           0.73089505        0.00000000        0.00000000
H          -1.09767030        1.00644293       -0.27446883
H          -1.09767029       -1.00644295        0.27446875
H           1.09767028        1.00644292        0.27446890
H           1.09767029       -1.00644294       -0.27446880
6
MD Time 840.00
C          -0.74239020       -0.00000000       -0.00000001
C           0.74239020        0.00000000        0.00000000
H          -1.10958534        1.01453051       -0.27665589
H          -1.10958534       -1.01453054        0.27665580
H           1.10958533        1.01453050        0.27665596
H           1.10958534       -1.01453052       -0.27665585
6
MD Time 850.00
C          -0.75359149       -0.00000000       -0.00000001
C           0.75359149        0.00000000        0.00000000
H          -1.12213734        1.02214668       -0.27824739
H          -1.12213733       -1.02214671        0.27824730
H           1.12213732        1.02214667        0.27824746
H           1.12213733       -1.02214669       -0.27824735
6
MD Time 860.00
C          -0.76448326       -0.00000000       -0.00000001
C           0.76448326        0.00000000        0.00000000
H          -1.13525335        1.02914661       -0.27922386
H          -1.13525335       -1.02914664        0.27922377
H           1.13525333        1.02914660        0.27922393
H           1.13525334       -1.02914662       -0.27922383
6
MD Time 870.00
C          -0.77505347       -0.00000000       -0.00000001
C           0.77505347        0.00000000        0.00000000
H          -1.14886315        1.03539864       -0.27956913
H          -1.14886315       -1.03539867        0.27956904
H           1.14886314        1.03539863        0.27956921
H           1.14886314       -1.03539865       -0.27956910
6
MD Time 880.00
C          -0.78529307       -0.00000000       -0.00000001
C           0.78529308        0.00000000        0.00000001
H          -1.16289959        1.04078596       -0.27927078
H          -1.16289958       -1.04078598        0.27927069
H           1.16289957        1.04078594        0.27927086
H           1.16289958       -1.04078596       -0.27927074
6
MD Time 890.00
C          -0.79519544       -0.00000000       -0.00000001
C           0.79519544        0.00000000        0.00000001
H          -1.17729883        1.04520773       -0.27832044
H          -1.17729882       -1.04520775        0.27832035
H           1.17729881        1.04520771        0.27832052
H           1.17729882       -1.04520773       -0.27832040
6
MD Time 900.00
C          -0.80475590       -0.00000000       -0.00000001
C           0.80475590        0.00000000        0.00000001
H          -1.19200050        1.04857988       -0.27671398
H          -1.19200049       -1.04857990        0.27671389
H           1.19200048        1.04857986        0.27671406
H           1.19200049       -1.04857988       -0.27671394
6
MD Time 910.00
C          -0.81397133       -0.00000000       -0.00000001
C           0.81397133        0.00000000        0.00000001
H          -1.20694780        1.05083549       -0.27445159
H          -1.20694780       -1.05083552        0.27445150
H           1.20694779        1.05083548        0.27445167
H           1.20694780       -1.05083549       -0.27445156
6
MD Time 920.00
C          -0.82283981       -0.00000000       -0.00000001
C           0.82283981        0.00000000        0.00000001
H          -1.22208759        1.05192508       -0.27153781
H          -1.22208758       -1.05192510        0.27153772
H           1.22208757        1.05192507        0.27153789
H           1.22208758       -1.05192508       -0.27153778
6
MD Time 930.00
C          -0.83136035       -0.00000000       -0.00000001
C           0.83136035        0.00000000        0.00000001
H          -1.23737040        1.05181661       -0.26798144
H          -1.23737040       -1.05181664        0.26798135
H           1.23737039        1.05181660        0.26798152
H           1.23737040       -1.05181661       -0.26798140
6
MD Time 940.00
C          -0.83953258       -0.00000000       -0.00000001
C           0.83953258        0.00000000        0.00000001
H          -1.25275062        1.05049549       -0.26379543
H          -1.25275061       -1.05049551        0.26379534
H           1.25275061        1.05049548        0.26379552
H           1.25275062       -1.05049549       -0.26379540
6
MD Time 950.00
C          -0.84735655       -0.00000000       -0.00000001
C           0.84735655        0.00000000        0.00000001
H          -1.26818653        1.04796446       -0.25899677
H          -1.26818652       -1.04796449        0.25899668
H           1.26818652        1.04796445        0.25899685
H           1.26818652       -1.04796446       -0.25899673
6
MD Time 960.00
C          -0.85483252       -0.00000000       -0.00000001
C           0.85483252        0.00000000        0.00000001
H          -1.28364048        1.04424347       -0.25360622
H          -1.28364048       -1.04424349        0.25360612
H           1.28364047        1.04424346        0.25360630
H           1.28364048       -1.04424347       -0.25360618
6
MD Time 970.00
C          -0.86196074       -0.00000000       -0.00000001
C           0.86196074        0.00000000        0.00000001
H          -1.29907910        1.03936945       -0.24764812
H          -1.29907910       -1.03936947        0.24764802
H           1.29907909        1.03936943        0.24764820
H           1.29907910       -1.03936944       -0.24764808
6
MD Time 980.00
C          -0.86874131       -0.00000000       -0.00000001
C           0.86874131        0.00000000        0.00000001
H          -1.31447343        1.03339606       -0.24115008
H          -1.31447343       -1.03339608        0.24114999
H           1.31447343        1.03339605        0.24115016
H           1.31447343       -1.03339606       -0.24115005
6
MD Time 990.00
C          -0.87517401       -0.00000000       -0.00000001
C           0.87517401        0.00000000        0.00000001
H          -1.32979917        1.02639334       -0.23414268
H          -1.32979916       -1.02639336        0.23414259
H           1.32979916        1.02639333        0.23414276
H           1.32979916       -1.02639334       -0.23414265
6
MD Time 1000.00
C          -0.88125818       -0.00000000       -0.00000001
C           0.88125818        0.00000000        0.00000001
H          -1.34503680        1.01844715       -0.22665904
H          -1.34503679       -1.01844717        0.22665895
H           1.34503679        1.01844714        0.22665912
H           1.34503679       -1.01844714       -0.22665901
6
MD Time 1010.00
C          -0.88699259       -0.00000000       -0.00000001
C           0.88699258        0.00000000        0.00000001
H          -1.36017176        1.00965845       -0.21873440
H          -1.36017175       -1.00965846        0.21873431
H           1.36017175        1.00965844        0.21873449
H           1.36017176       -1.00965844       -0.21873437
6
MD Time 1020.00
C          -0.89237537       -0.00000000       -0.00000001
C           0.89237537        0.00000000        0.00000001
H          -1.37519444        1.00014228       -0.21040562
H          -1.37519443       -1.00014230        0.21040553
H           1.37519443        1.00014228        0.21040570
H           1.37519444       -1.00014228       -0.21040559
6
MD Time 1030.00
C          -0.89740401       -0.00000000       -0.00000001
C           0.89740401        0.00000000        0.00000001
H          -1.39010009        0.99002642       -0.20171058
H          -1.39010008       -0.99002644        0.20171049
H           1.39010009        0.99002642        0.20171066
H           1.39010009       -0.99002642       -0.20171055
6
MD Time 1040.00
C          -0.90207529       -0.00000000       -0.00000001
C           0.90207529        0.00000000        0.00000001
H          -1.40488851        0.97944955       -0.19268757
H          -1.40488850       -0.97944957        0.19268748
H           1.40488851        0.97944955        0.19268765
H           1.40488851       -0.97944955       -0.19268754
6
MD Time 1050.00
C          -0.90638537       -0.00000000       -0.00000002
C           0.90638537        0.00000000        0.00000001
H          -1.41956351        0.96855904       -0.18337460
H          -1.41956350       -0.96855906        0.18337451
H           1.41956351        0.96855904        0.18337468
H           1.41956351       -0.96855904       -0.18337457
6
MD Time 1060.00
C          -0.91032991       -0.00000000       -0.00000002
C           0.91032991        0.00000000        0.00000001
H          -1.43413210        0.95750817       -0.17380866
H          -1.43413209       -0.95750819        0.17380857
H           1.43413210        0.95750817        0.17380874
H           1.43413210       -0.95750816       -0.17380863
6
MD Time 1070.00
C          -0.91390425       -0.00000000       -0.00000002
C           0.91390425        0.00000000        0.00000001
H          -1.44860331        0.94645285       -0.16402499
H          -1.44860331       -0.94645286        0.16402490
H           1.44860331        0.94645285        0.16402507
H           1.44860332       -0.94645284       -0.16402496
6
MD Time 1080.00
C          -0.91710363       -0.00000000       -0.00000002
C           0.91710363        0.00000000        0.00000002
H          -1.46298677        0.93554794       -0.15405638
H          -1.46298676       -0.93554796        0.15405629
H           1.46298677        0.93554794        0.15405646
H           1.46298678       -0.93554794       -0.15405636
6
MD Time 1090.00
C          -0.91992349       -0.00000000       -0.00000002
C           0.91992349        0.00000000        0.00000002
H          -1.47729085        0.92494322       -0.14393254
H          -1.47729084       -0.92494323        0.14393245
H           1.47729085        0.92494322        0.14393262
H           1.47729085       -0.92494321       -0.14393251
6
MD Time 1100.00
C          -0.92235987       -0.00000000       -0.00000002
C           0.92235987        0.00000000        0.00000002
H          -1.49152065        0.91477916       -0.13367954
H          -1.49152065       -0.91477918        0.13367945
H           1.49152066        0.91477916        0.13367962
H           1.49152066       -0.91477916       -0.13367951
6
MD Time 1110.00
C          -0.92440975       -0.00000000       -0.00000002
C           0.92440975        0.00000000        0.00000002
H          -1.50567584        0.90518284       -0.12331951
H          -1.50567583       -0.90518286        0.12331942
H           1.50567584        0.90518284        0.12331959
H           1.50567585       -0.90518284       -0.12331948
6
MD Time 1120.00
C          -0.92607144       -0.00000000       -0.00000002
C           0.92607144        0.00000000        0.00000002
H          -1.51974840        0.89626414       -0.11287049
H          -1.51974839       -0.89626416        0.11287040
H           1.51974840        0.89626414        0.11287056
H           1.51974841       -0.89626414       -0.11287046
6
MD Time 1130.00
C          -0.92734496       -0.00000000       -0.00000002
C           0.92734495        0.00000000        0.00000002
H          -1.53372065        0.88811257       -0.10234651
H          -1.53372065       -0.88811258        0.10234642
H           1.53372065        0.88811257        0.10234659
H           1.53372066       -0.88811256       -0.10234649
6
MD Time 1140.00
C          -0.92823232       -0.00000000       -0.00000002
C           0.92823232        0.00000000        0.00000002
H          -1.54756358        0.88079496       -0.09175800
H          -1.54756357       -0.88079497        0.09175791
H           1.54756358        0.88079496        0.09175807
H           1.54756359       -0.88079495       -0.09175797
6
MD Time 1150.00
C          -0.92873776       -0.00000000       -0.00000002
C           0.92873776        0.00000000        0.00000002
H          -1.56123568        0.87435417       -0.08111227
H          -1.56123568       -0.87435419        0.08111218
H           1.56123568        0.87435417        0.08111234
H           1.56123569       -0.87435416       -0.08111224
6
MD Time 1160.00
C          -0.92886781       -0.00000000       -0.00000002
C           0.92886781        0.00000000        0.00000002
H          -1.57468249        0.86880896       -0.07041433
H          -1.57468248       -0.86880897        0.07041424
H           1.57468249        0.86880896        0.07041441
H           1.57468249       -0.86880895       -0.07041431
6
MD Time 1170.00
C          -0.92863129       -0.00000000       -0.00000002
C           0.92863129        0.00000000        0.00000002
H          -1.58783680        0.86415489       -0.05966770
H          -1.58783679       -0.86415491        0.05966761
H           1.58783680        0.86415489        0.05966778
H           1.58783680       -0.86415488       -0.05966768
6
MD Time 1180.00
C          -0.92803914       -0.00000000       -0.00000002
C           0.92803914        0.00000000        0.00000002
H          -1.60061964        0.86036628       -0.04887529
H          -1.60061964       -0.86036630        0.04887520
H           1.60061964        0.86036628        0.04887537
H           1.60061965       -0.86036627       -0.04887527
6
MD Time 1190.00
C          -0.92710416       -0.00000000       -0.00000002
C           0.92710416        0.00000000        0.00000002
H          -1.61294188        0.85739888       -0.03804024
H          -1.61294187       -0.85739889        0.03804014
H           1.61294188        0.85739888        0.03804031
H           1.61294189       -0.85739887       -0.03804021
6
MD Time 1200.00
C          -0.92584069       -0.00000000       -0.00000002
C           0.92584069        0.00000000        0.00000002
H          -1.62470629        0.85519306       -0.02716661
H          -1.62470628       -0.85519307        0.02716652
H           1.62470629        0.85519306        0.02716669
H           1.62470630       -0.85519305       -0.02716659
6
MD Time 1210.00
C          -0.92426414       -0.00000000       -0.00000002
C           0.92426413        0.00000000        0.00000002
H          -1.63581003        0.85367730       -0.01626003
H          -1.63581002       -0.85367732        0.01625994
H           1.63581002        0.85367730        0.01626011
H           1.63581003       -0.85367729       -0.01626001
6
MD Time 1220.00
C          -0.92239059       -0.00000000       -0.00000002
C           0.92239059        0.00000000        0.00000002
H          -1.64614721        0.85277165       -0.00532804
H          -1.64614720       -0.85277166        0.00532795
H           1.64614720        0.85277165        0.00532812
H           1.64614721       -0.85277164       -0.00532802
6
MD Time 1230.00
C          -0.92023638       -0.00000000       -0.00000002
C           0.92023638        0.00000000        0.00000002
H          -1.65561149        0.85239097        0.00561967
H          -1.65561148       -0.85239098       -0.00561976
H           1.65561148        0.85239097       -0.00561959
H           1.65561149       -0.85239096        0.00561969
6
MD Time 1240.00
C          -0.91781765       -0.00000000       -0.00000002
C           0.91781765        0.00000000        0.00000002
H          -1.66409851        0.85244793        0.01657117
H          -1.66409850       -0.85244794       -0.01657126
H           1.66409850        0.85244793       -0.01657109
H           1.66409851       -0.85244792        0.01657119
6
MD Time 1250.00
C          -0.91515000       -0.00000000       -0.00000002
C           0.91515000        0.00000000        0.00000002
H          -1.67150804        0.85285551        0.02751238
H          -1.67150804       -0.85285552       -0.02751247
H           1.67150804        0.85285551       -0.02751230
H           1.67150805       -0.85285549        0.02751240
6
MD Time 1260.00
C          -0.91224819       -0.00000000       -0.00000002
C           0.91224819        0.00000000        0.00000002
H          -1.67774590        0.85352913        0.03842722
H          -1.67774590       -0.85352914       -0.03842731
H           1.67774590        0.85352913       -0.03842714
H           1.67774591       -0.85352912        0.03842724
6
MD Time 1270.00
C          -0.90912586       -0.00000000       -0.00000002
C           0.90912586        0.00000000        0.00000002
H          -1.68272545        0.85438833        0.04929789
H          -1.68272544       -0.85438834       -0.04929798
H           1.68272544        0.85438833       -0.04929781
H           1.68272545       -0.85438831        0.04929791
6
MD Time 1280.00
C          -0.90579533       -0.00000000       -0.00000002
C           0.90579533        0.00000000        0.00000002
H          -1.68636880        0.85535803        0.06010513
H          -1.68636879       -0.85535804       -0.06010523
H           1.68636879        0.85535803       -0.06010505
H           1.68636880       -0.85535801        0.06010515
6
MD Time 1290.00
C          -0.90226750       -0.00000000       -0.00000002
C           0.90226750        0.00000000        0.00000002
H          -1.68860778        0.85636952        0.07082857
H          -1.68860778       -0.85636953       -0.07082867
H           1.68860778        0.85636953       -0.07082850
H           1.68860779       -0.85636951        0.07082860
6
MD Time 1300.00
C          -0.89855168       -0.00000000       -0.00000002
C           0.89855168        0.00000000        0.00000002
H          -1.68938459        0.85736115        0.08144707
H          -1.68938458       -0.85736116       -0.08144716
H           1.68938459        0.85736116       -0.08144699
H           1.68938460       -0.85736114        0.08144709
6
MD Time 1310.00
C          -0.89465557       -0.00000000       -0.00000002
C           0.89465557        0.00000000        0.00000002
H          -1.68865224        0.85827879        0.09193899
H          -1.68865223       -0.85827880       -0.09193909
H           1.68865224        0.85827880       -0.09193891
H           1.68865224       -0.85827878        0.09193901
6
MD Time 1320.00
C          -0.89058519       -0.00000000       -0.00000002
C           0.89058519        0.00000000        0.00000002
H          -1.68637490        0.85907619        0.10228258
H          -1.68637488       -0.85907620       -0.10228268
H           1.68637489        0.85907620       -0.10228251
H           1.68637490       -0.85907618        0.10228261
6
MD Time 1330.00
C          -0.88634488       -0.00000000       -0.00000002
C           0.88634488        0.00000000        0.00000002
H          -1.68252806        0.85971520        0.11245627
H          -1.68252805       -0.85971521       -0.11245637
H           1.68252806        0.85971521       -0.11245619
H           1.68252806       -0.85971519        0.11245629
6
MD Time 1340.00
C          -0.88193730       -0.00000000       -0.00000002
C           0.88193730        0.00000000        0.00000002
H          -1.67709870        0.86016600        0.12243892
H          -1.67709869       -0.86016601       -0.12243902
H           1.67709870        0.86016601       -0.12243885
H           1.67709870       -0.86016599        0.12243895
6
MD Time 1350.00
C          -0.87736344       -0.00000000       -0.00000002
C           0.87736344        0.00000000        0.00000002
H          -1.67008532        0.86040720        0.13221016
H          -1.67008530       -0.86040721       -0.13221026
H           1.67008532        0.86040721       -0.13221009
H           1.67008532       -0.86040719        0.13221019
6
MD Time 1360.00
C          -0.87262263       -0.00000000       -0.00000002
C           0.87262262        0.00000000        0.00000002
H          -1.66149801        0.86042606        0.14175064
H          -1.66149800       -0.86042607       -0.14175074
H           1.66149801        0.86042607       -0.14175057
H           1.66149802       -0.86042605        0.14175067
6
MD Time 1370.00
C          -0.86771254       -0.00000000       -0.00000002
C           0.86771254        0.00000000        0.00000002
H          -1.65135850        0.86021862        0.15104228
H          -1.65135849       -0.86021863       -0.15104238
H           1.65135851        0.86021864       -0.15104221
H           1.65135850       -0.86021862        0.15104231
6
MD Time 1380.00
C          -0.86262928       -0.00000000       -0.00000002
C           0.86262927        0.00000000        0.00000002
H          -1.63970016        0.85978996        0.16006853
H          -1.63970014       -0.85978997       -0.16006863
H           1.63970016        0.85978998       -0.16006846
H           1.63970016       -0.85978996        0.16006856
6
MD Time 1390.00
C          -0.85736736       -0.00000000       -0.00000002
C           0.85736736        0.00000000        0.00000002
H          -1.62656800        0.85915432        0.16881462
H          -1.62656798       -0.85915433       -0.16881473
H           1.62656800        0.85915434       -0.16881457
H           1.62656800       -0.85915432        0.16881467
6
MD Time 1400.00
C          -0.85191981       -0.00000000       -0.00000002
C           0.85191981        0.00000000        0.00000002
H          -1.61201868        0.85833537        0.17726781
H          -1.61201866       -0.85833538       -0.17726791
H           1.61201868        0.85833539       -0.17726775
H           1.61201868       -0.85833537        0.17726785
6
MD Time 1410.00
C          -0.84627820       -0.00000000       -0.00000002
C           0.84627820        0.00000000        0.00000002
H          -1.59612038        0.85736635        0.18541751
H          -1.59612036       -0.85736636       -0.18541762
H           1.59612039        0.85736637       -0.18541746
H           1.59612038       -0.85736635        0.18541756
6
MD Time 1420.00
C          -0.84043274       -0.00000000       -0.00000002
C           0.84043274        0.00000000        0.00000002
H          -1.57895264        0.85629015        0.19325557
H          -1.57895262       -0.85629016       -0.19325567
H           1.57895265        0.85629018       -0.19325552
H           1.57895264       -0.85629015        0.19325562
6
MD Time 1430.00
C          -0.83437244       -0.00000000       -0.00000002
C           0.83437244        0.00000000        0.00000002
H          -1.56060599        0.85515929        0.20077630
H          -1.56060597       -0.85515930       -0.20077641
H           1.56060600        0.85515932       -0.20077626
H           1.56060599       -0.85515930        0.20077636
6
MD Time 1440.00
C          -0.82808525       -0.00000000       -0.00000002
C           0.82808524        0.00000000        0.00000002
H          -1.54118145        0.85403568        0.20797660
H          -1.54118143       -0.85403569       -0.20797670
H           1.54118146        0.85403571       -0.20797656
H           1.54118145       -0.85403569        0.20797666
6
MD Time 1450.00
C          -0.82155828       -0.00000000       -0.00000002
C           0.82155827        0.00000000        0.00000002
H          -1.52078972        0.85299013        0.21485587
H          -1.52078970       -0.85299014       -0.21485597
H           1.52078973        0.85299016       -0.21485583
H           1.52078972       -0.85299014        0.21485593
6
MD Time 1460.00
C          -0.81477812       -0.00000000       -0.00000002
C           0.81477811        0.00000000        0.00000002
H          -1.49955014        0.85210146        0.22141591
H          -1.49955012       -0.85210147       -0.22141601
H           1.49955015        0.85210150       -0.22141587
H           1.49955014       -0.85210147        0.22141597
6
MD Time 1470.00
C          -0.80773119       -0.00000000       -0.00000002
C           0.80773119        0.00000000        0.00000002
H          -1.47758921        0.85145529        0.22766058
H          -1.47758919       -0.85145530       -0.22766068
H           1.47758922        0.85145532       -0.22766055
H           1.47758921       -0.85145530        0.22766065
6
MD Time 1480.00
C          -0.80040421       -0.00000000       -0.00000002
C           0.80040420        0.00000000        0.00000002
H          -1.45503881        0.85114217        0.23359538
H          -1.45503879       -0.85114218       -0.23359548
H           1.45503882        0.85114220       -0.23359535
H           1.45503881       -0.85114218        0.23359545
6
MD Time 1490.00
C          -0.79278470       -0.00000000       -0.00000002
C           0.79278470        0.00000000        0.00000002
H          -1.43203405        0.85125532        0.23922675
H          -1.43203402       -0.85125533       -0.23922685
H           1.43203406        0.85125535       -0.23922673
H           1.43203404       -0.85125533        0.23922683
6
MD Time 1500.00
C          -0.78486166       -0.00000000       -0.00000002
C           0.78486165        0.00000000        0.00000002
H          -1.40871075        0.85188773        0.24456129
H          -1.40871072       -0.85188775       -0.24456139
H           1.40871076        0.85188777       -0.24456127
H           1.40871075       -0.85188775        0.24456137
6
MD Time 1510.00
C          -0.77662619       -0.00000000       -0.00000002
C           0.77662619        0.00000000        0.00000002
H          -1.38520277        0.85312880        0.24960469
H          -1.38520274       -0.85312882       -0.24960478
H           1.38520278        0.85312884       -0.24960467
H           1.38520276       -0.85312882        0.24960476
6
MD Time 1520.00
C          -0.76807231       -0.00000000       -0.00000002
C           0.76807231        0.00000000        0.00000002
H          -1.36163914        0.85506058        0.25436061
H          -1.36163912       -0.85506059       -0.25436070
H           1.36163915        0.85506061       -0.25436059
H           1.36163914       -0.85506059        0.25436069
6
MD Time 1530.00
C          -0.75919769       -0.00000000       -0.00000002
C           0.75919768        0.00000000        0.00000002
H          -1.33814138        0.85775384        0.25882947
H          -1.33814135       -0.85775385       -0.25882957
H           1.33814138        0.85775387       -0.25882946
H           1.33814137       -0.85775385        0.25882955
6
MD Time 1540.00
C          -0.75000439       -0.00000000       -0.00000002
C           0.75000439        0.00000000        0.00000002
H          -1.31482094        0.86126425        0.26300726
H          -1.31482091       -0.86126426       -0.26300736
H           1.31482094        0.86126428       -0.26300726
H           1.31482093       -0.86126426        0.26300735
6
MD Time 1550.00
C          -0.74049969       -0.00000000       -0.00000002
C           0.74049969        0.00000000        0.00000002
H          -1.29177727        0.86562887        0.26688449
H          -1.29177724       -0.86562888       -0.26688459
H           1.29177727        0.86562889       -0.26688449
H           1.29177725       -0.86562888        0.26688458
6
MD Time 1560.00
C          -0.73069667       -0.00000000       -0.00000002
C           0.73069666        0.00000000        0.00000002
H          -1.26909633        0.87086331        0.27044539
H          -1.26909630       -0.87086332       -0.27044548
H           1.26909632        0.87086333       -0.27044538
H           1.26909631       -0.87086332        0.27044548
6
MD Time 1570.00
C          -0.72061485       -0.00000000       -0.00000002
C           0.72061485        0.00000000        0.00000002
H          -1.24684996        0.87695987        0.27366746
H          -1.24684992       -0.87695989       -0.27366755
H           1.24684995        0.87695989       -0.27366746
H           1.24684994       -0.87695988        0.27366755
6
MD Time 1580.00
C          -0.71028074       -0.00000000       -0.00000002
C           0.71028074        0.00000000        0.00000002
H          -1.22509593        0.88388678        0.27652148
H          -1.22509590       -0.88388680       -0.27652157
H           1.22509592        0.88388680       -0.27652148
H           1.22509591       -0.88388679        0.27652158
6
MD Time 1590.00
C          -0.69972824       -0.00000000       -0.00000002
C           0.69972824        0.00000000        0.00000002
H          -1.20387876        0.89158858        0.27897195
H          -1.20387872       -0.89158860       -0.27897205
H           1.20387875        0.89158859       -0.27897196
H           1.20387873       -0.89158859        0.27897205
6
MD Time 1600.00
C          -0.68899900       -0.00000000       -0.00000002
C           0.68899900        0.00000000        0.00000002
H          -1.18323111        0.89998776        0.28097797
H          -1.18323108       -0.89998777       -0.28097806
H           1.18323110        0.89998777       -0.28097798
H           1.18323108       -0.89998776        0.28097807
6
MD Time 1610.00
C          -0.67814276       -0.00000000       -0.00000002
C           0.67814276        0.00000000        0.00000002
H          -1.16317570        0.90898734        0.28249449
H          -1.16317566       -0.90898736       -0.28249458
H           1.16317568        0.90898735       -0.28249450
H           1.16317567       -0.90898734        0.28249460
6
MD Time 1620.00
C          -0.66721757       -0.00000000       -0.00000002
C           0.66721757        0.00000000        0.00000002
H          -1.14372744        0.91847427        0.28347387
H          -1.14372740       -0.91847429       -0.28347397
H           1.14372742        0.91847427       -0.28347389
H           1.14372740       -0.91847427        0.28347398
6
MD Time 1630.00
C          -0.65628995       -0.00000000       -0.00000002
C           0.65628996        0.00000000        0.00000002
H          -1.12489574        0.92832330        0.28386758
H          -1.12489570       -0.92832331       -0.28386767
H           1.12489572        0.92832330       -0.28386759
H           1.12489571       -0.92832329        0.28386769
6
MD Time 1640.00
C          -0.64543505       -0.00000000       -0.00000002
C           0.64543505        0.00000000        0.00000002
H          -1.10668678        0.93840105        0.28362788
H          -1.10668674       -0.93840106       -0.28362797
H           1.10668676        0.93840105       -0.28362789
H           1.10668674       -0.93840104        0.28362799
6
MD Time 1650.00
C          -0.63473652       -0.00000000       -0.00000002
C           0.63473652        0.00000000        0.00000002
H          -1.08910558        0.94857009        0.28270954
H          -1.08910554       -0.94857010       -0.28270963
H           1.08910555        0.94857008       -0.28270956
H           1.08910554       -0.94857008        0.28270965
6
MD Time 1660.00
C          -0.62428630       -0.00000000       -0.00000002
C           0.62428631        0.00000000        0.00000002
H          -1.07215785        0.95869269        0.28107128
H          -1.07215781       -0.95869270       -0.28107137
H           1.07215782        0.95869268       -0.28107130
H           1.07215780       -0.95869268        0.28107140
6
MD Time 1670.00
C          -0.61418409       -0.00000000       -0.00000002
C           0.61418409        0.00000000        0.00000002
H          -1.05585160        0.96863426        0.27867708
H          -1.05585156       -0.96863427       -0.27867717
H           1.05585157        0.96863425       -0.27867710
H           1.05585155       -0.96863425        0.27867720
6
MD Time 1680.00
C          -0.60453632       -0.00000000       -0.00000002
C           0.60453633        0.00000000        0.00000002
H          -1.04019840        0.97826628        0.27549715
H          -1.04019836       -0.97826630       -0.27549724
H           1.04019837        0.97826628       -0.27549718
H           1.04019836       -0.97826627        0.27549727
6
MD Time 1690.00
C          -0.59545474       -0.00000000       -0.00000002
C           0.59545474        0.00000000        0.00000002
H          -1.02521434        0.98746877        0.27150873
H          -1.02521430       -0.98746878       -0.27150882
H           1.02521431        0.98746876       -0.27150876
H           1.02521429       -0.98746876        0.27150885
6
MD Time 1700.00
C          -0.58705431       -0.00000000       -0.00000002
C           0.58705432        0.00000000        0.00000002
H          -1.01092069        0.99613226        0.26669654
H          -1.01092064       -0.99613227       -0.26669663
H           1.01092065        0.99613226       -0.26669658
H           1.01092064       -0.99613225        0.26669667
6
MD Time 1710.00
C          -0.57945050       -0.00000000       -0.00000002
C           0.57945050        0.00000000        0.00000002
H          -0.99734431        1.00415942        0.26105309
H          -0.99734427       -1.00415944       -0.26105318
H           0.99734428        1.00415942       -0.26105313
H           0.99734426       -1.00415941        0.26105322
6
MD Time 1720.00
C          -0.57275585       -0.00000000       -0.00000002
C           0.57275586        0.00000000        0.00000002
H          -0.98451783        1.01146630        0.25457870
H          -0.98451778       -1.01146632       -0.25457879
H           0.98451779        1.01146630       -0.25457873
H           0.98451777       -1.01146629        0.25457883
6
MD Time 1730.00
C          -0.56707612       -0.00000000       -0.00000002
C           0.56707612        0.00000000        0.00000002
H          -0.97247949        1.01798328        0.24728139
H          -0.97247944       -1.01798329       -0.24728148
H           0.97247945        1.01798328       -0.24728142
H           0.97247943       -1.01798327        0.24728152
6
MD Time 1740.00
C          -0.56250590       -0.00000000       -0.00000002
C           0.56250591        0.00000000        0.00000002
H          -0.96127293        1.02365584        0.23917664
H          -0.96127288       -1.02365585       -0.23917673
H           0.96127290        1.02365584       -0.23917668
H           0.96127287       -1.02365583        0.23917677
6
MD Time 1750.00
C          -0.55912433       -0.00000000       -0.00000002
C           0.55912434        0.00000000        0.00000002
H          -0.95094668        1.02844519        0.23028699
H          -0.95094663       -1.02844521       -0.23028708
H           0.95094664        1.02844520       -0.23028703
H           0.95094662       -1.02844518        0.23028713
6
MD Time 1760.00
C          -0.55699102       -0.00000000       -0.00000002
C           0.55699103        0.00000000        0.00000002
H          -0.94155349        1.03232874        0.22064158
H          -0.94155344       -1.03232876       -0.22064167
H           0.94155346        1.03232875       -0.22064162
H           0.94155343       -1.03232874        0.22064172
6
MD Time 1770.00
C          -0.55614273       -0.00000000       -0.00000002
C           0.55614273        0.00000000        0.00000002
H          -0.93314960        1.03530046        0.21027556
H          -0.93314955       -1.03530047       -0.21027565
H           0.93314957        1.03530047       -0.21027560
H           0.93314955       -1.03530045        0.21027570
6
MD Time 1780.00
C          -0.55659116       -0.00000000       -0.00000002
C           0.55659116        0.00000000        0.00000002
H          -0.92579378        1.03737113        0.19922948
H          -0.92579373       -1.03737115       -0.19922957
H           0.92579375        1.03737115       -0.19922953
H           0.92579372       -1.03737113        0.19922962
6
MD Time 1790.00
C          -0.55832208       -0.00000000       -0.00000002
C           0.55832209        0.00000000        0.00000002
H          -0.91954632        1.03856849        0.18754859
H          -0.91954628       -1.03856851       -0.18754868
H           0.91954629        1.03856851       -0.18754863
H           0.91954627       -1.03856849        0.18754873
6
MD Time 1800.00
C          -0.56129597       -0.00000000       -0.00000002
C           0.56129597        0.00000000        0.00000002
H          -0.91446798        1.03893708        0.17528201
H          -0.91446793       -1.03893710       -0.17528210
H           0.91446795        1.03893710       -0.17528205
H           0.91446792       -1.03893708        0.17528215
6
MD Time 1810.00
C          -0.56545000       -0.00000000       -0.00000002
C           0.56545000        0.00000000        0.00000002
H          -0.91061875        1.03853788        0.16248193
H          -0.91061871       -1.03853789       -0.16248202
H           0.91061872        1.03853790       -0.16248198
H           0.91061870       -1.03853788        0.16248207
6
MD Time 1820.00
C          -0.57070129       -0.00000000       -0.00000002
C           0.57070130        0.00000000        0.00000002
H          -0.90805673        1.03744755        0.14920265
H          -0.90805669       -1.03744757       -0.14920274
H           0.90805671        1.03744758       -0.14920270
H           0.90805668       -1.03744756        0.14920279
6
MD Time 1830.00
C          -0.57695092       -0.00000000       -0.00000002
C           0.57695092        0.00000000        0.00000002
H          -0.90683688        1.03575724        0.13549959
H          -0.90683683       -1.03575726       -0.13549968
H           0.90683685        1.03575727       -0.13549964
H           0.90683683       -1.03575725        0.13549973
6
MD Time 1840.00
C          -0.58408833       -0.00000000       -0.00000002
C           0.58408833        0.00000000        0.00000002
H          -0.90700978        1.03357082        0.12142825
H          -0.90700973       -1.03357083       -0.12142834
H           0.90700975        1.03357085       -0.12142830
H           0.90700973       -1.03357083        0.12142840
6
MD Time 1850.00
C          -0.59199589       -0.00000000       -0.00000002
C           0.59199589        0.00000000        0.00000002
H          -0.90862048        1.03100247        0.10704320
H          -0.90862044       -1.03100249       -0.10704329
H           0.90862046        1.03100250       -0.10704325
H           0.90862044       -1.03100248        0.10704335
6
MD Time 1860.00
C          -0.60055300       -0.00000000       -0.00000002
C           0.60055300        0.00000000        0.00000002
H          -0.91170736        1.02817372        0.09239700
H          -0.91170732       -1.02817374       -0.09239709
H           0.91170734        1.02817376       -0.09239705
H           0.91170732       -1.02817374        0.09239715
6
MD Time 1870.00
C          -0.60963983       -0.00000000       -0.00000002
C           0.60963983        0.00000000        0.00000002
H          -0.91630100        1.02520971        0.07753937
H          -0.91630096       -1.02520972       -0.07753946
H           0.91630098        1.02520975       -0.07753942
H           0.91630096       -1.02520973        0.07753952
6
MD Time 1880.00
C          -0.61914035       -0.00000000       -0.00000002
C           0.61914035        0.00000000        0.00000002
H          -0.92242328        1.02223494        0.06251635
H          -0.92242324       -1.02223496       -0.06251645
H           0.92242326        1.02223498       -0.06251640
H           0.92242324       -1.02223497        0.06251651
6
MD Time 1890.00
C          -0.62894465       -0.00000000       -0.00000003
C           0.62894466        0.00000000        0.00000002
H          -0.93008643        1.01936860        0.04736985
H          -0.93008639       -1.01936861       -0.04736994
H           0.93008641        1.01936863       -0.04736989
H           0.93008639       -1.01936862        0.04737000
6
MD Time 1900.00
C          -0.63895071       -0.00000000       -0.00000003
C           0.63895071        0.00000000        0.00000003
H          -0.93929232        1.01671955        0.03213728
H          -0.93929228       -1.01671957       -0.03213737
H           0.93929230        1.01671959       -0.03213733
H           0.93929229       -1.01671958        0.03213743
6
MD Time 1910.00
C          -0.64906545       -0.00000000       -0.00000003
C           0.64906545        0.00000001        0.00000003
H          -0.95003182        1.01438155        0.01685168
H          -0.95003178       -1.01438157       -0.01685178
H           0.95003180        1.01438159       -0.01685173
H           0.95003178       -1.01438158        0.01685184
6
MD Time 1920.00
C          -0.65920544       -0.00000000       -0.00000003
C           0.65920544        0.00000001        0.00000003
H          -0.96228425        1.01242866        0.00154205
H          -0.96228421       -1.01242868       -0.00154214
H           0.96228423        1.01242870       -0.00154209
H           0.96228422       -1.01242869        0.00154220
6
MD Time 1930.00
C          -0.66929708       -0.00000000       -0.00000003
C           0.66929708        0.00000001        0.00000003
H          -0.97601705        1.01091150       -0.01376602
H          -0.97601702       -1.01091152        0.01376592
H           0.97601703        1.01091153        0.01376598
H           0.97601702       -1.01091153       -0.01376587
6
MD Time 1940.00
C          -0.67927659       -0.00000000       -0.00000003
C           0.67927659        0.00000001        0.00000003
H          -0.99118551        1.00985451       -0.02904937
H          -0.99118547       -1.00985453        0.02904927
H           0.99118548        1.00985454        0.02904933
H           0.99118548       -1.00985453       -0.02904921
6
MD Time 1950.00
C          -0.68908965       -0.00000000       -0.00000003
C           0.68908966        0.00000001        0.00000003
H          -1.00773268        1.00925447       -0.04428624
H          -1.00773265       -1.00925449        0.04428613
H           1.00773266        1.00925450        0.04428620
H           1.00773265       -1.00925450       -0.04428608
6
MD Time 1960.00
C          -0.69869104       -0.00000000       -0.00000003
C           0.69869104        0.00000001        0.00000003
H          -1.02558950        1.00908050       -0.05945510
H          -1.02558947       -1.00908052        0.05945499
H           1.02558947        1.00908053        0.05945506
H           1.02558947       -1.00908052       -0.05945494
6
MD Time 1970.00
C          -0.70804398       -0.00000000       -0.00000003
C           0.70804399        0.00000001        0.00000003
H          -1.04467507        1.00927540       -0.07453356
H          -1.04467505       -1.00927542        0.07453345
H           1.04467505        1.00927543        0.07453352
H           1.04467505       -1.00927542       -0.07453340
6
MD Time 1980.00
C          -0.71711954       -0.00000001       -0.00000003
C           0.71711954        0.00000001        0.00000003
H          -1.06489725        1.00975841       -0.08949737
H          -1.06489723       -1.00975843        0.08949726
H           1.06489723        1.00975843        0.08949734
H           1.06489723       -1.00975843       -0.08949721
6
MD Time 1990.00
C          -0.72589589       -0.00000001       -0.00000003
C           0.72589590        0.00000001        0.00000003
H          -1.08615343        1.01042895       -0.10431972
H          -1.08615341       -1.01042897        0.10431961
H           1.08615341        1.01042897        0.10431969
H           1.08615341       -1.01042897       -0.10431956
6
MD Time 2000.00
C          -0.73435761       -0.00000001       -0.00000003
C           0.73435761        0.00000001        0.00000003
H          -1.10833163        1.01117116       -0.11897075
H          -1.10833161       -1.01117119        0.11897063
H           1.10833161        1.01117118        0.11897072
H           1.10833161       -1.01117118       -0.11897059
6
MD Time 2010.00
C          -0.74249488       -0.00000001       -0.00000003
C           0.74249488        0.00000001        0.00000003
H          -1.13131184        1.01185884       -0.13341738
H          -1.13131182       -1.01185887        0.13341726
H           1.13131181        1.01185885        0.13341735
H           1.13131182       -1.01185886       -0.13341722
6
MD Time 2020.00
C          -0.75030278       -0.00000001       -0.00000003
C           0.75030278        0.00000001        0.00000003
H          -1.15496752        1.01236041       -0.14762343
H          -1.15496750       -1.01236044        0.14762331
H           1.15496750        1.01236042        0.14762341
H           1.15496751       -1.01236042       -0.14762328
6
MD Time 2030.00
C          -0.75778053       -0.00000001       -0.00000003
C           0.75778053        0.00000001        0.00000003
H          -1.17916734        1.01254369       -0.16155000
H          -1.17916732       -1.01254372        0.16154987
H           1.17916731        1.01254370        0.16154998
H           1.17916733       -1.01254370       -0.16154984
6
MD Time 2040.00
C          -0.76493081       -0.00000001       -0.00000003
C           0.76493081        0.00000001        0.00000003
H          -1.20377683        1.01228018       -0.17515598
H          -1.20377681       -1.01228021        0.17515585
H           1.20377681        1.01228019        0.17515596
H           1.20377682       -1.01228019       -0.17515582
6
MD Time 2050.00
C          -0.77175908       -0.00000001       -0.00000003
C           0.77175908        0.00000001        0.00000003
H          -1.22866019        1.01144876       -0.18839878
H          -1.22866017       -1.01144879        0.18839865
H           1.22866016        1.01144877        0.18839877
H           1.22866018       -1.01144877       -0.18839863
6
MD Time 2060.00
C          -0.77827296       -0.00000001       -0.00000003
C           0.77827296        0.00000001        0.00000003
H          -1.25368188        1.00993869       -0.20123511
H          -1.25368187       -1.00993872        0.20123497
H           1.25368186        1.00993869        0.20123510
H           1.25368188       -1.00993870       -0.20123495
6
MD Time 2070.00
C          -0.78448173       -0.00000001       -0.00000003
C           0.78448174        0.00000001        0.00000003
H          -1.27870818        1.00765193       -0.21362169
H          -1.27870816       -1.00765196        0.21362156
H           1.27870815        1.00765194        0.21362169
H           1.27870817       -1.00765194       -0.21362154
6
MD Time 2080.00
C          -0.79039582       -0.00000001       -0.00000003
C           0.79039582        0.00000001        0.00000003
H          -1.30360846        1.00450488       -0.22551612
H          -1.30360845       -1.00450491        0.22551598
H           1.30360844        1.00450488        0.22551612
H           1.30360846       -1.00450488       -0.22551597
6
MD Time 2090.00
C          -0.79602634       -0.00000001       -0.00000003
C           0.79602634        0.00000001        0.00000003
H          -1.32825642        1.00042945       -0.23687752
H          -1.32825641       -1.00042948        0.23687738
H           1.32825640        1.00042945        0.23687753
H           1.32825642       -1.00042945       -0.23687737
6
MD Time 2100.00
C          -0.80138480       -0.00000001       -0.00000003
C           0.80138480        0.00000001        0.00000003
H          -1.35253098        0.99537377       -0.24766723
H          -1.35253098       -0.99537380        0.24766709
H           1.35253096        0.99537377        0.24766724
H           1.35253099       -0.99537377       -0.24766708
6
MD Time 2110.00
C          -0.80648269       -0.00000001       -0.00000003
C           0.80648269        0.00000001        0.00000003
H          -1.37631714        0.98930249       -0.25784939
H          -1.37631714       -0.98930252        0.25784924
H           1.37631712        0.98930249        0.25784940
H           1.37631714       -0.98930249       -0.25784923
6
MD Time 2120.00
C          -0.81133132       -0.00000001       -0.00000003
C           0.81133132        0.00000001        0.00000003
H          -1.39950661        0.98219675       -0.26739141
H          -1.39950661       -0.98219679        0.26739127
H           1.39950659        0.98219675        0.26739143
H           1.39950662       -0.98219675       -0.26739127
6
MD Time 2130.00
C          -0.81594149       -0.00000001       -0.00000003
C           0.81594149        0.00000001        0.00000003
H          -1.42199840        0.97405405       -0.27626451
H          -1.42199839       -0.97405408        0.27626435
H           1.42199838        0.97405405        0.27626453
H           1.42199840       -0.97405405       -0.27626436
6
MD Time 2140.00
C          -0.82032336       -0.00000001       -0.00000003
C           0.82032336        0.00000001        0.00000003
H          -1.44369925        0.96488789       -0.28444398
H          -1.44369925       -0.96488792        0.28444383
H           1.44369924        0.96488789        0.28444401
H           1.44369926       -0.96488789       -0.28444384
6
MD Time 2150.00
C          -0.82448625       -0.00000001       -0.00000003
C           0.82448625        0.00000001        0.00000003
H          -1.46452413        0.95472741       -0.29190963
H          -1.46452413       -0.95472745        0.29190947
H           1.46452411        0.95472742        0.29190966
H           1.46452414       -0.95472741       -0.29190949
6
MD Time 2160.00
C          -0.82843850       -0.00000001       -0.00000003
C           0.82843850        0.00000001        0.00000003
H          -1.48439654        0.94361698       -0.29864601
H          -1.48439654       -0.94361701        0.29864586
H           1.48439653        0.94361698        0.29864605
H           1.48439655       -0.94361697       -0.29864588
6
MD Time 2170.00
C          -0.83218731       -0.00000001       -0.00000003
C           0.83218731        0.00000001        0.00000003
H          -1.50324897        0.93161570       -0.30464272
H          -1.50324897       -0.93161574        0.30464257
H           1.50324896        0.93161571        0.30464277
H           1.50324899       -0.93161570       -0.30464259
6
MD Time 2180.00
C          -0.83573864       -0.00000001       -0.00000003
C           0.83573864        0.00000001        0.00000003
H          -1.52102324        0.91879703       -0.30989461
H          -1.52102324       -0.91879707        0.30989445
H           1.52102323        0.91879703        0.30989466
H           1.52102326       -0.91879703       -0.30989448
6
MD Time 2190.00
C          -0.83909709       -0.00000001       -0.00000003
C           0.83909709        0.00000001        0.00000003
H          -1.53767091        0.90524827       -0.31440198
H          -1.53767091       -0.90524831        0.31440182
H           1.53767090        0.90524828        0.31440203
H           1.53767093       -0.90524827       -0.31440185
6
MD Time 2200.00
C          -0.84226578       -0.00000001       -0.00000003
C           0.84226578        0.00000001        0.00000003
H          -1.55315363        0.89107014       -0.31817078
H          -1.55315363       -0.89107018        0.31817062
H           1.55315362        0.89107015        0.31817084
H           1.55315365       -0.89107013       -0.31817066
6
MD Time 2210.00
C          -0.84524624       -0.00000001       -0.00000003
C           0.84524624        0.00000001        0.00000003
H          -1.56744354        0.87637620       -0.32121271
H          -1.56744354       -0.87637624        0.32121255
H           1.56744353        0.87637621        0.32121278
H           1.56744356       -0.87637620       -0.32121259
6
MD Time 2220.00
C          -0.84803837       -0.00000001       -0.00000003
C           0.84803837        0.00000001        0.00000003
H          -1.58052358        0.86129229       -0.32354531
H          -1.58052358       -0.86129233        0.32354514
H           1.58052357        0.86129230        0.32354538
H           1.58052360       -0.86129229       -0.32354519
6
MD Time 2230.00
C          -0.85064033       -0.00000001       -0.00000003
C           0.85064033        0.00000001        0.00000003
H          -1.59238776        0.84595579       -0.32519194
H          -1.59238777       -0.84595583        0.32519178
H           1.59238776        0.84595580        0.32519202
H           1.59238779       -0.84595579       -0.32519183
6
MD Time 2240.00
C          -0.85304851       -0.00000001       -0.00000003
C           0.85304851        0.00000001        0.00000003
H          -1.60304132        0.83051468       -0.32618174
H          -1.60304133       -0.83051472        0.32618158
H           1.60304132        0.83051469        0.32618182
H           1.60304135       -0.83051468       -0.32618163
6
MD Time 2250.00
C          -0.85525752       -0.00000001       -0.00000003
C           0.85525752        0.00000001        0.00000003
H          -1.61250072        0.81512645       -0.32654937
H          -1.61250073       -0.81512650        0.32654920
H           1.61250072        0.81512646        0.32654945
H           1.61250075       -0.81512645       -0.32654926
6
MD Time 2260.00
C          -0.85726020       -0.00000001       -0.00000003
C           0.85726020        0.00000001        0.00000003
H          -1.62079344        0.79995671       -0.32633468
H          -1.62079345       -0.79995675        0.32633452
H           1.62079343        0.79995672        0.32633477
H           1.62079346       -0.79995671       -0.32633458
6
MD Time 2270.00
C          -0.85904773       -0.00000001       -0.00000003
C           0.85904772        0.00000001        0.00000003
H          -1.62795748        0.78517742       -0.32558224
H          -1.62795749       -0.78517747        0.32558207
H           1.62795748        0.78517743        0.32558233
H           1.62795751       -0.78517742       -0.32558214
6
MD Time 2280.00
C          -0.86060971       -0.00000001       -0.00000003
C           0.86060971        0.00000001        0.00000003
H          -1.63404059        0.77096488       -0.32434055
H          -1.63404060       -0.77096492        0.32434038
H           1.63404059        0.77096489        0.32434064
H           1.63404062       -0.77096488       -0.32434046
6
MD Time 2290.00
C          -0.86193444       -0.00000001       -0.00000003
C           0.86193444        0.00000001        0.00000003
H          -1.63909906        0.75749722       -0.32266119
H          -1.63909907       -0.75749727        0.32266103
H           1.63909906        0.75749723        0.32266129
H           1.63909909       -0.75749722       -0.32266111
6
MD Time 2300.00
C          -0.86300909       -0.00000001       -0.00000003
C           0.86300909        0.00000001        0.00000003
H          -1.64319616        0.74495166       -0.32059771
H          -1.64319617       -0.74495170        0.32059754
H           1.64319616        0.74495166        0.32059781
H           1.64319619       -0.74495166       -0.32059763
6
MD Time 2310.00
C          -0.86382014       -0.00000001       -0.00000003
C           0.86382014        0.00000001        0.00000003
H          -1.64640009        0.73350127       -0.31820424
H          -1.64640010       -0.73350132        0.31820408
H           1.64640008        0.73350128        0.31820435
H           1.64640011       -0.73350127       -0.31820416
6
MD Time 2320.00
C          -0.86435373       -0.00000001       -0.00000003
C           0.86435373        0.00000001        0.00000003
H          -1.64878159        0.72331159       -0.31553409
H          -1.64878160       -0.72331164        0.31553393
H           1.64878158        0.72331159        0.31553420
H           1.64878161       -0.72331159       -0.31553402
6
MD Time 2330.00
C          -0.86459618       -0.00000001       -0.00000003
C           0.86459618        0.00000001        0.00000003
H          -1.65041120        0.71453691       -0.31263809
H          -1.65041121       -0.71453695        0.31263792
H           1.65041120        0.71453691        0.31263820
H           1.65041123       -0.71453690       -0.31263802
6
MD Time 2340.00
C          -0.86453449       -0.00000001       -0.00000003
C           0.86453449        0.00000001        0.00000003
H          -1.65135628        0.70731655       -0.30956294
H          -1.65135628       -0.70731660        0.30956278
H           1.65135627        0.70731655        0.30956306
H           1.65135630       -0.70731655       -0.30956288
6
MD Time 2350.00
C          -0.86415684       -0.00000001       -0.00000003
C           0.86415684        0.00000001        0.00000003
H          -1.65167789        0.70177120       -0.30634964
H          -1.65167790       -0.70177125        0.30634948
H           1.65167788        0.70177119        0.30634976
H           1.65167791       -0.70177119       -0.30634958
6
MD Time 2360.00
C          -0.86345319       -0.00000001       -0.00000003
C           0.86345319        0.00000001        0.00000003
H          -1.65142792        0.69799941       -0.30303197
H          -1.65142792       -0.69799946        0.30303180
H           1.65142790        0.69799940        0.30303209
H           1.65142793       -0.69799940       -0.30303191
6
MD Time 2370.00
C          -0.86241566       -0.00000000       -0.00000003
C           0.86241567        0.00000001        0.00000003
H          -1.65064632        0.69607460       -0.29963528
H          -1.65064632       -0.69607465        0.29963511
H           1.65064629        0.69607459        0.29963540
H           1.65064632       -0.69607459       -0.29963522
6
MD Time 2380.00
C          -0.86103899       -0.00000000       -0.00000003
C           0.86103899        0.00000001        0.00000003
H          -1.64935902        0.69604259       -0.29617559
H          -1.64935902       -0.69604264        0.29617543
H           1.64935899        0.69604257        0.29617572
H           1.64935902       -0.69604257       -0.29617554
6
MD Time 2390.00
C          -0.85932075       -0.00000000       -0.00000003
C           0.85932075        0.00000001        0.00000003
H          -1.64757644        0.69791987       -0.29265919
H          -1.64757644       -0.69791992        0.29265902
H           1.64757642        0.69791985        0.29265932
H           1.64757645       -0.69791986       -0.29265914
6
MD Time 2400.00
C          -0.85726151       -0.00000000       -0.00000003
C           0.85726151        0.00000001        0.00000003
H          -1.64529287        0.70169284       -0.28908254
H          -1.64529287       -0.70169289        0.28908238
H           1.64529284        0.70169282        0.28908268
H           1.64529287       -0.70169283       -0.28908250
6
MD Time 2410.00
C          -0.85486481       -0.00000000       -0.00000003
C           0.85486481        0.00000001        0.00000003
H          -1.64248667        0.70731784       -0.28543284
H          -1.64248666       -0.70731789        0.28543268
H           1.64248663        0.70731782        0.28543298
H           1.64248666       -0.70731782       -0.28543280
6
MD Time 2420.00
C          -0.85213701       -0.00000000       -0.00000003
C           0.85213701        0.00000001        0.00000002
H          -1.63912140        0.71472223       -0.28168888
H          -1.63912140       -0.71472228        0.28168871
H           1.63912136        0.71472220        0.28168902
H           1.63912139       -0.71472221       -0.28168884
6
MD Time 2430.00
C          -0.84908697       -0.00000000       -0.00000003
C           0.84908697        0.00000001        0.00000002
H          -1.63514774        0.72380626       -0.27782231
H          -1.63514773       -0.72380631        0.27782215
H           1.63514770        0.72380622        0.27782246
H           1.63514773       -0.72380624       -0.27782228
6
MD Time 2440.00
C          -0.84572568       -0.00000000       -0.00000003
C           0.84572568        0.00000001        0.00000002
H          -1.63050596        0.73444576       -0.27379924
H          -1.63050595       -0.73444581        0.27379908
H           1.63050591        0.73444572        0.27379939
H           1.63050594       -0.73444574       -0.27379921
6
MD Time 2450.00
C          -0.84206577       -0.00000000       -0.00000002
C           0.84206578        0.00000001        0.00000002
H          -1.62512885        0.74649539       -0.26958185
H          -1.62512884       -0.74649544        0.26958169
H           1.62512881        0.74649535        0.26958200
H           1.62512883       -0.74649537       -0.26958182
6
MD Time 2460.00
C          -0.83812103       -0.00000000       -0.00000002
C           0.83812103        0.00000001        0.00000002
H          -1.61894492        0.75979230       -0.26513016
H          -1.61894490       -0.75979236        0.26513000
H           1.61894487        0.75979226        0.26513032
H           1.61894489       -0.75979228       -0.26513014
6
MD Time 2470.00
C          -0.83390587       -0.00000000       -0.00000002
C           0.83390588        0.00000001        0.00000002
H          -1.61188150        0.77416002       -0.26040369
H          -1.61188148       -0.77416008        0.26040353
H           1.61188145        0.77415999        0.26040385
H           1.61188147       -0.77416000       -0.26040367
6
MD Time 2480.00
C          -0.82943488       -0.00000000       -0.00000002
C           0.82943489        0.00000001        0.00000002
H          -1.60386774        0.78941244       -0.25536299
H          -1.60386772       -0.78941249        0.25536283
H           1.60386769        0.78941240        0.25536315
H           1.60386771       -0.78941242       -0.25536297
6
MD Time 2490.00
C          -0.82472240       -0.00000000       -0.00000002
C           0.82472241        0.00000001        0.00000002
H          -1.59483731        0.80535757       -0.24997095
H          -1.59483729       -0.80535763        0.24997078
H           1.59483726        0.80535754        0.24997111
H           1.59483727       -0.80535756       -0.24997093
6
MD Time 2500.00
C          -0.81978217       -0.00000000       -0.00000002
C           0.81978217        0.00000001        0.00000002
H          -1.58473065        0.82180125       -0.24419389
H          -1.58473062       -0.82180131        0.24419373
H           1.58473060        0.82180122        0.24419405
H           1.58473061       -0.82180124       -0.24419388
6
MD Time 2510.00
C          -0.81462704       -0.00000000       -0.00000002
C           0.81462704        0.00000001        0.00000002
H          -1.57349682        0.83855035       -0.23800243
H          -1.57349679       -0.83855042        0.23800227
H           1.57349677        0.83855032        0.23800260
H           1.57349678       -0.83855034       -0.23800243
6
MD Time 2520.00
C          -0.80926883       -0.00000000       -0.00000002
C           0.80926883        0.00000001        0.00000002
H          -1.56109491        0.85541570       -0.23137209
H          -1.56109488       -0.85541576        0.23137193
H           1.56109486        0.85541567        0.23137226
H           1.56109487       -0.85541569       -0.23137209
6
MD Time 2530.00
C          -0.80371817       -0.00000000       -0.00000002
C           0.80371817        0.00000001        0.00000002
H          -1.54749501        0.87221456       -0.22428364
H          -1.54749497       -0.87221463        0.22428348
H           1.54749496        0.87221454        0.22428382
H           1.54749496       -0.87221456       -0.22428364
6
MD Time 2540.00
C          -0.79798450       -0.00000000       -0.00000002
C           0.79798450        0.00000001        0.00000002
H          -1.53267881        0.88877272       -0.21672335
H          -1.53267878       -0.88877279        0.21672319
H           1.53267877        0.88877270        0.21672352
H           1.53267877       -0.88877272       -0.21672335
6
MD Time 2550.00
C          -0.79207605       -0.00000000       -0.00000002
C           0.79207605        0.00000001        0.00000002
H          -1.51663996        0.90492618       -0.20868297
H          -1.51663992       -0.90492624        0.20868281
H           1.51663992        0.90492616        0.20868315
H           1.51663991       -0.90492618       -0.20868297
6
MD Time 2560.00
C          -0.78599995       -0.00000000       -0.00000002
C           0.78599996        0.00000001        0.00000002
H          -1.49938407        0.92052249       -0.20015968
H          -1.49938403       -0.92052255        0.20015953
H           1.49938403        0.92052247        0.20015986
H           1.49938402       -0.92052249       -0.20015969
6
MD Time 2570.00
C          -0.77976233       -0.00000000       -0.00000002
C           0.77976234        0.00000001        0.00000002
H          -1.48092865        0.93542184       -0.19115589
H          -1.48092861       -0.93542191        0.19115574
H           1.48092862        0.93542183        0.19115607
H           1.48092860       -0.93542185       -0.19115590
6
MD Time 2580.00
C          -0.77336847       -0.00000000       -0.00000002
C           0.77336848        0.00000001        0.00000002
H          -1.46130289        0.94949792       -0.18167899
H          -1.46130284       -0.94949798        0.18167884
H           1.46130286        0.94949791        0.18167917
H           1.46130284       -0.94949792       -0.18167900
6
MD Time 2590.00
C          -0.76682298       -0.00000000       -0.00000002
C           0.76682298        0.00000001        0.00000002
H          -1.44054735        0.96263853       -0.17174104
H          -1.44054730       -0.96263859        0.17174089
H           1.44054732        0.96263853        0.17174122
H           1.44054730       -0.96263854       -0.17174105
6
MD Time 2600.00
C          -0.76012999       -0.00000000       -0.00000002
C           0.76012999        0.00000001        0.00000002
H          -1.41871365        0.97474625       -0.16135845
H          -1.41871359       -0.97474631        0.16135831
H           1.41871362        0.97474625        0.16135863
H           1.41871359       -0.97474627       -0.16135847
6
MD Time 2610.00
C          -0.75329340       -0.00000000       -0.00000002
C           0.75329340        0.00000001        0.00000002
H          -1.39586415        0.98573887       -0.15055165
H          -1.39586410       -0.98573893        0.15055151
H           1.39586413        0.98573888        0.15055183
H           1.39586410       -0.98573889       -0.15055167
6
MD Time 2620.00
C          -0.74631709       -0.00000000       -0.00000002
C           0.74631709        0.00000001        0.00000002
H          -1.37207170        0.99554993       -0.13934472
H          -1.37207164       -0.99554999        0.13934459
H           1.37207167        0.99554994        0.13934491
H           1.37207164       -0.99554996       -0.13934475
6
MD Time 2630.00
C          -0.73920517       -0.00000000       -0.00000002
C           0.73920517        0.00000001        0.00000001
H          -1.34741927        1.00412921       -0.12776503
H          -1.34741921       -1.00412927        0.12776490
H           1.34741925        1.00412922        0.12776521
H           1.34741921       -1.00412923       -0.12776506
6
MD Time 2640.00
C          -0.73196227       -0.00000000       -0.00000002
C           0.73196227        0.00000001        0.00000001
H          -1.32199980        1.01144326       -0.11584286
H          -1.32199973       -1.01144331        0.11584273
H           1.32199978        1.01144327        0.11584304
H           1.32199974       -1.01144328       -0.11584288
6
MD Time 2650.00
C          -0.72459383       -0.00000000       -0.00000002
C           0.72459383        0.00000001        0.00000001
H          -1.29591591        1.01747598       -0.10361099
H          -1.29591585       -1.01747603        0.10361086
H           1.29591590        1.01747600        0.10361116
H           1.29591586       -1.01747601       -0.10361101
6
MD Time 2660.00
C          -0.71710641       -0.00000000       -0.00000002
C           0.71710641        0.00000001        0.00000001
H          -1.26927968        1.02222920       -0.09110430
H          -1.26927961       -1.02222925        0.09110418
H           1.26927967        1.02222923        0.09110447
H           1.26927963       -1.02222923       -0.09110433
6
MD Time 2670.00
C          -0.70950801       -0.00000000       -0.00000001
C           0.70950801        0.00000001        0.00000001
H          -1.24221232        1.02572326       -0.07835932
H          -1.24221225       -1.02572332        0.07835920
H           1.24221231        1.02572329        0.07835949
H           1.24221226       -1.02572330       -0.07835935
6
MD Time 2680.00
C          -0.70180849       -0.00000000       -0.00000001
C           0.70180849        0.00000001        0.00000001
H          -1.21484382        1.02799754       -0.06541370
H          -1.21484375       -1.02799759        0.06541359
H           1.21484382        1.02799757        0.06541387
H           1.21484377       -1.02799758       -0.06541373
6
MD Time 2690.00
C          -0.69401992       -0.00000000       -0.00000001
C           0.69401992        0.00000001        0.00000001
H          -1.18731246        1.02911082       -0.05230571
H          -1.18731239       -1.02911086        0.05230560
H           1.18731246        1.02911085        0.05230587
H           1.18731241       -1.02911086       -0.05230574
6
MD Time 2700.00
C          -0.68615705       -0.00000000       -0.00000001
C           0.68615705        0.00000001        0.00000001
H          -1.15976411        1.02914149       -0.03907364
H          -1.15976404       -1.02914153        0.03907354
H           1.15976411        1.02914152        0.03907380
H           1.15976406       -1.02914153       -0.03907367
6
MD Time 2710.00
C          -0.67823776       -0.00000000       -0.00000001
C           0.67823776        0.00000001        0.00000001
H          -1.13235140        1.02818739       -0.02575519
H          -1.13235132       -1.02818744        0.02575509
H           1.13235140        1.02818743        0.02575534
H           1.13235135       -1.02818744       -0.02575521
6
MD Time 2720.00
C          -0.67028356       -0.00000000       -0.00000001
C           0.67028356        0.00000001        0.00000001
H          -1.10523258        1.02636521       -0.01238680
H          -1.10523251       -1.02636525        0.01238670
H           1.10523259        1.02636525        0.01238695
H           1.10523253       -1.02636525       -0.01238683
6
MD Time 2730.00
C          -0.66232008       -0.00000000       -0.00000001
C           0.66232008        0.00000001        0.00000001
H          -1.07857025        1.02380924        0.00099693
H          -1.07857018       -1.02380928       -0.00099702
H           1.07857026        1.02380928       -0.00099679
H           1.07857020       -1.02380929        0.00099690
6
MD Time 2740.00
C          -0.65437755       -0.00000000       -0.00000001
C           0.65437755        0.00000001        0.00000001
H          -1.05252973        1.02066949        0.01436388
H          -1.05252965       -1.02066952       -0.01436397
H           1.05252973        1.02066953       -0.01436374
H           1.05252968       -1.02066953        0.01436385
6
MD Time 2750.00
C          -0.64649129       -0.00000000       -0.00000001
C           0.64649129        0.00000001        0.00000001
H          -1.02727727        1.01710885        0.02768491
H          -1.02727719       -1.01710888       -0.02768499
H           1.02727727        1.01710889       -0.02768478
H           1.02727721       -1.01710889        0.02768489
6
MD Time 2760.00
C          -0.63870204       -0.00000000       -0.00000001
C           0.63870204        0.00000001        0.00000001
H          -1.00297806        1.01329945        0.04093425
H          -1.00297799       -1.01329948       -0.04093433
H           1.00297807        1.01329949       -0.04093413
H           1.00297801       -1.01329949        0.04093423
6
MD Time 2770.00
C          -0.63105627       -0.00000000       -0.00000001
C           0.63105627        0.00000001        0.00000001
H          -0.97979409        1.00941809        0.05408967
H          -0.97979402       -1.00941811       -0.05408975
H           0.97979410        1.00941812       -0.05408956
H           0.97979404       -1.00941813        0.05408965
6
MD Time 2780.00
C          -0.62360624       -0.00000000       -0.00000001
C           0.62360624        0.00000001        0.00000001
H          -0.95788181        1.00564077        0.06713244
H          -0.95788174       -1.00564080       -0.06713251
H           0.95788182        1.00564081       -0.06713233
H           0.95788176       -1.00564081        0.06713242
6
MD Time 2790.00
C          -0.61640988       -0.00000000       -0.00000001
C           0.61640988        0.00000001        0.00000001
H          -0.93738984        1.00213681        0.08004698
H          -0.93738977       -1.00213683       -0.08004705
H           0.93738984        1.00213684       -0.08004688
H           0.93738979       -1.00213684        0.08004697
6
MD Time 2800.00
C          -0.60953035       -0.00000000       -0.00000001
C           0.60953034        0.00000001        0.00000001
H          -0.91845661        0.99906246        0.09282025
H          -0.91845654       -0.99906248       -0.09282031
H           0.91845662        0.99906249       -0.09282015
H           0.91845656       -0.99906249        0.09282023
6
MD Time 2810.00
C          -0.60303528       -0.00000000       -0.00000001
C           0.60303528        0.00000001        0.00000001
H          -0.90120815        0.99655478        0.10544078
H          -0.90120808       -0.99655480       -0.10544083
H           0.90120815        0.99655480       -0.10544069
H           0.90120810       -0.99655480        0.10544076
6
MD Time 2820.00
C          -0.59699565       -0.00000000       -0.00000001
C           0.59699565        0.00000001        0.00000001
H          -0.88575601        0.99472598        0.11789754
H          -0.88575593       -0.99472600       -0.11789760
H           0.88575600        0.99472600       -0.11789746
H           0.88575595       -0.99472601        0.11789753
6
MD Time 2830.00
C          -0.59148427       -0.00000000       -0.00000001
C           0.59148427        0.00000001        0.00000001
H          -0.87219548        0.99365885        0.13017865
H          -0.87219541       -0.99365887       -0.13017870
H           0.87219548        0.99365887       -0.13017857
H           0.87219543       -0.99365887        0.13017864
6
MD Time 2840.00
C          -0.58657387       -0.00000000       -0.00000001
C           0.58657386        0.00000001        0.00000001
H          -0.86060420        0.99340350        0.14226999
H          -0.86060413       -0.99340351       -0.14227004
H           0.86060419        0.99340351       -0.14226992
H           0.86060415       -0.99340351        0.14226999
6
MD Time 2850.00
C          -0.58233489       -0.00000000       -0.00000001
C           0.58233489        0.00000001        0.00000001
H          -0.85104110        0.99397582        0.15415402
H          -0.85104103       -0.99397584       -0.15415406
H           0.85104109        0.99397583       -0.15415396
H           0.85104104       -0.99397583        0.15415401
6
MD Time 2860.00
C          -0.57883315       -0.00000000       -0.00000001
C           0.57883315        0.00000001        0.00000001
H          -0.84354587        0.99535774        0.16580872
H          -0.84354581       -0.99535776       -0.16580877
H           0.84354586        0.99535775       -0.16580867
H           0.84354582       -0.99535775        0.16580872
6
MD Time 2870.00
C          -0.57612727       -0.00000000       -0.00000001
C           0.57612727        0.00000000        0.00000001
H          -0.83813889        0.99749911        0.17720700
H          -0.83813883       -0.99749912       -0.17720703
H           0.83813888        0.99749911       -0.17720695
H           0.83813884       -0.99749911        0.17720700
6
MD Time 2880.00
C          -0.57426634       -0.00000000       -0.00000001
C           0.57426634        0.00000000        0.00000001
H          -0.83482159        1.00032105        0.18831632
H          -0.83482153       -1.00032106       -0.18831636
H           0.83482158        1.00032105       -0.18831628
H           0.83482154       -1.00032105        0.18831633
6
MD Time 2890.00
C          -0.57328780       -0.00000000       -0.00000001
C           0.57328780        0.00000000        0.00000001
H          -0.83357731        1.00372049        0.19909894
H          -0.83357726       -1.00372050       -0.19909897
H           0.83357730        1.00372049       -0.19909890
H           0.83357726       -1.00372049        0.19909895
6
MD Time 2900.00
C          -0.57321572       -0.00000000       -0.00000001
C           0.57321572        0.00000000        0.00000001
H          -0.83437251        1.00757526        0.20951235
H          -0.83437246       -1.00757527       -0.20951238
H           0.83437250        1.00757526       -0.20951232
H           0.83437246       -1.00757526        0.20951236
6
MD Time 2910.00
C          -0.57405979       -0.00000000       -0.00000001
C           0.57405979        0.00000000        0.00000001
H          -0.83715833        1.01174956        0.21951019
H          -0.83715828       -1.01174958       -0.21951021
H           0.83715831        1.01174956       -0.21951016
H           0.83715828       -1.01174956        0.21951020
6
MD Time 2920.00
C          -0.57581484       -0.00000000       -0.00000001
C           0.57581484        0.00000000        0.00000001
H          -0.84187237        1.01609927        0.22904326
H          -0.84187233       -1.01609928       -0.22904329
H           0.84187236        1.01609927       -0.22904325
H           0.84187233       -1.01609927        0.22904328
6
MD Time 2930.00
C          -0.57846118       -0.00000000       -0.00000001
C           0.57846118        0.00000000        0.00000001
H          -0.84844074        1.02047690        0.23806082
H          -0.84844070       -1.02047691       -0.23806085
H           0.84844072        1.02047690       -0.23806082
H           0.84844070       -1.02047689        0.23806085
6
MD Time 2940.00
C          -0.58196552       -0.00000000       -0.00000001
C           0.58196552        0.00000000        0.00000001
H          -0.85678004        1.02473596        0.24651182
H          -0.85678000       -1.02473598       -0.24651184
H           0.85678002        1.02473597       -0.24651182
H           0.85678000       -1.02473596        0.24651184
6
MD Time 2950.00
C          -0.58628254       -0.00000000       -0.00000001
C           0.58628254        0.00000000        0.00000001
H          -0.86679947        1.02873471        0.25434614
H          -0.86679943       -1.02873472       -0.25434616
H           0.86679945        1.02873471       -0.25434614
H           0.86679943       -1.02873470        0.25434617
6
MD Time 2960.00
C          -0.59135681       -0.00000000       -0.00000001
C           0.59135682        0.00000000        0.00000001
H          -0.87840279        1.03233908        0.26151579
H          -0.87840275       -1.03233909       -0.26151581
H           0.87840276        1.03233908       -0.26151581
H           0.87840275       -1.03233907        0.26151583
6
MD Time 2970.00
C          -0.59712499       -0.00000000       -0.00000001
C           0.59712499        0.00000000        0.00000001
H          -0.89149013        1.03542507        0.26797596
H          -0.89149010       -1.03542509       -0.26797598
H           0.89149011        1.03542508       -0.26797598
H           0.89149009       -1.03542507        0.26797600
6
MD Time 2980.00
C          -0.60351810       -0.00000000       -0.00000001
C           0.60351810        0.00000000        0.00000001
H          -0.90595968        1.03788050        0.27368585
H          -0.90595966       -1.03788052       -0.27368587
H           0.90595966        1.03788051       -0.27368588
H           0.90595965       -1.03788050        0.27368590
6
MD Time 2990.00
C          -0.61046378       -0.00000000       -0.00000001
C           0.61046379        0.00000000        0.00000001
H          -0.92170907        1.03960618        0.27860945
H          -0.92170904       -1.03960620       -0.27860947
H           0.92170904        1.03960620       -0.27860949
H           0.92170904       -1.03960618        0.27860950
