6
MD Time 0.00
C          -1.00424993        0.00000000        0.00000000
C           1.00424993        0.00000000        0.00000000
H          -1.57974221        0.85087473        0.35244385
H          -1.57974221       -0.85087473       -0.35244385
H           1.57974221        0.85087473       -0.35244385
H           1.57974221       -0.85087473        0.35244385
6
MD Time 10.00
C          -1.00410898       -0.00000000        0.00000000
C           1.00410898        0.00000000       -0.00000000
H          -1.57963758        0.85109844        0.35239049
H          -1.57963758       -0.85109844       -0.35239049
H           1.57963758        0.85109844       -0.35239049
H           1.57963758       -0.85109844        0.35239049
6
MD Time 20.00
C          -1.00368645       -0.00000000        0.00000000
C           1.00368645        0.00000000       -0.00000000
H          -1.57932180        0.85176550        0.35222913
H          -1.57932180       -0.85176550       -0.35222913
H           1.57932180        0.85176550       -0.35222913
H           1.57932180       -0.85176550        0.35222913
6
MD Time 30.00
C          -1.00298331       -0.00000000        0.00000000
C           1.00298331        0.00000000       -0.00000000
H          -1.57878922        0.85286382        0.35195600
H          -1.57878922       -0.85286382       -0.35195600
H           1.57878922        0.85286382       -0.35195600
H           1.57878922       -0.85286382        0.35195600
6
MD Time 40.00
C          -1.00200115       -0.00000000        0.00000000
C           1.00200115        0.00000000       -0.00000000
H          -1.57803065        0.85437361        0.35156495
H          -1.57803065       -0.85437361       -0.35156495
H           1.57803065        0.85437361       -0.35156495
H           1.57803065       -0.85437361        0.35156495
6
MD Time 50.00
C          -1.00074211       -0.00000000        0.00000000
C           1.00074211        0.00000000       -0.00000000
H          -1.57703373        0.85626795        0.35104774
H          -1.57703373       -0.85626795       -0.35104774
H           1.57703373        0.85626795       -0.35104774
H           1.57703373       -0.85626795        0.35104774
6
MD Time 60.00
C          -0.99920880       -0.00000000        0.00000000
C           0.99920880        0.00000000       -0.00000000
H          -1.57578334        0.85851352        0.35039434
H          -1.57578334       -0.85851352       -0.35039434
H           1.57578334        0.85851352       -0.35039434
H           1.57578334       -0.85851352        0.35039434
6
MD Time 70.00
C          -0.99740423       -0.00000000        0.00000000
C           0.99740423        0.00000000        0.00000000
H          -1.57426217        0.86107150        0.34959328
H          -1.57426217       -0.86107150       -0.34959328
H           1.57426217        0.86107150       -0.34959328
H           1.57426217       -0.86107150        0.34959328
6
MD Time 80.00
C          -0.99533174       -0.00000000        0.00000000
C           0.99533174        0.00000000        0.00000000
H          -1.57245134        0.86389854        0.34863215
H          -1.57245134       -0.86389854       -0.34863215
H           1.57245134        0.86389854       -0.34863215
H           1.57245134       -0.86389854        0.34863215
6
MD Time 90.00
C          -0.99299482       -0.00000000        0.00000000
C           0.99299482        0.00000000        0.00000000
H          -1.57033100        0.86694785        0.34749795
H          -1.57033100       -0.86694785       -0.34749795
H           1.57033100        0.86694785       -0.34749795
H           1.57033100       -0.86694785        0.34749795
6
MD Time 100.00
C          -0.99039709       -0.00000000        0.00000000
C           0.99039709        0.00000000        0.00000000
H          -1.56788102        0.87017034        0.34617765
H          -1.56788102       -0.87017034       -0.34617765
H           1.56788102        0.87017034       -0.34617765
H           1.56788102       -0.87017034        0.34617765
6
MD Time 110.00
C          -0.98754216       -0.00000000        0.00000000
C           0.98754216        0.00000000        0.00000000
H          -1.56508166        0.87351570        0.34465858
H          -1.56508166       -0.87351570       -0.34465858
H           1.56508166        0.87351570       -0.34465858
H           1.56508166       -0.87351570        0.34465858
6
MD Time 120.00
C          -0.98443354       -0.00000000        0.00000000
C           0.98443354        0.00000000        0.00000000
H          -1.56191414        0.87693349        0.34292884
H          -1.56191414       -0.87693349       -0.34292884
H           1.56191414        0.87693349       -0.34292884
H           1.56191414       -0.87693349        0.34292884
6
MD Time 130.00
C          -0.98107454       -0.00000000        0.00000000
C           0.98107454        0.00000000        0.00000000
H          -1.55836129        0.88037421        0.34097775
H          -1.55836129       -0.88037421       -0.34097775
H           1.55836129        0.88037421       -0.34097775
H           1.55836129       -0.88037421        0.34097775
6
MD Time 140.00
C          -0.97746824       -0.00000000        0.00000000
C           0.97746824        0.00000000        0.00000000
H          -1.55440799        0.88379020        0.33879615
H          -1.55440799       -0.88379020       -0.33879615
H           1.55440799        0.88379020       -0.33879615
H           1.55440799       -0.88379020        0.33879615
6
MD Time 150.00
C          -0.97361738       -0.00000000        0.00000000
C           0.97361738        0.00000000        0.00000000
H          -1.55004172        0.88713657        0.33637670
H          -1.55004172       -0.88713657       -0.33637670
H           1.55004172        0.88713657       -0.33637670
H           1.55004172       -0.88713657        0.33637670
6
MD Time 160.00
C          -0.96952434       -0.00000000        0.00000000
C           0.96952434        0.00000000        0.00000000
H          -1.54525288        0.89037193        0.33371414
H          -1.54525288       -0.89037193       -0.33371414
H           1.54525288        0.89037193       -0.33371414
H           1.54525288       -0.89037193        0.33371414
6
MD Time 170.00
C          -0.96519111       -0.00000000        0.00000000
C           0.96519111        0.00000000        0.00000000
H          -1.54003516        0.89345907        0.33080549
H          -1.54003516       -0.89345907       -0.33080549
H           1.54003516        0.89345907       -0.33080549
H           1.54003516       -0.89345907        0.33080549
6
MD Time 180.00
C          -0.96061923       -0.00000000        0.00000000
C           0.96061923        0.00000000        0.00000000
H          -1.53438578        0.89636553        0.32765016
H          -1.53438578       -0.89636553       -0.32765016
H           1.53438578        0.89636553       -0.32765016
H           1.53438578       -0.89636553        0.32765016
6
MD Time 190.00
C          -0.95580984       -0.00000000        0.00000000
C           0.95580984        0.00000000        0.00000000
H          -1.52830567        0.89906408        0.32425007
H          -1.52830567       -0.89906408       -0.32425007
H           1.52830567        0.89906408       -0.32425007
H           1.52830567       -0.89906408        0.32425007
6
MD Time 200.00
C          -0.95076367       -0.00000000        0.00000000
C           0.95076367        0.00000000        0.00000000
H          -1.52179957        0.90153302        0.32060968
H          -1.52179957       -0.90153302       -0.32060968
H           1.52179957        0.90153302       -0.32060968
H           1.52179957       -0.90153302        0.32060968
6
MD Time 210.00
C          -0.94548102       -0.00000000        0.00000000
C           0.94548102        0.00000000        0.00000000
H          -1.51487613        0.90375648        0.31673597
H          -1.51487613       -0.90375648       -0.31673597
H           1.51487613        0.90375648       -0.31673597
H           1.51487613       -0.90375648        0.31673597
6
MD Time 220.00
C          -0.93996186       -0.00000000        0.00000000
C           0.93996186        0.00000000        0.00000000
H          -1.50754788        0.90572456        0.31263843
H          -1.50754788       -0.90572456       -0.31263843
H           1.50754788        0.90572456       -0.31263843
H           1.50754788       -0.90572456        0.31263843
6
MD Time 230.00
C          -0.93420586       -0.00000000        0.00000000
C           0.93420586        0.00000000        0.00000000
H          -1.49983113        0.90743334        0.30832892
H          -1.49983113       -0.90743334       -0.30832892
H           1.49983113        0.90743334       -0.30832892
H           1.49983113       -0.90743334        0.30832892
6
MD Time 240.00
C          -0.92821245       -0.00000000        0.00000000
C           0.92821245        0.00000000        0.00000000
H          -1.49174588        0.90888488        0.30382158
H          -1.49174588       -0.90888488       -0.30382158
H           1.49174588        0.90888488       -0.30382158
H           1.49174588       -0.90888488        0.30382158
6
MD Time 250.00
C          -0.92198091       -0.00000000        0.00000000
C           0.92198091        0.00000000        0.00000000
H          -1.48331563        0.91008699        0.29913265
H          -1.48331563       -0.91008699       -0.29913265
H           1.48331563        0.91008699       -0.29913265
H           1.48331563       -0.91008699        0.29913265
6
MD Time 260.00
C          -0.91551048       -0.00000000        0.00000000
C           0.91551048        0.00000000        0.00000000
H          -1.47456707        0.91105301        0.29428023
H          -1.47456707       -0.91105301       -0.29428023
H           1.47456707        0.91105301       -0.29428023
H           1.47456707       -0.91105301        0.29428023
6
MD Time 270.00
C          -0.90880047       -0.00000000        0.00000000
C           0.90880047        0.00000000        0.00000000
H          -1.46552984        0.91180139        0.28928409
H          -1.46552984       -0.91180139       -0.28928409
H           1.46552984        0.91180139       -0.28928409
H           1.46552984       -0.91180139        0.28928409
6
MD Time 280.00
C          -0.90185039       -0.00000000        0.00000000
C           0.90185039        0.00000000        0.00000000
H          -1.45623610        0.91235520        0.28416541
H          -1.45623610       -0.91235520       -0.28416541
H           1.45623610        0.91235520       -0.28416541
H           1.45623610       -0.91235520        0.28416541
6
MD Time 290.00
C          -0.89466015       -0.00000000        0.00000000
C           0.89466015        0.00000000        0.00000000
H          -1.44672015        0.91274151        0.27894639
H          -1.44672015       -0.91274151       -0.27894639
H           1.44672015        0.91274151       -0.27894639
H           1.44672015       -0.91274151        0.27894639
6
MD Time 300.00
C          -0.88723016       -0.00000000        0.00000000
C           0.88723016        0.00000000        0.00000000
H          -1.43701786        0.91299068        0.27365004
H          -1.43701786       -0.91299068       -0.27365004
H           1.43701786        0.91299068       -0.27365004
H           1.43701786       -0.91299068        0.27365004
6
MD Time 310.00
C          -0.87956161       -0.00000000        0.00000000
C           0.87956161        0.00000000        0.00000000
H          -1.42716622        0.91313554        0.26829977
H          -1.42716622       -0.91313554       -0.26829977
H           1.42716622        0.91313554       -0.26829977
H           1.42716622       -0.91313554        0.26829977
6
MD Time 320.00
C          -0.87165665       -0.00000000        0.00000000
C           0.87165665        0.00000000        0.00000000
H          -1.41720268        0.91321042        0.26291906
H          -1.41720268       -0.91321042       -0.26291906
H           1.41720268        0.91321042       -0.26291906
H           1.41720268       -0.91321042        0.26291906
6
MD Time 330.00
C          -0.86351861       -0.00000000        0.00000000
C           0.86351861        0.00000000        0.00000000
H          -1.40716456        0.91325021        0.25753110
H          -1.40716456       -0.91325021       -0.25753110
H           1.40716456        0.91325021       -0.25753110
H           1.40716456       -0.91325021        0.25753110
6
MD Time 340.00
C          -0.85515228       -0.00000000        0.00000000
C           0.85515228        0.00000000        0.00000000
H          -1.39708843        0.91328931        0.25215845
H          -1.39708843       -0.91328931       -0.25215845
H           1.39708843        0.91328931       -0.25215845
H           1.39708843       -0.91328931        0.25215845
6
MD Time 350.00
C          -0.84656418       -0.00000000        0.00000000
C           0.84656418        0.00000000        0.00000000
H          -1.38700945        0.91336054        0.24682270
H          -1.38700945       -0.91336054       -0.24682270
H           1.38700945        0.91336054       -0.24682270
H           1.38700945       -0.91336054        0.24682270
6
MD Time 360.00
C          -0.83776282       -0.00000000        0.00000000
C           0.83776282        0.00000000        0.00000000
H          -1.37696073        0.91349411        0.24154421
H          -1.37696073       -0.91349411       -0.24154421
H           1.37696073        0.91349411       -0.24154421
H           1.37696073       -0.91349411        0.24154421
6
MD Time 370.00
C          -0.82875904       -0.00000000        0.00000000
C           0.82875904        0.00000000        0.00000000
H          -1.36697278        0.91371665        0.23634180
H          -1.36697278       -0.91371665       -0.23634180
H           1.36697278        0.91371665       -0.23634180
H           1.36697278       -0.91371665        0.23634180
6
MD Time 380.00
C          -0.81956623       -0.00000000        0.00000000
C           0.81956623        0.00000000        0.00000000
H          -1.35707301        0.91405030        0.23123254
H          -1.35707301       -0.91405030       -0.23123254
H           1.35707301        0.91405030       -0.23123254
H           1.35707301       -0.91405030        0.23123254
6
MD Time 390.00
C          -0.81020070       -0.00000000        0.00000000
C           0.81020070        0.00000000        0.00000000
H          -1.34728524        0.91451195        0.22623165
H          -1.34728524       -0.91451195       -0.22623165
H           1.34728524        0.91451195       -0.22623165
H           1.34728524       -0.91451195        0.22623165
6
MD Time 400.00
C          -0.80068196       -0.00000000        0.00000000
C           0.80068196        0.00000000        0.00000000
H          -1.33762943        0.91511270        0.22135236
H          -1.33762943       -0.91511270       -0.22135236
H           1.33762943        0.91511270       -0.22135236
H           1.33762943       -0.91511270        0.22135236
6
MD Time 410.00
C          -0.79103295       -0.00000000        0.00000000
C           0.79103295        0.00000000        0.00000000
H          -1.32812146        0.91585745        0.21660590
H          -1.32812146       -0.91585745       -0.21660590
H           1.32812146        0.91585745       -0.21660590
H           1.32812146       -0.91585745        0.21660590
6
MD Time 420.00
C          -0.78128037       -0.00000000        0.00000000
C           0.78128037        0.00000000        0.00000000
H          -1.31877306        0.91674482        0.21200157
H          -1.31877306       -0.91674482       -0.21200157
H           1.31877306        0.91674482       -0.21200157
H           1.31877306       -0.91674482        0.21200157
6
MD Time 430.00
C          -0.77145485       -0.00000000        0.00000000
C           0.77145485        0.00000000        0.00000000
H          -1.30959194        0.91776720        0.20754678
H          -1.30959194       -0.91776720       -0.20754678
H           1.30959194        0.91776720       -0.20754678
H           1.30959194       -0.91776720        0.20754678
6
MD Time 440.00
C          -0.76159120       -0.00000000        0.00000000
C           0.76159120        0.00000000        0.00000000
H          -1.30058196        0.91891110        0.20324728
H          -1.30058196       -0.91891110       -0.20324728
H           1.30058196        0.91891110       -0.20324728
H           1.30058196       -0.91891110        0.20324728
6
MD Time 450.00
C          -0.75172854       -0.00000000        0.00000000
C           0.75172854        0.00000000        0.00000000
H          -1.29174359        0.92015776        0.19910733
H          -1.29174359       -0.92015776       -0.19910733
H           1.29174359        0.92015776       -0.19910733
H           1.29174359       -0.92015776        0.19910733
6
MD Time 460.00
C          -0.74191039       -0.00000000        0.00000000
C           0.74191039        0.00000000        0.00000000
H          -1.28307435        0.92148384        0.19512992
H          -1.28307435       -0.92148384       -0.19512992
H           1.28307435        0.92148384       -0.19512992
H           1.28307435       -0.92148384        0.19512992
6
MD Time 470.00
C          -0.73218466       -0.00000000        0.00000000
C           0.73218466        0.00000000        0.00000000
H          -1.27456948        0.92286240        0.19131712
H          -1.27456948       -0.92286240       -0.19131712
H           1.27456948        0.92286240       -0.19131712
H           1.27456948       -0.92286240        0.19131712
6
MD Time 480.00
C          -0.72260362       -0.00000000        0.00000000
C           0.72260362        0.00000000        0.00000000
H          -1.26622270        0.92426395        0.18767024
H          -1.26622270       -0.92426395       -0.18767024
H           1.26622270        0.92426395       -0.18767024
H           1.26622270       -0.92426395        0.18767024
6
MD Time 490.00
C          -0.71322367       -0.00000000        0.00000000
C           0.71322367        0.00000000        0.00000000
H          -1.25802697        0.92565760        0.18419024
H          -1.25802697       -0.92565760       -0.18419024
H           1.25802697        0.92565760       -0.18419024
H           1.25802697       -0.92565760        0.18419024
6
MD Time 500.00
C          -0.70410500       -0.00000000        0.00000000
C           0.70410500        0.00000000        0.00000000
H          -1.24997538        0.92701226        0.18087791
H          -1.24997538       -0.92701226       -0.18087791
H           1.24997538        0.92701226       -0.18087791
H           1.24997538       -0.92701226        0.18087791
6
MD Time 510.00
C          -0.69531112       -0.00000000        0.00000000
C           0.69531112        0.00000000        0.00000000
H          -1.24206206        0.92829783        0.17773418
H          -1.24206206       -0.92829783       -0.17773418
H           1.24206206        0.92829783       -0.17773418
H           1.24206206       -0.92829783        0.17773418
6
MD Time 520.00
C          -0.68690818       -0.00000000        0.00000000
C           0.68690818        0.00000000        0.00000000
H          -1.23428308        0.92948643        0.17476032
H          -1.23428308       -0.92948643       -0.17476032
H           1.23428308        0.92948643       -0.17476032
H           1.23428308       -0.92948643        0.17476032
6
MD Time 530.00
C          -0.67896407       -0.00000000        0.00000000
C           0.67896407        0.00000000        0.00000000
H          -1.22663732        0.93055346        0.17195818
H          -1.22663732       -0.93055346       -0.17195818
H           1.22663732        0.93055346       -0.17195818
H           1.22663732       -0.93055346        0.17195818
6
MD Time 540.00
C          -0.67154737       -0.00000000        0.00000000
C           0.67154737        0.00000000        0.00000000
H          -1.21912729        0.93147868        0.16933037
H          -1.21912729       -0.93147868       -0.16933037
H           1.21912729        0.93147868       -0.16933037
H           1.21912729       -0.93147868        0.16933037
6
MD Time 550.00
C          -0.66472601       -0.00000000        0.00000000
C           0.66472601        0.00000000        0.00000000
H          -1.21175994        0.93224714        0.16688036
H          -1.21175994       -0.93224714       -0.16688036
H           1.21175994        0.93224714       -0.16688036
H           1.21175994       -0.93224714        0.16688036
6
MD Time 560.00
C          -0.65856584       -0.00000000        0.00000000
C           0.65856584        0.00000000        0.00000000
H          -1.20454731        0.93284999        0.16461262
H          -1.20454731       -0.93284999       -0.16461262
H           1.20454731        0.93284999       -0.16461262
H           1.20454731       -0.93284999        0.16461262
6
MD Time 570.00
C          -0.65312894       -0.00000000        0.00000000
C           0.65312894        0.00000000        0.00000000
H          -1.19750710        0.93328515        0.16253268
H          -1.19750710       -0.93328515       -0.16253268
H           1.19750710        0.93328515       -0.16253268
H           1.19750710       -0.93328515        0.16253268
6
MD Time 580.00
C          -0.64847194       -0.00000000        0.00000000
C           0.64847194        0.00000000        0.00000000
H          -1.19066306        0.93355781        0.16064717
H          -1.19066306       -0.93355781       -0.16064717
H           1.19066306        0.93355781       -0.16064717
H           1.19066306       -0.93355781        0.16064717
6
MD Time 590.00
C          -0.64464426       -0.00000000        0.00000000
C           0.64464426        0.00000000        0.00000000
H          -1.18404526        0.93368077        0.15896381
H          -1.18404526       -0.93368077       -0.15896381
H           1.18404526        0.93368077       -0.15896381
H           1.18404526       -0.93368077        0.15896381
6
MD Time 600.00
C          -0.64168648       -0.00000000        0.00000000
C           0.64168648        0.00000000        0.00000000
H          -1.17769017        0.93367454        0.15749136
H          -1.17769017       -0.93367454       -0.15749136
H           1.17769017        0.93367454       -0.15749136
H           1.17769017       -0.93367454        0.15749136
6
MD Time 610.00
C          -0.63962888       -0.00000000        0.00000000
C           0.63962888        0.00000000        0.00000000
H          -1.17164048        0.93356726        0.15623955
H          -1.17164048       -0.93356726       -0.15623955
H           1.17164048        0.93356726       -0.15623955
H           1.17164048       -0.93356726        0.15623955
6
MD Time 620.00
C          -0.63849031       -0.00000000        0.00000000
C           0.63849031        0.00000000        0.00000000
H          -1.16594471        0.93339430        0.15521900
H          -1.16594471       -0.93339430       -0.15521900
H           1.16594471        0.93339430       -0.15521900
H           1.16594471       -0.93339430        0.15521900
6
MD Time 630.00
C          -0.63827738       -0.00000000        0.00000000
C           0.63827738        0.00000000        0.00000000
H          -1.16065662        0.93319765        0.15444098
H          -1.16065662       -0.93319765       -0.15444098
H           1.16065662        0.93319765       -0.15444098
H           1.16065662       -0.93319765        0.15444098
6
MD Time 640.00
C          -0.63898422       -0.00000000        0.00000000
C           0.63898422        0.00000000        0.00000000
H          -1.15583427        0.93302493        0.15391729
H          -1.15583427       -0.93302493       -0.15391729
H           1.15583427        0.93302493       -0.15391729
H           1.15583427       -0.93302493        0.15391729
6
MD Time 650.00
C          -0.64059264       -0.00000000        0.00000000
C           0.64059264        0.00000000        0.00000000
H          -1.15153887        0.93292809        0.15365996
H          -1.15153887       -0.93292809       -0.15365996
H           1.15153887        0.93292809       -0.15365996
H           1.15153887       -0.93292809        0.15365996
6
MD Time 660.00
C          -0.64307281       -0.00000000        0.00000000
C           0.64307281        0.00000000        0.00000000
H          -1.14783341        0.93296177        0.15368101
H          -1.14783341       -0.93296177       -0.15368101
H           1.14783341        0.93296177       -0.15368101
H           1.14783341       -0.93296177        0.15368101
6
MD Time 670.00
C          -0.64638440       -0.00000000       -0.00000000
C           0.64638440        0.00000000        0.00000000
H          -1.14478103        0.93318135        0.15399203
H          -1.14478103       -0.93318135       -0.15399203
H           1.14478103        0.93318135       -0.15399203
H           1.14478103       -0.93318135        0.15399203
6
MD Time 680.00
C          -0.65047801       -0.00000000       -0.00000000
C           0.65047801       -0.00000000       -0.00000000
H          -1.14244327        0.93364069        0.15460388
H          -1.14244327       -0.93364069       -0.15460388
H           1.14244327        0.93364069       -0.15460388
H           1.14244327       -0.93364069        0.15460388
6
MD Time 690.00
C          -0.65529696        0.00000000       -0.00000000
C           0.65529696       -0.00000000       -0.00000000
H          -1.14087819        0.93438970        0.15552623
H          -1.14087819       -0.93438970       -0.15552623
H           1.14087819        0.93438970       -0.15552623
H           1.14087819       -0.93438970        0.15552623
6
MD Time 700.00
C          -0.66077911        0.00000000        0.00000000
C           0.66077911        0.00000000       -0.00000000
H          -1.14013856        0.93547175        0.15676711
H          -1.14013856       -0.93547175       -0.15676711
H           1.14013856        0.93547175       -0.15676711
H           1.14013856       -0.93547175        0.15676711
6
MD Time 710.00
C          -0.66685883        0.00000000        0.00000000
C           0.66685883        0.00000000       -0.00000000
H          -1.14027007        0.93692120        0.15833250
H          -1.14027007       -0.93692120       -0.15833250
H           1.14027007        0.93692120       -0.15833250
H           1.14027007       -0.93692120        0.15833249
6
MD Time 720.00
C          -0.67346872        0.00000000        0.00000000
C           0.67346872        0.00000000       -0.00000000
H          -1.14130985        0.93876109        0.16022583
H          -1.14130985       -0.93876109       -0.16022583
H           1.14130985        0.93876109       -0.16022583
H           1.14130985       -0.93876109        0.16022583
6
MD Time 730.00
C          -0.68054133        0.00000000        0.00000000
C           0.68054133        0.00000000       -0.00000000
H          -1.14328515        0.94100115        0.16244768
H          -1.14328515       -0.94100115       -0.16244768
H           1.14328515        0.94100115       -0.16244768
H           1.14328515       -0.94100115        0.16244768
6
MD Time 740.00
C          -0.68801055        0.00000000        0.00000000
C           0.68801055        0.00000000       -0.00000000
H          -1.14621248        0.94363637        0.16499538
H          -1.14621248       -0.94363637       -0.16499537
H           1.14621248        0.94363637       -0.16499537
H           1.14621248       -0.94363637        0.16499537
6
MD Time 750.00
C          -0.69581277        0.00000000        0.00000000
C           0.69581277        0.00000000       -0.00000000
H          -1.15009713        0.94664621        0.16786277
H          -1.15009713       -0.94664621       -0.16786276
H           1.15009713        0.94664621       -0.16786276
H           1.15009713       -0.94664621        0.16786276
6
MD Time 760.00
C          -0.70388774        0.00000000        0.00000000
C           0.70388774        0.00000000       -0.00000000
H          -1.15493305        0.94999447        0.17104010
H          -1.15493305       -0.94999447       -0.17104010
H           1.15493305        0.94999447       -0.17104010
H           1.15493305       -0.94999447        0.17104009
6
MD Time 770.00
C          -0.71217923        0.00000000        0.00000000
C           0.71217923        0.00000000       -0.00000000
H          -1.16070322        0.95362986        0.17451402
H          -1.16070322       -0.95362986       -0.17451401
H           1.16070322        0.95362987       -0.17451401
H           1.16070322       -0.95362987        0.17451400
6
MD Time 780.00
C          -0.72063537        0.00000000        0.00000000
C           0.72063537        0.00000000       -0.00000000
H          -1.16738030        0.95748735        0.17826762
H          -1.16738030       -0.95748736       -0.17826761
H           1.16738030        0.95748736       -0.17826760
H           1.16738030       -0.95748736        0.17826760
6
MD Time 790.00
C          -0.72920883        0.00000000        0.00000000
C           0.72920883        0.00000000       -0.00000000
H          -1.17492755        0.96148996        0.18228071
H          -1.17492755       -0.96148996       -0.18228070
H           1.17492755        0.96148997       -0.18228069
H           1.17492755       -0.96148997        0.18228068
6
MD Time 800.00
C          -0.73785686        0.00000000        0.00000000
C           0.73785686        0.00000000       -0.00000000
H          -1.18329999        0.96555108        0.18653012
H          -1.18329999       -0.96555109       -0.18653011
H           1.18329999        0.96555109       -0.18653010
H           1.18329999       -0.96555109        0.18653009
6
MD Time 810.00
C          -0.74654112        0.00000000        0.00000000
C           0.74654112        0.00000000       -0.00000000
H          -1.19244571        0.96957710        0.19099011
H          -1.19244571       -0.96957711       -0.19099010
H           1.19244571        0.96957711       -0.19099009
H           1.19244571       -0.96957711        0.19099008
6
MD Time 820.00
C          -0.75522751        0.00000000        0.00000000
C           0.75522751        0.00000000       -0.00000000
H          -1.20230713        0.97347013        0.19563285
H          -1.20230714       -0.97347013       -0.19563284
H           1.20230714        0.97347014       -0.19563282
H           1.20230714       -0.97347014        0.19563282
6
MD Time 830.00
C          -0.76388587        0.00000000        0.00000000
C           0.76388587        0.00000000       -0.00000000
H          -1.21282238        0.97713073        0.20042891
H          -1.21282238       -0.97713073       -0.20042890
H           1.21282238        0.97713075       -0.20042888
H           1.21282238       -0.97713074        0.20042887
6
MD Time 840.00
C          -0.77248967       -0.00000000        0.00000000
C           0.77248967        0.00000000       -0.00000000
H          -1.22392650        0.98046059        0.20534780
H          -1.22392651       -0.98046059       -0.20534779
H           1.22392651        0.98046061       -0.20534776
H           1.22392651       -0.98046060        0.20534776
6
MD Time 850.00
C          -0.78101570       -0.00000000        0.00000000
C           0.78101570       -0.00000000       -0.00000000
H          -1.23555265        0.98336489        0.21035852
H          -1.23555266       -0.98336489       -0.21035851
H           1.23555266        0.98336491       -0.21035848
H           1.23555266       -0.98336490        0.21035848
6
MD Time 860.00
C          -0.78944373       -0.00000000        0.00000000
C           0.78944373       -0.00000000       -0.00000000
H          -1.24763315        0.98575447        0.21543003
H          -1.24763316       -0.98575447       -0.21543003
H           1.24763315        0.98575449       -0.21542998
H           1.24763316       -0.98575448        0.21542999
6
MD Time 870.00
C          -0.79775617       -0.00000000        0.00000000
C           0.79775617       -0.00000000       -0.00000000
H          -1.26010039        0.98754768        0.22053178
H          -1.26010040       -0.98754768       -0.22053178
H           1.26010039        0.98754770       -0.22053172
H           1.26010039       -0.98754769        0.22053173
6
MD Time 880.00
C          -0.80593780       -0.00000000        0.00000000
C           0.80593780       -0.00000000       -0.00000000
H          -1.27288767        0.98867189        0.22563411
H          -1.27288768       -0.98867189       -0.22563412
H           1.27288768        0.98867191       -0.22563405
H           1.27288768       -0.98867190        0.22563407
6
MD Time 890.00
C          -0.81397544       -0.00000000        0.00000000
C           0.81397544       -0.00000000       -0.00000000
H          -1.28592991        0.98906475        0.23070871
H          -1.28592993       -0.98906476       -0.23070872
H           1.28592992        0.98906479       -0.23070863
H           1.28592992       -0.98906477        0.23070866
6
MD Time 900.00
C          -0.82185771       -0.00000000       -0.00000000
C           0.82185771       -0.00000000       -0.00000000
H          -1.29916421        0.98867518        0.23572892
H          -1.29916423       -0.98867519       -0.23572894
H           1.29916422        0.98867522       -0.23572884
H           1.29916422       -0.98867520        0.23572887
6
MD Time 910.00
C          -0.82957477       -0.00000000       -0.00000000
C           0.82957477       -0.00000000       -0.00000000
H          -1.31253039        0.98746405        0.24067015
H          -1.31253041       -0.98746405       -0.24067017
H           1.31253039        0.98746409       -0.24067007
H           1.31253040       -0.98746407        0.24067010
6
MD Time 920.00
C          -0.83711807       -0.00000000       -0.00000000
C           0.83711807       -0.00000000       -0.00000000
H          -1.32597140        0.98540472        0.24551010
H          -1.32597142       -0.98540472       -0.24551012
H           1.32597140        0.98540476       -0.24551000
H           1.32597141       -0.98540474        0.24551004
6
MD Time 930.00
C          -0.84448017       -0.00000000       -0.00000000
C           0.84448017       -0.00000000       -0.00000000
H          -1.33943370        0.98248339        0.25022903
H          -1.33943372       -0.98248339       -0.25022906
H           1.33943370        0.98248343       -0.25022893
H           1.33943371       -0.98248341        0.25022897
6
MD Time 940.00
C          -0.85165451       -0.00000000       -0.00000000
C           0.85165451       -0.00000000       -0.00000000
H          -1.35286757        0.97869925        0.25481002
H          -1.35286759       -0.97869925       -0.25481005
H           1.35286756        0.97869929       -0.25480991
H           1.35286758       -0.97869927        0.25480996
6
MD Time 950.00
C          -0.85863525       -0.00000000       -0.00000000
C           0.85863525       -0.00000000       -0.00000000
H          -1.36622738        0.97406456        0.25923914
H          -1.36622740       -0.97406455       -0.25923917
H           1.36622738        0.97406460       -0.25923902
H           1.36622739       -0.97406457        0.25923908
6
MD Time 960.00
C          -0.86541711       -0.00000000       -0.00000000
C           0.86541711       -0.00000000       -0.00000000
H          -1.37947182        0.96860451        0.26350562
H          -1.37947184       -0.96860451       -0.26350566
H           1.37947182        0.96860455       -0.26350550
H           1.37947183       -0.96860453        0.26350556
6
MD Time 970.00
C          -0.87199522       -0.00000000       -0.00000000
C           0.87199522       -0.00000000       -0.00000000
H          -1.39256408        0.96235709        0.26760201
H          -1.39256410       -0.96235708       -0.26760205
H           1.39256407        0.96235713       -0.26760189
H           1.39256409       -0.96235710        0.26760195
6
MD Time 980.00
C          -0.87836497       -0.00000000       -0.00000000
C           0.87836497       -0.00000000       -0.00000000
H          -1.40547198        0.95537265        0.27152425
H          -1.40547200       -0.95537263       -0.27152430
H           1.40547197        0.95537269       -0.27152412
H           1.40547199       -0.95537266        0.27152419
6
MD Time 990.00
C          -0.88452194       -0.00000000       -0.00000000
C           0.88452194       -0.00000000       -0.00000000
H          -1.41816807        0.94771349        0.27527175
H          -1.41816809       -0.94771347       -0.27527180
H           1.41816806        0.94771353       -0.27527162
H           1.41816808       -0.94771350        0.27527169
6
MD Time 1000.00
C          -0.89046177       -0.00000000       -0.00000000
C           0.89046177       -0.00000000       -0.00000000
H          -1.43062964        0.93945318        0.27884741
H          -1.43062967       -0.93945316       -0.27884745
H           1.43062964        0.93945322       -0.27884727
H           1.43062966       -0.93945319        0.27884734
6
MD Time 1010.00
C          -0.89618011       -0.00000000       -0.00000000
C           0.89618011       -0.00000000       -0.00000000
H          -1.44283868        0.93067574        0.28225752
H          -1.44283871       -0.93067572       -0.28225757
H           1.44283868        0.93067578       -0.28225738
H           1.44283870       -0.93067575        0.28225746
6
MD Time 1020.00
C          -0.90167257       -0.00000000       -0.00000000
C           0.90167257       -0.00000000       -0.00000000
H          -1.45478168        0.92147459        0.28551173
H          -1.45478171       -0.92147457       -0.28551178
H           1.45478167        0.92147463       -0.28551159
H           1.45478169       -0.92147460        0.28551166
6
MD Time 1030.00
C          -0.90693470       -0.00000000       -0.00000000
C           0.90693470       -0.00000000       -0.00000000
H          -1.46644937        0.91195131        0.28862276
H          -1.46644940       -0.91195129       -0.28862281
H           1.46644936        0.91195135       -0.28862261
H           1.46644939       -0.91195132        0.28862270
6
MD Time 1040.00
C          -0.91196200       -0.00000000       -0.00000000
C           0.91196200       -0.00000000        0.00000000
H          -1.47783630        0.90221410        0.29160615
H          -1.47783633       -0.90221407       -0.29160621
H           1.47783630        0.90221414       -0.29160601
H           1.47783632       -0.90221411        0.29160609
6
MD Time 1050.00
C          -0.91674998       -0.00000000       -0.00000000
C           0.91674999       -0.00000000        0.00000000
H          -1.48894027        0.89237606        0.29447986
H          -1.48894029       -0.89237603       -0.29447991
H           1.48894026        0.89237610       -0.29447971
H           1.48894028       -0.89237607        0.29447979
6
MD Time 1060.00
C          -0.92129423       -0.00000000       -0.00000000
C           0.92129423       -0.00000000        0.00000000
H          -1.49976156        0.88255319        0.29726371
H          -1.49976158       -0.88255316       -0.29726376
H           1.49976155        0.88255323       -0.29726356
H           1.49976158       -0.88255320        0.29726365
6
MD Time 1070.00
C          -0.92559051       -0.00000000       -0.00000000
C           0.92559051       -0.00000000        0.00000000
H          -1.51030208        0.87286219        0.29997881
H          -1.51030210       -0.87286216       -0.29997887
H           1.51030207        0.87286223       -0.29997866
H           1.51030209       -0.87286220        0.29997875
6
MD Time 1080.00
C          -0.92963492       -0.00000000       -0.00000000
C           0.92963492       -0.00000000        0.00000000
H          -1.52056428        0.86341812        0.30264682
H          -1.52056430       -0.86341809       -0.30264687
H           1.52056427        0.86341816       -0.30264667
H           1.52056430       -0.86341813        0.30264675
6
MD Time 1090.00
C          -0.93342405       -0.00000001       -0.00000000
C           0.93342405       -0.00000000        0.00000000
H          -1.53055003        0.85433194        0.30528912
H          -1.53055005       -0.85433191       -0.30528917
H           1.53055002        0.85433198       -0.30528897
H           1.53055005       -0.85433195        0.30528905
6
MD Time 1100.00
C          -0.93695513       -0.00000001       -0.00000001
C           0.93695513       -0.00000000        0.00000000
H          -1.54025935        0.84570805        0.30792598
H          -1.54025937       -0.84570803       -0.30792604
H           1.54025934        0.84570810       -0.30792584
H           1.54025937       -0.84570806        0.30792592
6
MD Time 1110.00
C          -0.94022628       -0.00000001       -0.00000001
C           0.94022628       -0.00000000        0.00000000
H          -1.54968922        0.83764202        0.31057570
H          -1.54968924       -0.83764199       -0.31057575
H           1.54968921        0.83764206       -0.31057555
H           1.54968924       -0.83764203        0.31057564
6
MD Time 1120.00
C          -0.94323660       -0.00000001       -0.00000001
C           0.94323660       -0.00000000        0.00000000
H          -1.55883237        0.83021837        0.31325368
H          -1.55883239       -0.83021834       -0.31325374
H           1.55883236        0.83021841       -0.31325354
H           1.55883239       -0.83021838        0.31325362
6
MD Time 1130.00
C          -0.94598637       -0.00000001       -0.00000001
C           0.94598637       -0.00000000        0.00000000
H          -1.56767629        0.82350883        0.31597174
H          -1.56767631       -0.82350880       -0.31597179
H           1.56767629        0.82350888       -0.31597160
H           1.56767631       -0.82350884        0.31597168
6
MD Time 1140.00
C          -0.94847714       -0.00000001       -0.00000001
C           0.94847714       -0.00000000        0.00000001
H          -1.57620244        0.81757094        0.31873739
H          -1.57620246       -0.81757091       -0.31873744
H           1.57620244        0.81757099       -0.31873725
H           1.57620246       -0.81757095        0.31873733
6
MD Time 1150.00
C          -0.95071183       -0.00000001       -0.00000001
C           0.95071183        0.00000000        0.00000001
H          -1.58438572        0.81244713        0.32155337
H          -1.58438574       -0.81244710       -0.32155342
H           1.58438572        0.81244718       -0.32155324
H           1.58438574       -0.81244714        0.32155331
6
MD Time 1160.00
C          -0.95269467       -0.00000001       -0.00000001
C           0.95269466        0.00000000        0.00000001
H          -1.59219434        0.80816434        0.32441737
H          -1.59219436       -0.80816431       -0.32441741
H           1.59219434        0.80816439       -0.32441724
H           1.59219436       -0.80816435        0.32441731
6
MD Time 1170.00
C          -0.95443121       -0.00000001       -0.00000001
C           0.95443120        0.00000000        0.00000001
H          -1.59958999        0.80473416        0.32732186
H          -1.59959002       -0.80473413       -0.32732191
H           1.59959000        0.80473421       -0.32732174
H           1.59959002       -0.80473417        0.32732180
6
MD Time 1180.00
C          -0.95592818       -0.00000001       -0.00000001
C           0.95592818        0.00000000        0.00000001
H          -1.60652845        0.80215345        0.33025432
H          -1.60652847       -0.80215343       -0.33025436
H           1.60652846        0.80215351       -0.33025420
H           1.60652848       -0.80215347        0.33025426
6
MD Time 1190.00
C          -0.95719334       -0.00000000       -0.00000001
C           0.95719334        0.00000000        0.00000001
H          -1.61296041        0.80040540        0.33319747
H          -1.61296043       -0.80040538       -0.33319751
H           1.61296042        0.80040546       -0.33319735
H           1.61296044       -0.80040542        0.33319741
6
MD Time 1200.00
C          -0.95823525       -0.00000000       -0.00000001
C           0.95823524        0.00000000        0.00000001
H          -1.61883267        0.79946090        0.33612979
H          -1.61883269       -0.79946089       -0.33612983
H           1.61883268        0.79946096       -0.33612968
H           1.61883270       -0.79946092        0.33612973
6
MD Time 1210.00
C          -0.95906303       -0.00000000       -0.00000001
C           0.95906303        0.00000000        0.00000001
H          -1.62408947        0.79928020        0.33902617
H          -1.62408950       -0.79928019       -0.33902621
H           1.62408948        0.79928026       -0.33902607
H           1.62408950       -0.79928022        0.33902612
6
MD Time 1220.00
C          -0.95968615       -0.00000000       -0.00000001
C           0.95968615        0.00000000        0.00000001
H          -1.62867398        0.79981470        0.34185862
H          -1.62867400       -0.79981468       -0.34185865
H           1.62867399        0.79981475       -0.34185853
H           1.62867401       -0.79981472        0.34185857
6
MD Time 1230.00
C          -0.96011407       -0.00000000       -0.00000001
C           0.96011406        0.00000000        0.00000001
H          -1.63252978        0.80100877        0.34459704
H          -1.63252981       -0.80100876       -0.34459707
H           1.63252979        0.80100883       -0.34459695
H           1.63252981       -0.80100879        0.34459699
6
MD Time 1240.00
C          -0.96035606       -0.00000000       -0.00000001
C           0.96035605        0.00000000        0.00000001
H          -1.63560238        0.80280166        0.34721003
H          -1.63560241       -0.80280165       -0.34721006
H           1.63560240        0.80280171       -0.34720995
H           1.63560242       -0.80280168        0.34720998
6
MD Time 1250.00
C          -0.96042092       -0.00000000       -0.00000002
C           0.96042092        0.00000000        0.00000002
H          -1.63784061        0.80512916        0.34966568
H          -1.63784063       -0.80512915       -0.34966570
H           1.63784062        0.80512921       -0.34966560
H           1.63784064       -0.80512918        0.34966563
6
MD Time 1260.00
C          -0.96031678       -0.00000000       -0.00000002
C           0.96031677        0.00000000        0.00000002
H          -1.63919783        0.80792531        0.35193231
H          -1.63919786       -0.80792530       -0.35193233
H           1.63919785        0.80792536       -0.35193224
H           1.63919787       -0.80792533        0.35193226
6
MD Time 1270.00
C          -0.96005087       -0.00000000       -0.00000002
C           0.96005087        0.00000000        0.00000002
H          -1.63963314        0.81112384        0.35397914
H          -1.63963317       -0.81112384       -0.35397916
H           1.63963316        0.81112389       -0.35397908
H           1.63963318       -0.81112387        0.35397909
6
MD Time 1280.00
C          -0.95962940       -0.00000000       -0.00000002
C           0.95962940        0.00000000        0.00000002
H          -1.63911223        0.81465954        0.35577695
H          -1.63911225       -0.81465954       -0.35577696
H           1.63911224        0.81465958       -0.35577689
H           1.63911226       -0.81465956        0.35577690
6
MD Time 1290.00
C          -0.95905741       -0.00000000       -0.00000002
C           0.95905741        0.00000000        0.00000002
H          -1.63760814        0.81846935        0.35729854
H          -1.63760817       -0.81846935       -0.35729856
H           1.63760815        0.81846939       -0.35729849
H           1.63760817       -0.81846937        0.35729850
6
MD Time 1300.00
C          -0.95833866       -0.00000000       -0.00000002
C           0.95833866        0.00000000        0.00000002
H          -1.63510193        0.82249342        0.35851930
H          -1.63510196       -0.82249343       -0.35851931
H           1.63510194        0.82249346       -0.35851925
H           1.63510196       -0.82249344        0.35851925
6
MD Time 1310.00
C          -0.95747556       -0.00000000       -0.00000002
C           0.95747556        0.00000000        0.00000002
H          -1.63158303        0.82667594        0.35941748
H          -1.63158305       -0.82667595       -0.35941749
H           1.63158304        0.82667598       -0.35941744
H           1.63158305       -0.82667596        0.35941744
6
MD Time 1320.00
C          -0.95646914       -0.00000000       -0.00000002
C           0.95646914        0.00000000        0.00000002
H          -1.62704955        0.83096588        0.35997461
H          -1.62704957       -0.83096589       -0.35997461
H           1.62704956        0.83096591       -0.35997458
H           1.62704957       -0.83096590        0.35997457
6
MD Time 1330.00
C          -0.95531901       -0.00000000       -0.00000002
C           0.95531901        0.00000000        0.00000002
H          -1.62150847        0.83531756        0.36017569
H          -1.62150849       -0.83531757       -0.36017570
H           1.62150848        0.83531759       -0.36017567
H           1.62150850       -0.83531757        0.36017566
6
MD Time 1340.00
C          -0.95402335       -0.00000000       -0.00000002
C           0.95402335        0.00000000        0.00000002
H          -1.61497566        0.83969118        0.36000942
H          -1.61497568       -0.83969120       -0.36000943
H           1.61497567        0.83969120       -0.36000940
H           1.61497569       -0.83969119        0.36000940
6
MD Time 1350.00
C          -0.95257896       -0.00000000       -0.00000002
C           0.95257896        0.00000000        0.00000002
H          -1.60747581        0.84405321        0.35946832
H          -1.60747583       -0.84405323       -0.35946832
H           1.60747581        0.84405323       -0.35946831
H           1.60747583       -0.84405322        0.35946830
6
MD Time 1360.00
C          -0.95098125       -0.00000000       -0.00000002
C           0.95098125        0.00000000        0.00000002
H          -1.59904226        0.84837668        0.35854879
H          -1.59904228       -0.84837670       -0.35854880
H           1.59904226        0.84837669       -0.35854879
H           1.59904228       -0.84837669        0.35854878
6
MD Time 1370.00
C          -0.94922432       -0.00000000       -0.00000002
C           0.94922432        0.00000000        0.00000002
H          -1.58971675        0.85264139        0.35725120
H          -1.58971677       -0.85264141       -0.35725121
H           1.58971675        0.85264140       -0.35725120
H           1.58971677       -0.85264140        0.35725119
6
MD Time 1380.00
C          -0.94730105       -0.00000000       -0.00000002
C           0.94730105        0.00000000        0.00000002
H          -1.57954905        0.85683402        0.35557979
H          -1.57954907       -0.85683404       -0.35557979
H           1.57954905        0.85683403       -0.35557979
H           1.57954907       -0.85683403        0.35557979
6
MD Time 1390.00
C          -0.94520316       -0.00000000       -0.00000002
C           0.94520316        0.00000000        0.00000002
H          -1.56859648        0.86094813        0.35354261
H          -1.56859649       -0.86094815       -0.35354262
H           1.56859647        0.86094813       -0.35354262
H           1.56859649       -0.86094813        0.35354262
6
MD Time 1400.00
C          -0.94292134       -0.00000000       -0.00000002
C           0.94292134        0.00000000        0.00000002
H          -1.55692331        0.86498400        0.35115138
H          -1.55692332       -0.86498402       -0.35115139
H           1.55692330        0.86498400       -0.35115140
H           1.55692332       -0.86498400        0.35115140
6
MD Time 1410.00
C          -0.94044538       -0.00000000       -0.00000002
C           0.94044538        0.00000000        0.00000002
H          -1.54460012        0.86894838        0.34842126
H          -1.54460012       -0.86894839       -0.34842127
H           1.54460010        0.86894837       -0.34842128
H           1.54460012       -0.86894837        0.34842128
6
MD Time 1420.00
C          -0.93776433       -0.00000000       -0.00000002
C           0.93776433        0.00000000        0.00000002
H          -1.53170292        0.87285402        0.34537052
H          -1.53170292       -0.87285404       -0.34537053
H           1.53170290        0.87285401       -0.34537055
H           1.53170292       -0.87285401        0.34537055
6
MD Time 1430.00
C          -0.93486668       -0.00000000       -0.00000002
C           0.93486668        0.00000000        0.00000002
H          -1.51831227        0.87671909        0.34202022
H          -1.51831228       -0.87671911       -0.34202023
H           1.51831226        0.87671907       -0.34202026
H           1.51831228       -0.87671908        0.34202026
6
MD Time 1440.00
C          -0.93174056       -0.00000000       -0.00000002
C           0.93174056        0.00000000        0.00000002
H          -1.50451223        0.88056634        0.33839374
H          -1.50451223       -0.88056635       -0.33839376
H           1.50451221        0.88056632       -0.33839379
H           1.50451223       -0.88056632        0.33839379
6
MD Time 1450.00
C          -0.92837395       -0.00000000       -0.00000002
C           0.92837395        0.00000000        0.00000002
H          -1.49038916        0.88442208        0.33451628
H          -1.49038916       -0.88442209       -0.33451630
H           1.49038914        0.88442206       -0.33451633
H           1.49038916       -0.88442206        0.33451633
6
MD Time 1460.00
C          -0.92475493       -0.00000000       -0.00000002
C           0.92475493        0.00000000        0.00000002
H          -1.47603057        0.88831501        0.33041425
H          -1.47603057       -0.88831503       -0.33041427
H           1.47603056        0.88831499       -0.33041431
H           1.47603057       -0.88831499        0.33041431
6
MD Time 1470.00
C          -0.92087194       -0.00000000       -0.00000002
C           0.92087194        0.00000000        0.00000002
H          -1.46152378        0.89227482        0.32611467
H          -1.46152377       -0.89227483       -0.32611470
H           1.46152376        0.89227479       -0.32611474
H           1.46152378       -0.89227480        0.32611475
6
MD Time 1480.00
C          -0.91671400       -0.00000000       -0.00000002
C           0.91671400        0.00000000        0.00000002
H          -1.44695462        0.89633064        0.32164455
H          -1.44695461       -0.89633065       -0.32164458
H           1.44695460        0.89633060       -0.32164462
H           1.44695461       -0.89633061        0.32164463
6
MD Time 1490.00
C          -0.91227100       -0.00000000       -0.00000002
C           0.91227100        0.00000000        0.00000002
H          -1.43240617        0.90050945        0.31703015
H          -1.43240615       -0.90050946       -0.31703018
H           1.43240615        0.90050942       -0.31703023
H           1.43240616       -0.90050943        0.31703024
6
MD Time 1500.00
C          -0.90753395       -0.00000000       -0.00000002
C           0.90753395        0.00000000        0.00000002
H          -1.41795750        0.90483444        0.31229644
H          -1.41795749       -0.90483445       -0.31229648
H           1.41795748        0.90483441       -0.31229653
H           1.41795749       -0.90483442        0.31229654
6
MD Time 1510.00
C          -0.90249519       -0.00000000       -0.00000002
C           0.90249519        0.00000000        0.00000002
H          -1.40368263        0.90932337        0.30746649
H          -1.40368261       -0.90932338       -0.30746653
H           1.40368261        0.90932334       -0.30746658
H           1.40368262       -0.90932334        0.30746660
6
MD Time 1520.00
C          -0.89714866       -0.00000000       -0.00000002
C           0.89714866        0.00000000        0.00000002
H          -1.38964949        0.91398712        0.30256099
H          -1.38964947       -0.91398713       -0.30256104
H           1.38964947        0.91398709       -0.30256109
H           1.38964948       -0.91398709        0.30256111
6
MD Time 1530.00
C          -0.89149003       -0.00000000       -0.00000002
C           0.89149003        0.00000000        0.00000002
H          -1.37591922        0.91882845        0.29759790
H          -1.37591920       -0.91882846       -0.29759795
H           1.37591921        0.91882842       -0.29759800
H           1.37591921       -0.91882842        0.29759803
6
MD Time 1540.00
C          -0.88551692       -0.00000000       -0.00000002
C           0.88551692        0.00000000        0.00000002
H          -1.36254559        0.92384102        0.29259219
H          -1.36254557       -0.92384103       -0.29259224
H           1.36254558        0.92384099       -0.29259230
H           1.36254558       -0.92384099        0.29259233
6
MD Time 1550.00
C          -0.87922899       -0.00000000       -0.00000002
C           0.87922899        0.00000000        0.00000002
H          -1.34957466        0.92900882        0.28755577
H          -1.34957464       -0.92900883       -0.28755582
H           1.34957465        0.92900879       -0.28755588
H           1.34957465       -0.92900879        0.28755591
6
MD Time 1560.00
C          -0.87262809       -0.00000000       -0.00000002
C           0.87262809        0.00000000        0.00000002
H          -1.33704470        0.93430596        0.28249753
H          -1.33704467       -0.93430596       -0.28249759
H           1.33704469        0.93430593       -0.28249765
H           1.33704468       -0.93430593        0.28249769
6
MD Time 1570.00
C          -0.86571833       -0.00000000       -0.00000002
C           0.86571833        0.00000000        0.00000002
H          -1.32498626        0.93969687        0.27742355
H          -1.32498623       -0.93969688       -0.27742361
H           1.32498625        0.93969684       -0.27742368
H           1.32498624       -0.93969684        0.27742372
6
MD Time 1580.00
C          -0.85850613       -0.00000000       -0.00000001
C           0.85850613        0.00000000        0.00000002
H          -1.31342247        0.94513694        0.27233738
H          -1.31342244       -0.94513695       -0.27233744
H           1.31342246        0.94513692       -0.27233751
H           1.31342245       -0.94513691        0.27233755
6
MD Time 1590.00
C          -0.85100030       -0.00000000       -0.00000001
C           0.85100030        0.00000000        0.00000002
H          -1.30236949        0.95057348        0.26724044
H          -1.30236946       -0.95057348       -0.26724051
H           1.30236948        0.95057345       -0.26724057
H           1.30236947       -0.95057344        0.26724062
6
MD Time 1600.00
C          -0.84321205       -0.00000000       -0.00000001
C           0.84321205        0.00000000        0.00000002
H          -1.29183703        0.95594698        0.26213251
H          -1.29183700       -0.95594699       -0.26213258
H           1.29183703        0.95594696       -0.26213265
H           1.29183701       -0.95594695        0.26213269
6
MD Time 1610.00
C          -0.83515508       -0.00000000       -0.00000001
C           0.83515508        0.00000000        0.00000002
H          -1.28182903        0.96119266        0.25701220
H          -1.28182900       -0.96119267       -0.25701228
H           1.28182902        0.96119264       -0.25701234
H           1.28182901       -0.96119263        0.25701239
6
MD Time 1620.00
C          -0.82684562       -0.00000000       -0.00000001
C           0.82684562        0.00000000        0.00000002
H          -1.27234430        0.96624209        0.25187748
H          -1.27234426       -0.96624210       -0.25187756
H           1.27234429        0.96624207       -0.25187762
H           1.27234428       -0.96624206        0.25187768
6
MD Time 1630.00
C          -0.81830247       -0.00000000       -0.00000001
C           0.81830247        0.00000000        0.00000001
H          -1.26337725        0.97102495        0.24672613
H          -1.26337721       -0.97102495       -0.24672622
H           1.26337725        0.97102493       -0.24672628
H           1.26337723       -0.97102492        0.24672633
6
MD Time 1640.00
C          -0.80954712       -0.00000000       -0.00000001
C           0.80954712        0.00000000        0.00000001
H          -1.25491859        0.97547074        0.24155625
H          -1.25491856       -0.97547075       -0.24155633
H           1.25491859        0.97547072       -0.24155639
H           1.25491857       -0.97547071        0.24155645
6
MD Time 1650.00
C          -0.80060379       -0.00000000       -0.00000001
C           0.80060379        0.00000000        0.00000001
H          -1.24695602        0.97951050        0.23636660
H          -1.24695598       -0.97951051       -0.23636669
H           1.24695601        0.97951049       -0.23636675
H           1.24695599       -0.97951047        0.23636681
6
MD Time 1660.00
C          -0.79149958       -0.00000000       -0.00000001
C           0.79149958        0.00000000        0.00000001
H          -1.23947483        0.98307838        0.23115701
H          -1.23947479       -0.98307839       -0.23115710
H           1.23947483        0.98307837       -0.23115715
H           1.23947481       -0.98307835        0.23115722
6
MD Time 1670.00
C          -0.78226457       -0.00000000       -0.00000001
C           0.78226457        0.00000000        0.00000001
H          -1.23245862        0.98611309        0.22592861
H          -1.23245858       -0.98611310       -0.22592870
H           1.23245862        0.98611308       -0.22592876
H           1.23245860       -0.98611306        0.22592883
6
MD Time 1680.00
C          -0.77293191       -0.00000000       -0.00000001
C           0.77293190        0.00000000        0.00000001
H          -1.22588979        0.98855918        0.22068412
H          -1.22588974       -0.98855919       -0.22068421
H           1.22588979        0.98855917       -0.22068426
H           1.22588976       -0.98855915        0.22068434
6
MD Time 1690.00
C          -0.76353796       -0.00000000       -0.00000001
C           0.76353795        0.00000000        0.00000001
H          -1.21975013        0.99036824        0.21542796
H          -1.21975009       -0.99036825       -0.21542805
H           1.21975013        0.99036823       -0.21542810
H           1.21975011       -0.99036822        0.21542818
6
MD Time 1700.00
C          -0.75412237       -0.00000000       -0.00000001
C           0.75412237        0.00000000        0.00000001
H          -1.21402138        0.99149986        0.21016642
H          -1.21402134       -0.99149987       -0.21016652
H           1.21402138        0.99149985       -0.21016656
H           1.21402135       -0.99149984        0.21016664
6
MD Time 1710.00
C          -0.74472815       -0.00000000       -0.00000001
C           0.74472815        0.00000000        0.00000001
H          -1.20868568        0.99192248        0.20490774
H          -1.20868563       -0.99192249       -0.20490785
H           1.20868568        0.99192248       -0.20490788
H           1.20868565       -0.99192246        0.20490797
6
MD Time 1720.00
C          -0.73540169       -0.00000000       -0.00000001
C           0.73540169        0.00000000        0.00000001
H          -1.20372608        0.99161412        0.19966214
H          -1.20372604       -0.99161413       -0.19966225
H           1.20372608        0.99161412       -0.19966227
H           1.20372606       -0.99161410        0.19966236
6
MD Time 1730.00
C          -0.72619267       -0.00000000       -0.00000001
C           0.72619267        0.00000000        0.00000001
H          -1.19912706        0.99056297        0.19444183
H          -1.19912702       -0.99056298       -0.19444194
H           1.19912706        0.99056297       -0.19444195
H           1.19912704       -0.99056295        0.19444205
6
MD Time 1740.00
C          -0.71715401       -0.00000000       -0.00000001
C           0.71715401        0.00000000        0.00000001
H          -1.19487494        0.98876789        0.18926101
H          -1.19487490       -0.98876791       -0.18926113
H           1.19487494        0.98876789       -0.18926113
H           1.19487491       -0.98876787        0.18926123
6
MD Time 1750.00
C          -0.70834155       -0.00000000       -0.00000001
C           0.70834155        0.00000000        0.00000001
H          -1.19095839        0.98623880        0.18413586
H          -1.19095835       -0.98623882       -0.18413597
H           1.19095839        0.98623880       -0.18413597
H           1.19095836       -0.98623878        0.18413607
6
MD Time 1760.00
C          -0.69981374       -0.00000000       -0.00000001
C           0.69981374        0.00000000        0.00000001
H          -1.18736888        0.98299699        0.17908443
H          -1.18736885       -0.98299700       -0.17908454
H           1.18736888        0.98299699       -0.17908453
H           1.18736886       -0.98299697        0.17908464
6
MD Time 1770.00
C          -0.69163111       -0.00000000       -0.00000001
C           0.69163111        0.00000000        0.00000001
H          -1.18410116        0.97907530        0.17412661
H          -1.18410112       -0.97907532       -0.17412673
H           1.18410115        0.97907531       -0.17412670
H           1.18410113       -0.97907529        0.17412681
6
MD Time 1780.00
C          -0.68385558       -0.00000000       -0.00000001
C           0.68385558        0.00000000        0.00000001
H          -1.18115365        0.97451828        0.16928403
H          -1.18115361       -0.97451829       -0.16928414
H           1.18115364        0.97451828       -0.16928411
H           1.18115362       -0.97451827        0.16928422
6
MD Time 1790.00
C          -0.67654961       -0.00000000       -0.00000001
C           0.67654961        0.00000000        0.00000001
H          -1.17852888        0.96938211        0.16457992
H          -1.17852884       -0.96938213       -0.16458003
H           1.17852887        0.96938212       -0.16457999
H           1.17852885       -0.96938210        0.16458010
6
MD Time 1800.00
C          -0.66977520       -0.00000000       -0.00000001
C           0.66977520        0.00000000        0.00000001
H          -1.17623385        0.96373451        0.16003899
H          -1.17623382       -0.96373452       -0.16003910
H           1.17623384        0.96373452       -0.16003904
H           1.17623382       -0.96373450        0.16003916
6
MD Time 1810.00
C          -0.66359266       -0.00000000       -0.00000001
C           0.66359266        0.00000000        0.00000001
H          -1.17428029        0.95765437        0.15568725
H          -1.17428025       -0.95765438       -0.15568736
H           1.17428027        0.95765437       -0.15568729
H           1.17428026       -0.95765436        0.15568741
6
MD Time 1820.00
C          -0.65805931       -0.00000000       -0.00000001
C           0.65805931        0.00000000        0.00000001
H          -1.17268484        0.95123123        0.15155180
H          -1.17268481       -0.95123124       -0.15155191
H           1.17268482        0.95123123       -0.15155184
H           1.17268481       -0.95123122        0.15155196
6
MD Time 1830.00
C          -0.65322807       -0.00000000       -0.00000001
C           0.65322807        0.00000000        0.00000001
H          -1.17146910        0.94456447        0.14766061
H          -1.17146907       -0.94456449       -0.14766072
H           1.17146908        0.94456448       -0.14766063
H           1.17146907       -0.94456447        0.14766075
6
MD Time 1840.00
C          -0.64914603       -0.00000000       -0.00000001
C           0.64914604        0.00000000        0.00000001
H          -1.17065949        0.93776224        0.14404218
H          -1.17065946       -0.93776226       -0.14404228
H           1.17065947        0.93776225       -0.14404219
H           1.17065945       -0.93776224        0.14404231
6
MD Time 1850.00
C          -0.64585307       -0.00000000       -0.00000001
C           0.64585307        0.00000000        0.00000001
H          -1.17028686        0.93093996        0.14072526
H          -1.17028683       -0.93093997       -0.14072537
H           1.17028684        0.93093997       -0.14072526
H           1.17028683       -0.93093996        0.14072538
6
MD Time 1860.00
C          -0.64338061       -0.00000000       -0.00000001
C           0.64338062        0.00000000        0.00000001
H          -1.17038592        0.92421847        0.13773848
H          -1.17038589       -0.92421848       -0.13773858
H           1.17038590        0.92421848       -0.13773847
H           1.17038589       -0.92421847        0.13773859
6
MD Time 1870.00
C          -0.64175065       -0.00000000       -0.00000001
C           0.64175065        0.00000000        0.00000001
H          -1.17099430        0.91772180        0.13510987
H          -1.17099427       -0.91772181       -0.13510997
H           1.17099428        0.91772181       -0.13510985
H           1.17099427       -0.91772181        0.13510997
6
MD Time 1880.00
C          -0.64097501       -0.00000000       -0.00000001
C           0.64097501        0.00000000        0.00000001
H          -1.17215134        0.91157444        0.13286645
H          -1.17215131       -0.91157445       -0.13286654
H           1.17215132        0.91157445       -0.13286641
H           1.17215131       -0.91157445        0.13286653
6
MD Time 1890.00
C          -0.64105507       -0.00000000       -0.00000001
C           0.64105507        0.00000000        0.00000001
H          -1.17389662        0.90589825        0.13103369
H          -1.17389659       -0.90589826       -0.13103378
H           1.17389659        0.90589826       -0.13103364
H           1.17389658       -0.90589826        0.13103376
6
MD Time 1900.00
C          -0.64198181       -0.00000000       -0.00000001
C           0.64198182        0.00000000        0.00000001
H          -1.17626813        0.90080906        0.12963500
H          -1.17626811       -0.90080907       -0.12963509
H           1.17626811        0.90080908       -0.12963495
H           1.17626810       -0.90080908        0.12963506
6
MD Time 1910.00
C          -0.64373633       -0.00000000       -0.00000001
C           0.64373633        0.00000000        0.00000001
H          -1.17930034        0.89641309        0.12869120
H          -1.17930032       -0.89641310       -0.12869128
H           1.17930032        0.89641311       -0.12869113
H           1.17930031       -0.89641310        0.12869125
6
MD Time 1920.00
C          -0.64629068       -0.00000000       -0.00000001
C           0.64629069        0.00000000        0.00000001
H          -1.18302208        0.89280321        0.12821994
H          -1.18302206       -0.89280322       -0.12822002
H           1.18302205        0.89280323       -0.12821987
H           1.18302205       -0.89280323        0.12821998
6
MD Time 1930.00
C          -0.64960907       -0.00000000       -0.00000001
C           0.64960907        0.00000000        0.00000001
H          -1.18745447        0.89005553        0.12823523
H          -1.18745445       -0.89005554       -0.12823530
H           1.18745444        0.89005556       -0.12823514
H           1.18745444       -0.89005555        0.12823525
6
MD Time 1940.00
C          -0.65364924       -0.00000000       -0.00000001
C           0.65364924        0.00000000        0.00000001
H          -1.19260902        0.88822624        0.12874695
H          -1.19260900       -0.88822625       -0.12874702
H           1.19260900        0.88822627       -0.12874685
H           1.19260899       -0.88822626        0.12874695
6
MD Time 1950.00
C          -0.65836402       -0.00000000       -0.00000001
C           0.65836402        0.00000000        0.00000001
H          -1.19848607        0.88734910        0.12976046
H          -1.19848605       -0.88734911       -0.12976052
H           1.19848605        0.88734913       -0.12976035
H           1.19848604       -0.88734912        0.12976045
6
MD Time 1960.00
C          -0.66370283       -0.00000000       -0.00000001
C           0.66370283        0.00000000        0.00000001
H          -1.20507361        0.88743375        0.13127633
H          -1.20507359       -0.88743376       -0.13127639
H           1.20507359        0.88743378       -0.13127621
H           1.20507358       -0.88743377        0.13127631
6
MD Time 1970.00
C          -0.66961318       -0.00000000       -0.00000001
C           0.66961318        0.00000000        0.00000001
H          -1.21234677        0.88846499        0.13329013
H          -1.21234675       -0.88846499       -0.13329018
H           1.21234675        0.88846503       -0.13329000
H           1.21234674       -0.88846501        0.13329009
6
MD Time 1980.00
C          -0.67604196       -0.00000000       -0.00000001
C           0.67604196        0.00000000        0.00000001
H          -1.22026787        0.89040305        0.13579238
H          -1.22026786       -0.89040306       -0.13579243
H           1.22026785        0.89040309       -0.13579225
H           1.22026785       -0.89040308        0.13579234
6
MD Time 1990.00
C          -0.68293656       -0.00000000       -0.00000001
C           0.68293656        0.00000000        0.00000001
H          -1.22878710        0.89318495        0.13876867
H          -1.22878709       -0.89318496       -0.13876871
H           1.22878708        0.89318500       -0.13876852
H           1.22878708       -0.89318498        0.13876861
6
MD Time 2000.00
C          -0.69024574       -0.00000000       -0.00000001
C           0.69024574        0.00000000        0.00000001
H          -1.23784381        0.89672672        0.14219983
H          -1.23784380       -0.89672673       -0.14219987
H           1.23784379        0.89672677       -0.14219968
H           1.23784379       -0.89672676        0.14219976
6
MD Time 2010.00
C          -0.69792031       -0.00000000       -0.00000001
C           0.69792031        0.00000000        0.00000001
H          -1.24736819        0.90092644        0.14606233
H          -1.24736818       -0.90092645       -0.14606237
H           1.24736818        0.90092649       -0.14606217
H           1.24736817       -0.90092647        0.14606225
6
MD Time 2020.00
C          -0.70591352       -0.00000001       -0.00000002
C           0.70591352        0.00000000        0.00000001
H          -1.25728338        0.90566778        0.15032871
H          -1.25728337       -0.90566779       -0.15032874
H           1.25728337        0.90566783       -0.15032854
H           1.25728336       -0.90566781        0.15032862
6
MD Time 2030.00
C          -0.71418135       -0.00000001       -0.00000002
C           0.71418135        0.00000000        0.00000001
H          -1.26750765        0.91082389        0.15496812
H          -1.26750765       -0.91082390       -0.15496815
H           1.26750764        0.91082395       -0.15496795
H           1.26750764       -0.91082393        0.15496801
6
MD Time 2040.00
C          -0.72268259       -0.00000001       -0.00000002
C           0.72268259        0.00000000        0.00000001
H          -1.27795670        0.91626134        0.15994694
H          -1.27795669       -0.91626136       -0.15994696
H           1.27795669        0.91626141       -0.15994676
H           1.27795669       -0.91626138        0.15994682
6
MD Time 2050.00
C          -0.73137882       -0.00000001       -0.00000002
C           0.73137882        0.00000000        0.00000001
H          -1.28854579        0.92184394        0.16522940
H          -1.28854578       -0.92184395       -0.16522942
H           1.28854578        0.92184400       -0.16522922
H           1.28854577       -0.92184398        0.16522927
6
MD Time 2060.00
C          -0.74023433       -0.00000001       -0.00000002
C           0.74023434        0.00000000        0.00000001
H          -1.29919174        0.92743623        0.17077825
H          -1.29919174       -0.92743624       -0.17077827
H           1.29919173        0.92743629       -0.17077806
H           1.29919173       -0.92743627        0.17077811
6
MD Time 2070.00
C          -0.74921598       -0.00000001       -0.00000002
C           0.74921598        0.00000000        0.00000001
H          -1.30981465        0.93290666        0.17655534
H          -1.30981465       -0.93290667       -0.17655536
H           1.30981464        0.93290673       -0.17655515
H           1.30981464       -0.93290670        0.17655520
6
MD Time 2080.00
C          -0.75829298       -0.00000001       -0.00000002
C           0.75829298        0.00000000        0.00000002
H          -1.32033933        0.93813026        0.18252227
H          -1.32033933       -0.93813027       -0.18252228
H           1.32033933        0.93813032       -0.18252207
H           1.32033933       -0.93813030        0.18252212
6
MD Time 2090.00
C          -0.76743675       -0.00000001       -0.00000002
C           0.76743675        0.00000000        0.00000002
H          -1.33069645        0.94299082        0.18864090
H          -1.33069645       -0.94299084       -0.18864090
H           1.33069644        0.94299089       -0.18864069
H           1.33069644       -0.94299086        0.18864073
6
MD Time 2100.00
C          -0.77662071       -0.00000001       -0.00000002
C           0.77662071        0.00000000        0.00000002
H          -1.34082338        0.94738270        0.19487385
H          -1.34082339       -0.94738271       -0.19487385
H           1.34082338        0.94738277       -0.19487365
H           1.34082338       -0.94738274        0.19487368
6
MD Time 2110.00
C          -0.78582004       -0.00000001       -0.00000002
C           0.78582005        0.00000000        0.00000002
H          -1.35066488        0.95121211        0.20118501
H          -1.35066489       -0.95121213       -0.20118501
H           1.35066488        0.95121218       -0.20118481
H           1.35066489       -0.95121216        0.20118483
6
MD Time 2120.00
C          -0.79501160       -0.00000001       -0.00000002
C           0.79501160        0.00000000        0.00000002
H          -1.36017346        0.95439818        0.20753987
H          -1.36017346       -0.95439820       -0.20753986
H           1.36017345        0.95439825       -0.20753966
H           1.36017346       -0.95439823        0.20753968
6
MD Time 2130.00
C          -0.80417362       -0.00000001       -0.00000002
C           0.80417362        0.00000000        0.00000002
H          -1.36930962        0.95687362        0.21390590
H          -1.36930963       -0.95687364       -0.21390588
H           1.36930962        0.95687369       -0.21390569
H           1.36930962       -0.95687367        0.21390570
6
MD Time 2140.00
C          -0.81328565       -0.00000001       -0.00000002
C           0.81328565        0.00000000        0.00000002
H          -1.37804202        0.95858518        0.22025287
H          -1.37804203       -0.95858520       -0.22025286
H           1.37804202        0.95858525       -0.22025266
H           1.37804203       -0.95858523        0.22025268
6
MD Time 2150.00
C          -0.82232831       -0.00000001       -0.00000002
C           0.82232831        0.00000001        0.00000002
H          -1.38634744        0.95949398        0.22655317
H          -1.38634745       -0.95949400       -0.22655315
H           1.38634745        0.95949405       -0.22655296
H           1.38634746       -0.95949403        0.22655297
6
MD Time 2160.00
C          -0.83128320       -0.00000001       -0.00000002
C           0.83128320        0.00000001        0.00000002
H          -1.39421076        0.95957562        0.23278197
H          -1.39421077       -0.95957565       -0.23278195
H           1.39421076        0.95957569       -0.23278176
H           1.39421078       -0.95957567        0.23278177
6
MD Time 2170.00
C          -0.84013271       -0.00000001       -0.00000002
C           0.84013271        0.00000001        0.00000002
H          -1.40162481        0.95882026        0.23891757
H          -1.40162482       -0.95882028       -0.23891754
H           1.40162481        0.95882032       -0.23891736
H           1.40162483       -0.95882030        0.23891736
6
MD Time 2180.00
C          -0.84885990       -0.00000001       -0.00000002
C           0.84885990        0.00000001        0.00000002
H          -1.40859024        0.95723253        0.24494152
H          -1.40859026       -0.95723255       -0.24494149
H           1.40859025        0.95723259       -0.24494132
H           1.40859026       -0.95723258        0.24494131
6
MD Time 2190.00
C          -0.85744838       -0.00000001       -0.00000002
C           0.85744838        0.00000001        0.00000002
H          -1.41511535        0.95483148        0.25083890
H          -1.41511537       -0.95483150       -0.25083887
H           1.41511536        0.95483154       -0.25083870
H           1.41511537       -0.95483152        0.25083869
6
MD Time 2200.00
C          -0.86588218       -0.00000001       -0.00000002
C           0.86588218        0.00000001        0.00000002
H          -1.42121584        0.95165031        0.25659844
H          -1.42121585       -0.95165033       -0.25659841
H           1.42121584        0.95165037       -0.25659824
H           1.42121586       -0.95165035        0.25659823
6
MD Time 2210.00
C          -0.87414566       -0.00000001       -0.00000002
C           0.87414566        0.00000001        0.00000002
H          -1.42691454        0.94773610        0.26221270
H          -1.42691455       -0.94773612       -0.26221267
H           1.42691454        0.94773616       -0.26221251
H           1.42691456       -0.94773615        0.26221250
6
MD Time 2220.00
C          -0.88222344       -0.00000001       -0.00000002
C           0.88222344        0.00000001        0.00000002
H          -1.43224111        0.94314937        0.26767821
H          -1.43224112       -0.94314939       -0.26767817
H           1.43224111        0.94314942       -0.26767802
H           1.43224114       -0.94314941        0.26767800
6
MD Time 2230.00
C          -0.89010030       -0.00000001       -0.00000002
C           0.89010030        0.00000001        0.00000002
H          -1.43723160        0.93796343        0.27299548
H          -1.43723161       -0.93796345       -0.27299545
H           1.43723160        0.93796348       -0.27299530
H           1.43723163       -0.93796348        0.27299528
6
MD Time 2240.00
C          -0.89776118       -0.00000001       -0.00000002
C           0.89776118        0.00000001        0.00000002
H          -1.44192794        0.93226359        0.27816906
H          -1.44192796       -0.93226361       -0.27816903
H           1.44192795        0.93226364       -0.27816889
H           1.44192797       -0.93226364        0.27816887
6
MD Time 2250.00
C          -0.90519118       -0.00000001       -0.00000002
C           0.90519118        0.00000001        0.00000002
H          -1.44637730        0.92614601        0.28320743
H          -1.44637732       -0.92614604       -0.28320739
H           1.44637731        0.92614606       -0.28320726
H           1.44637733       -0.92614606        0.28320724
6
MD Time 2260.00
C          -0.91237558       -0.00000001       -0.00000002
C           0.91237558        0.00000001        0.00000002
H          -1.45063124        0.91971629        0.28812275
H          -1.45063126       -0.91971631       -0.28812272
H           1.45063125        0.91971634       -0.28812260
H           1.45063128       -0.91971633        0.28812257
6
MD Time 2270.00
C          -0.91929989       -0.00000001       -0.00000002
C           0.91929988        0.00000001        0.00000002
H          -1.45474475        0.91308763        0.29293059
H          -1.45474477       -0.91308765       -0.29293056
H           1.45474476        0.91308767       -0.29293045
H           1.45474479       -0.91308767        0.29293042
6
MD Time 2280.00
C          -0.92595000       -0.00000001       -0.00000002
C           0.92595000        0.00000001        0.00000002
H          -1.45877498        0.90637865        0.29764935
H          -1.45877499       -0.90637867       -0.29764932
H           1.45877498        0.90637870       -0.29764921
H           1.45877502       -0.90637869        0.29764918
6
MD Time 2290.00
C          -0.93231234       -0.00000001       -0.00000002
C           0.93231233        0.00000001        0.00000002
H          -1.46277986        0.89971079        0.30229959
H          -1.46277987       -0.89971081       -0.30229956
H           1.46277986        0.89971083       -0.30229946
H           1.46277990       -0.89971083        0.30229943
6
MD Time 2300.00
C          -0.93837404       -0.00000001       -0.00000002
C           0.93837403        0.00000001        0.00000002
H          -1.46681646        0.89320528        0.30690316
H          -1.46681647       -0.89320530       -0.30690313
H           1.46681646        0.89320531       -0.30690304
H           1.46681650       -0.89320531        0.30690301
6
MD Time 2310.00
C          -0.94412319       -0.00000001       -0.00000002
C           0.94412318        0.00000001        0.00000002
H          -1.47093920        0.88697990        0.31148210
H          -1.47093921       -0.88697991       -0.31148208
H           1.47093920        0.88697993       -0.31148200
H           1.47093924       -0.88697993        0.31148197
6
MD Time 2320.00
C          -0.94954910       -0.00000001       -0.00000002
C           0.94954909        0.00000001        0.00000002
H          -1.47519794        0.88114549        0.31605751
H          -1.47519796       -0.88114551       -0.31605749
H           1.47519795        0.88114552       -0.31605741
H           1.47519798       -0.88114552        0.31605738
6
MD Time 2330.00
C          -0.95464255       -0.00000001       -0.00000002
C           0.95464254        0.00000001        0.00000002
H          -1.47963606        0.87580246        0.32064813
H          -1.47963608       -0.87580248       -0.32064811
H           1.47963607        0.87580250       -0.32064804
H           1.47963611       -0.87580249        0.32064802
6
MD Time 2340.00
C          -0.95939606       -0.00000001       -0.00000002
C           0.95939605        0.00000001        0.00000002
H          -1.48428860        0.87103746        0.32526909
H          -1.48428862       -0.87103748       -0.32526908
H           1.48428861        0.87103749       -0.32526901
H           1.48428864       -0.87103749        0.32526899
6
MD Time 2350.00
C          -0.96380412       -0.00000001       -0.00000002
C           0.96380412        0.00000001        0.00000002
H          -1.48918057        0.86692041        0.32993058
H          -1.48918058       -0.86692043       -0.32993057
H           1.48918058        0.86692044       -0.32993052
H           1.48918061       -0.86692044        0.32993049
6
MD Time 2360.00
C          -0.96786340       -0.00000001       -0.00000001
C           0.96786340        0.00000001        0.00000002
H          -1.49432561        0.86350216        0.33463673
H          -1.49432562       -0.86350217       -0.33463673
H           1.49432561        0.86350219       -0.33463668
H           1.49432565       -0.86350218        0.33463666
6
MD Time 2370.00
C          -0.97157282       -0.00000001       -0.00000001
C           0.97157282        0.00000001        0.00000002
H          -1.49972503        0.86081287        0.33938472
H          -1.49972505       -0.86081289       -0.33938473
H           1.49972504        0.86081290       -0.33938468
H           1.49972508       -0.86081289        0.33938466
6
MD Time 2380.00
C          -0.97493364       -0.00000001       -0.00000001
C           0.97493364        0.00000001        0.00000002
H          -1.50536738        0.85886135        0.34416420
H          -1.50536739       -0.85886136       -0.34416421
H           1.50536739        0.85886138       -0.34416418
H           1.50536742       -0.85886137        0.34416416
6
MD Time 2390.00
C          -0.97794941       -0.00000001       -0.00000001
C           0.97794941        0.00000001        0.00000001
H          -1.51122847        0.85763524        0.34895712
H          -1.51122848       -0.85763525       -0.34895713
H           1.51122847        0.85763526       -0.34895710
H           1.51122851       -0.85763525        0.34895709
6
MD Time 2400.00
C          -0.98062581       -0.00000001       -0.00000001
C           0.98062581        0.00000001        0.00000001
H          -1.51727203        0.85710217        0.35373791
H          -1.51727204       -0.85710217       -0.35373793
H           1.51727203        0.85710219       -0.35373791
H           1.51727207       -0.85710217        0.35373789
6
MD Time 2410.00
C          -0.98297048       -0.00000001       -0.00000001
C           0.98297048        0.00000001        0.00000001
H          -1.52345081        0.85721175        0.35847409
H          -1.52345082       -0.85721176       -0.35847412
H           1.52345081        0.85721177       -0.35847410
H           1.52345084       -0.85721175        0.35847409
6
MD Time 2420.00
C          -0.98499273       -0.00000001       -0.00000001
C           0.98499273        0.00000000        0.00000001
H          -1.52970805        0.85789817        0.36312718
H          -1.52970806       -0.85789817       -0.36312721
H           1.52970805        0.85789819       -0.36312720
H           1.52970808       -0.85789816        0.36312719
6
MD Time 2430.00
C          -0.98670321       -0.00000001       -0.00000001
C           0.98670321        0.00000000        0.00000001
H          -1.53597935        0.85908321        0.36765385
H          -1.53597936       -0.85908321       -0.36765389
H           1.53597935        0.85908322       -0.36765388
H           1.53597938       -0.85908320        0.36765389
6
MD Time 2440.00
C          -0.98811357       -0.00000001       -0.00000001
C           0.98811357        0.00000000        0.00000001
H          -1.54219461        0.86067957        0.37200732
H          -1.54219462       -0.86067957       -0.37200737
H           1.54219461        0.86067959       -0.37200736
H           1.54219464       -0.86067956        0.37200737
6
MD Time 2450.00
C          -0.98923613       -0.00000001       -0.00000001
C           0.98923613        0.00000000        0.00000001
H          -1.54828011        0.86259420        0.37613872
H          -1.54828012       -0.86259419       -0.37613878
H           1.54828010        0.86259421       -0.37613878
H           1.54828013       -0.86259418        0.37613879
6
MD Time 2460.00
C          -0.99008347       -0.00000001       -0.00000001
C           0.99008347        0.00000000        0.00000001
H          -1.55416050        0.86473142        0.37999856
H          -1.55416051       -0.86473141       -0.37999862
H           1.55416049        0.86473142       -0.37999863
H           1.55416052       -0.86473139        0.37999864
6
MD Time 2470.00
C          -0.99066816       -0.00000001       -0.00000000
C           0.99066816        0.00000000        0.00000001
H          -1.55976071        0.86699591        0.38353805
H          -1.55976072       -0.86699591       -0.38353811
H           1.55976070        0.86699592       -0.38353812
H           1.55976073       -0.86699588        0.38353814
6
MD Time 2480.00
C          -0.99100245       -0.00000001       -0.00000000
C           0.99100245        0.00000000        0.00000001
H          -1.56500764        0.86929526        0.38671030
H          -1.56500764       -0.86929525       -0.38671037
H           1.56500762        0.86929526       -0.38671038
H           1.56500765       -0.86929522        0.38671041
6
MD Time 2490.00
C          -0.99109803       -0.00000001       -0.00000000
C           0.99109803        0.00000000        0.00000001
H          -1.56983161        0.87154213        0.38947143
H          -1.56983161       -0.87154212       -0.38947151
H           1.56983159        0.87154212       -0.38947153
H           1.56983162       -0.87154209        0.38947155
6
MD Time 2500.00
C          -0.99096579       -0.00000001       -0.00000000
C           0.99096579        0.00000000        0.00000001
H          -1.57416766        0.87365608        0.39178143
H          -1.57416767       -0.87365606       -0.39178151
H           1.57416764        0.87365607       -0.39178154
H           1.57416766       -0.87365603        0.39178157
6
MD Time 2510.00
C          -0.99061566       -0.00000001       -0.00000000
C           0.99061566        0.00000000        0.00000000
H          -1.57795654        0.87556497        0.39360487
H          -1.57795654       -0.87556495       -0.39360495
H           1.57795652        0.87556495       -0.39360498
H           1.57795654       -0.87556491        0.39360501
6
MD Time 2520.00
C          -0.99005647       -0.00000001        0.00000000
C           0.99005647        0.00000000        0.00000000
H          -1.58114553        0.87720606        0.39491147
H          -1.58114552       -0.87720605       -0.39491155
H           1.58114550        0.87720604       -0.39491159
H           1.58114552       -0.87720600        0.39491162
6
MD Time 2530.00
C          -0.98929586       -0.00000001        0.00000000
C           0.98929586        0.00000000        0.00000000
H          -1.58368906        0.87852683        0.39567653
H          -1.58368906       -0.87852681       -0.39567661
H           1.58368903        0.87852681       -0.39567666
H           1.58368905       -0.87852677        0.39567669
6
MD Time 2540.00
C          -0.98834017       -0.00000001        0.00000000
C           0.98834017        0.00000000        0.00000000
H          -1.58554923        0.87948553        0.39588121
H          -1.58554923       -0.87948551       -0.39588129
H           1.58554920        0.87948550       -0.39588134
H           1.58554922       -0.87948547        0.39588138
6
MD Time 2550.00
C          -0.98719440       -0.00000001        0.00000000
C           0.98719441        0.00000000        0.00000000
H          -1.58669614        0.88005159        0.39551273
H          -1.58669613       -0.88005158       -0.39551281
H           1.58669610        0.88005156       -0.39551287
H           1.58669612       -0.88005153        0.39551291
6
MD Time 2560.00
C          -0.98586217       -0.00000001        0.00000000
C           0.98586217        0.00000000        0.00000000
H          -1.58710812        0.88020588        0.39456449
H          -1.58710811       -0.88020587       -0.39456458
H           1.58710808        0.88020585       -0.39456464
H           1.58710811       -0.88020581        0.39456468
6
MD Time 2570.00
C          -0.98434567       -0.00000001        0.00000000
C           0.98434568        0.00000000        0.00000000
H          -1.58677196        0.87994082        0.39303611
H          -1.58677196       -0.87994080       -0.39303620
H           1.58677193        0.87994078       -0.39303627
H           1.58677195       -0.87994075        0.39303631
6
MD Time 2580.00
C          -0.98264569       -0.00000001        0.00000000
C           0.98264569        0.00000000        0.00000000
H          -1.58568299        0.87926044        0.39093342
H          -1.58568298       -0.87926042       -0.39093350
H           1.58568295        0.87926040       -0.39093358
H           1.58568297       -0.87926036        0.39093362
6
MD Time 2590.00
C          -0.98076155       -0.00000001        0.00000000
C           0.98076156        0.00000000        0.00000000
H          -1.58384510        0.87818035        0.38826837
H          -1.58384509       -0.87818034       -0.38826845
H           1.58384506        0.87818031       -0.38826854
H           1.58384508       -0.87818027        0.38826858
6
MD Time 2600.00
C          -0.97869120       -0.00000001        0.00000000
C           0.97869120        0.00000000        0.00000000
H          -1.58127076        0.87672763        0.38505896
H          -1.58127075       -0.87672761       -0.38505903
H           1.58127073        0.87672758       -0.38505913
H           1.58127074       -0.87672755        0.38505917
6
MD Time 2610.00
C          -0.97643114       -0.00000001        0.00000000
C           0.97643114        0.00000000        0.00000000
H          -1.57798094        0.87494058        0.38132899
H          -1.57798093       -0.87494057       -0.38132907
H           1.57798091        0.87494053       -0.38132917
H           1.57798093       -0.87494050        0.38132920
6
MD Time 2620.00
C          -0.97397654       -0.00000001        0.00000000
C           0.97397654        0.00000000        0.00000000
H          -1.57400490        0.87286843        0.37710789
H          -1.57400489       -0.87286842       -0.37710795
H           1.57400487        0.87286837       -0.37710806
H           1.57400489       -0.87286835        0.37710810
6
MD Time 2630.00
C          -0.97132125       -0.00000001        0.00000000
C           0.97132126        0.00000000        0.00000000
H          -1.56937992        0.87057079        0.37243029
H          -1.56937991       -0.87057078       -0.37243036
H           1.56937989        0.87057073       -0.37243047
H           1.56937990       -0.87057071        0.37243050
6
MD Time 2640.00
C          -0.96845792       -0.00000001        0.00000000
C           0.96845792        0.00000000        0.00000000
H          -1.56415086        0.86811701        0.36733569
H          -1.56415085       -0.86811700       -0.36733574
H           1.56415083        0.86811695       -0.36733587
H           1.56415085       -0.86811693        0.36733589
6
MD Time 2650.00
C          -0.96537808       -0.00000001        0.00000000
C           0.96537808        0.00000000        0.00000000
H          -1.55836958        0.86558518        0.36186779
H          -1.55836956       -0.86558518       -0.36186784
H           1.55836955        0.86558512       -0.36186798
H           1.55836957       -0.86558510        0.36186800
6
MD Time 2660.00
C          -0.96207232       -0.00000001        0.00000000
C           0.96207232        0.00000000        0.00000000
H          -1.55209411        0.86306091        0.35607393
H          -1.55209410       -0.86306091       -0.35607397
H           1.55209409        0.86306085       -0.35607411
H           1.55209410       -0.86306084        0.35607413
6
MD Time 2670.00
C          -0.95853047       -0.00000000        0.00000000
C           0.95853047        0.00000000        0.00000000
H          -1.54538764        0.86063575        0.35000414
H          -1.54538763       -0.86063575       -0.35000418
H           1.54538762        0.86063569       -0.35000433
H           1.54538764       -0.86063568        0.35000434
6
MD Time 2680.00
C          -0.95474185       -0.00000000        0.00000000
C           0.95474185        0.00000000        0.00000000
H          -1.53831721        0.85840519        0.34371029
H          -1.53831720       -0.85840519       -0.34371031
H           1.53831719        0.85840512       -0.34371047
H           1.53831721       -0.85840512        0.34371048
6
MD Time 2690.00
C          -0.95069554       -0.00000000        0.00000000
C           0.95069554        0.00000000        0.00000000
H          -1.53095218        0.85646632        0.33724487
H          -1.53095217       -0.85646633       -0.33724489
H           1.53095217        0.85646625       -0.33724505
H           1.53095218       -0.85646625        0.33724506
6
MD Time 2700.00
C          -0.94638075       -0.00000000       -0.00000000
C           0.94638075        0.00000000        0.00000000
H          -1.52336246        0.85491511        0.33065990
H          -1.52336245       -0.85491513       -0.33065991
H           1.52336245        0.85491505       -0.33066008
H           1.52336246       -0.85491505        0.33066008
6
MD Time 2710.00
C          -0.94178713       -0.00000000       -0.00000000
C           0.94178713        0.00000000        0.00000000
H          -1.51561654        0.85384340        0.32400556
H          -1.51561652       -0.85384341       -0.32400557
H           1.51561653        0.85384334       -0.32400574
H           1.51561654       -0.85384334        0.32400573
6
MD Time 2720.00
C          -0.93690521       -0.00000000       -0.00000000
C           0.93690520        0.00000000        0.00000000
H          -1.50777938        0.85333559        0.31732897
H          -1.50777937       -0.85333561       -0.31732897
H           1.50777938        0.85333553       -0.31732915
H           1.50777938       -0.85333554        0.31732914
6
MD Time 2730.00
C          -0.93172678       -0.00000000       -0.00000000
C           0.93172678        0.00000000        0.00000000
H          -1.49991036        0.85346542        0.31067294
H          -1.49991034       -0.85346544       -0.31067293
H           1.49991036        0.85346536       -0.31067311
H           1.49991036       -0.85346537        0.31067310
6
MD Time 2740.00
C          -0.92624531       -0.00000000       -0.00000000
C           0.92624531        0.00000000        0.00000000
H          -1.49206119        0.85429271        0.30407489
H          -1.49206117       -0.85429274       -0.30407488
H           1.49206119        0.85429265       -0.30407507
H           1.49206119       -0.85429266        0.30407505
6
MD Time 2750.00
C          -0.92045630       -0.00000000       -0.00000000
C           0.92045630        0.00000000        0.00000000
H          -1.48427417        0.85586054        0.29756601
H          -1.48427415       -0.85586057       -0.29756599
H           1.48427417        0.85586049       -0.29756618
H           1.48427417       -0.85586049        0.29756616
6
MD Time 2760.00
C          -0.91435756       -0.00000000       -0.00000000
C           0.91435756        0.00000000        0.00000000
H          -1.47658072        0.85819291        0.29117064
H          -1.47658071       -0.85819294       -0.29117062
H           1.47658073        0.85819286       -0.29117081
H           1.47658073       -0.85819286        0.29117078
6
MD Time 2770.00
C          -0.90794952       -0.00000000       -0.00000000
C           0.90794952        0.00000000        0.00000000
H          -1.46900048        0.86129311        0.28490604
H          -1.46900046       -0.86129314       -0.28490600
H           1.46900049        0.86129306       -0.28490620
H           1.46900049       -0.86129306        0.28490617
6
MD Time 2780.00
C          -0.90123533       -0.00000000       -0.00000000
C           0.90123533        0.00000000        0.00000000
H          -1.46154080        0.86514298        0.27878245
H          -1.46154078       -0.86514301       -0.27878241
H           1.46154081        0.86514293       -0.27878261
H           1.46154080       -0.86514294        0.27878257
6
MD Time 2790.00
C          -0.89422096       -0.00000000       -0.00000000
C           0.89422095        0.00000000        0.00000000
H          -1.45419694        0.86970309        0.27280356
H          -1.45419692       -0.86970313       -0.27280352
H           1.45419696        0.86970305       -0.27280372
H           1.45419695       -0.86970306        0.27280367
6
MD Time 2800.00
C          -0.88691515       -0.00000000       -0.00000000
C           0.88691515        0.00000000        0.00000000
H          -1.44695281        0.87491384        0.26696719
H          -1.44695279       -0.87491387       -0.26696713
H           1.44695283        0.87491379       -0.26696734
H           1.44695282       -0.87491380        0.26696729
6
MD Time 2810.00
C          -0.87932937       -0.00000000       -0.00000000
C           0.87932936        0.00000000        0.00000000
H          -1.43978211        0.88069735        0.26126623
H          -1.43978209       -0.88069739       -0.26126617
H           1.43978213        0.88069731       -0.26126637
H           1.43978212       -0.88069732        0.26126632
6
MD Time 2820.00
C          -0.87147763       -0.00000000       -0.00000000
C           0.87147763        0.00000000        0.00000000
H          -1.43264998        0.88696018        0.25568977
H          -1.43264996       -0.88696022       -0.25568971
H           1.43265000        0.88696014       -0.25568991
H           1.43264999       -0.88696015        0.25568986
6
MD Time 2830.00
C          -0.86337631       -0.00000000       -0.00000000
C           0.86337631        0.00000000        0.00000000
H          -1.42551489        0.89359640        0.25022423
H          -1.42551487       -0.89359644       -0.25022416
H           1.42551491        0.89359636       -0.25022436
H           1.42551490       -0.89359637        0.25022430
6
MD Time 2840.00
C          -0.85504397        0.00000000       -0.00000000
C           0.85504396        0.00000000        0.00000000
H          -1.41833062        0.90049102        0.24485450
H          -1.41833060       -0.90049106       -0.24485443
H           1.41833065        0.90049098       -0.24485463
H           1.41833063       -0.90049100        0.24485457
6
MD Time 2850.00
C          -0.84650110        0.00000000       -0.00000000
C           0.84650109        0.00000000        0.00000000
H          -1.41104836        0.90752354        0.23956505
H          -1.41104834       -0.90752359       -0.23956497
H           1.41104838        0.90752351       -0.23956517
H           1.41104837       -0.90752352        0.23956510
6
MD Time 2860.00
C          -0.83777001        0.00000000       -0.00000000
C           0.83777000        0.00000000        0.00000000
H          -1.40361865        0.91457134        0.23434081
H          -1.40361863       -0.91457139       -0.23434073
H           1.40361868        0.91457131       -0.23434092
H           1.40361866       -0.91457132        0.23434086
6
MD Time 2870.00
C          -0.82887465        0.00000000       -0.00000000
C           0.82887464        0.00000000        0.00000000
H          -1.39599322        0.92151286        0.22916804
H          -1.39599320       -0.92151291       -0.22916795
H           1.39599325        0.92151283       -0.22916814
H           1.39599323       -0.92151285        0.22916808
6
MD Time 2880.00
C          -0.81984049        0.00000000       -0.00000000
C           0.81984049        0.00000000        0.00000000
H          -1.38812661        0.92823047        0.22403490
H          -1.38812659       -0.92823052       -0.22403481
H           1.38812664        0.92823045       -0.22403500
H           1.38812661       -0.92823046        0.22403493
6
MD Time 2890.00
C          -0.81069449        0.00000000       -0.00000000
C           0.81069449        0.00000000        0.00000000
H          -1.37997754        0.93461293        0.21893197
H          -1.37997752       -0.93461298       -0.21893188
H           1.37997757        0.93461291       -0.21893206
H           1.37997755       -0.93461292        0.21893199
6
MD Time 2900.00
C          -0.80146504        0.00000000       -0.00000000
C           0.80146504        0.00000000        0.00000000
H          -1.37151013        0.94055748        0.21385256
H          -1.37151010       -0.94055753       -0.21385247
H           1.37151015        0.94055746       -0.21385264
H           1.37151013       -0.94055748        0.21385257
6
MD Time 2910.00
C          -0.79218197        0.00000000       -0.00000000
C           0.79218197        0.00000000        0.00000000
H          -1.36269478        0.94597153        0.20879294
H          -1.36269476       -0.94597158       -0.20879284
H           1.36269481        0.94597151       -0.20879300
H           1.36269479       -0.94597153        0.20879293
6
MD Time 2920.00
C          -0.78287658        0.00000000       -0.00000000
C           0.78287658        0.00000000        0.00000000
H          -1.35350905        0.95077402        0.20375240
H          -1.35350902       -0.95077406       -0.20375230
H           1.35350907        0.95077401       -0.20375246
H           1.35350905       -0.95077402        0.20375239
6
MD Time 2930.00
C          -0.77358167        0.00000000       -0.00000000
C           0.77358167        0.00000000        0.00000000
H          -1.34393816        0.95489649        0.19873338
H          -1.34393813       -0.95489653       -0.19873327
H           1.34393819        0.95489647       -0.19873342
H           1.34393816       -0.95489649        0.19873335
6
MD Time 2940.00
C          -0.76433158        0.00000000       -0.00000000
C           0.76433158        0.00000000        0.00000000
H          -1.33397559        0.95828390        0.19374131
H          -1.33397556       -0.95828394       -0.19374121
H           1.33397561        0.95828389       -0.19374135
H           1.33397558       -0.95828391        0.19374128
6
MD Time 2950.00
C          -0.75516219        0.00000000       -0.00000000
C           0.75516219        0.00000000        0.00000000
H          -1.32362339        0.96089530        0.18878466
H          -1.32362336       -0.96089534       -0.18878456
H           1.32362341        0.96089529       -0.18878469
H           1.32362339       -0.96089531        0.18878462
6
MD Time 2960.00
C          -0.74611094        0.00000000       -0.00000000
C           0.74611093        0.00000000        0.00000000
H          -1.31289259        0.96270430        0.18387477
H          -1.31289256       -0.96270434       -0.18387467
H           1.31289261        0.96270429       -0.18387479
H           1.31289258       -0.96270431        0.18387472
6
MD Time 2970.00
C          -0.73721673        0.00000000       -0.00000000
C           0.73721673        0.00000000       -0.00000000
H          -1.30180341        0.96369950        0.17902575
H          -1.30180338       -0.96369954       -0.17902564
H           1.30180342        0.96369950       -0.17902576
H           1.30180339       -0.96369952        0.17902569
6
MD Time 2980.00
C          -0.72851986        0.00000000       -0.00000000
C           0.72851986        0.00000000       -0.00000000
H          -1.29038550        0.96388482        0.17425434
H          -1.29038547       -0.96388485       -0.17425424
H           1.29038552        0.96388481       -0.17425434
H           1.29038549       -0.96388484        0.17425428
6
MD Time 2990.00
C          -0.72006182        0.00000000       -0.00000000
C           0.72006182        0.00000000       -0.00000000
H          -1.27867817        0.96327971        0.16957980
H          -1.27867814       -0.96327975       -0.16957970
H           1.27867818        0.96327971       -0.16957979
H           1.27867815       -0.96327973        0.16957972
