6
MD Time 0.00
C          -1.00424993        0.00000000        0.00000000
C           1.00424993        0.00000000        0.00000000
H          -1.57974221        0.85087473        0.35244385
H          -1.57974221       -0.85087473       -0.35244385
H           1.57974221        0.85087473       -0.35244385
H           1.57974221       -0.85087473        0.35244385
6
MD Time 10.00
C          -1.00411111       -0.00000000        0.00000000
C           1.00411111       -0.00000000       -0.00000000
H          -1.57962214        0.85108217        0.35238883
H          -1.57962214       -0.85108217       -0.35238883
H           1.57962214        0.85108217       -0.35238883
H           1.57962214       -0.85108217        0.35238883
6
MD Time 20.00
C          -1.00369481       -0.00000000        0.00000000
C           1.00369481       -0.00000000       -0.00000000
H          -1.57926051        0.85170134        0.35222244
H          -1.57926051       -0.85170134       -0.35222244
H           1.57926051        0.85170134       -0.35222244
H           1.57926051       -0.85170134        0.35222244
6
MD Time 30.00
C          -1.00300149       -0.00000000        0.00000000
C           1.00300149       -0.00000000       -0.00000000
H          -1.57865307        0.85272290        0.35194069
H          -1.57865307       -0.85272290       -0.35194069
H           1.57865307        0.85272290       -0.35194069
H           1.57865307       -0.85272290        0.35194069
6
MD Time 40.00
C          -1.00203189       -0.00000000        0.00000000
C           1.00203189       -0.00000000       -0.00000000
H          -1.57779294        0.85413154        0.35153705
H          -1.57779294       -0.85413154       -0.35153705
H           1.57779294        0.85413154       -0.35153705
H           1.57779294       -0.85413154        0.35153705
6
MD Time 50.00
C          -1.00078697       -0.00000000        0.00000000
C           1.00078697       -0.00000000       -0.00000000
H          -1.57667081        0.85590637        0.35100266
H          -1.57667081       -0.85590637       -0.35100266
H           1.57667081        0.85590637       -0.35100266
H           1.57667081       -0.85590637        0.35100266
6
MD Time 60.00
C          -0.99926789       -0.00000000        0.00000000
C           0.99926789       -0.00000000       -0.00000000
H          -1.57527528        0.85802147        0.35032653
H          -1.57527528       -0.85802147       -0.35032653
H           1.57527528        0.85802147       -0.35032653
H           1.57527528       -0.85802147        0.35032653
6
MD Time 70.00
C          -0.99747593       -0.00000000        0.00000000
C           0.99747593       -0.00000000       -0.00000000
H          -1.57359325        0.86044651        0.34949583
H          -1.57359325       -0.86044651       -0.34949583
H           1.57359325        0.86044651       -0.34949583
H           1.57359325       -0.86044651        0.34949583
6
MD Time 80.00
C          -0.99541240       -0.00000000        0.00000000
C           0.99541240       -0.00000000       -0.00000000
H          -1.57161034        0.86314749        0.34849627
H          -1.57161034       -0.86314749       -0.34849627
H           1.57161034        0.86314749       -0.34849627
H           1.57161034       -0.86314749        0.34849627
6
MD Time 90.00
C          -0.99307861       -0.00000000        0.00000000
C           0.99307861       -0.00000000       -0.00000000
H          -1.56931138        0.86608750        0.34731238
H          -1.56931138       -0.86608750       -0.34731238
H           1.56931138        0.86608750       -0.34731238
H           1.56931138       -0.86608750        0.34731238
6
MD Time 100.00
C          -0.99047573       -0.00000000        0.00000000
C           0.99047573       -0.00000000       -0.00000000
H          -1.56668088        0.86922755        0.34592790
H          -1.56668088       -0.86922755       -0.34592790
H           1.56668088        0.86922755       -0.34592791
H           1.56668088       -0.86922755        0.34592791
6
MD Time 110.00
C          -0.98760476       -0.00000000        0.00000000
C           0.98760476       -0.00000000       -0.00000000
H          -1.56370349        0.87252740        0.34432617
H          -1.56370349       -0.87252740       -0.34432617
H           1.56370349        0.87252740       -0.34432617
H           1.56370349       -0.87252740        0.34432617
6
MD Time 120.00
C          -0.98446645       -0.00000000        0.00000000
C           0.98446645       -0.00000000       -0.00000000
H          -1.56036448        0.87594636        0.34249040
H          -1.56036448       -0.87594636       -0.34249040
H           1.56036448        0.87594636       -0.34249040
H           1.56036448       -0.87594636        0.34249040
6
MD Time 130.00
C          -0.98106119       -0.00000000        0.00000000
C           0.98106119       -0.00000000       -0.00000000
H          -1.55665017        0.87944408        0.34040407
H          -1.55665017       -0.87944408       -0.34040407
H           1.55665017        0.87944408       -0.34040407
H           1.55665017       -0.87944408        0.34040407
6
MD Time 140.00
C          -0.97738901       -0.00000000        0.00000000
C           0.97738901       -0.00000000       -0.00000000
H          -1.55254829        0.88298123        0.33805119
H          -1.55254829       -0.88298123       -0.33805120
H           1.55254829        0.88298123       -0.33805120
H           1.55254829       -0.88298123        0.33805120
6
MD Time 150.00
C          -0.97344949       -0.00000000        0.00000000
C           0.97344949       -0.00000000       -0.00000000
H          -1.54804834        0.88652022        0.33541658
H          -1.54804834       -0.88652022       -0.33541658
H           1.54804834        0.88652022       -0.33541658
H           1.54804834       -0.88652022        0.33541658
6
MD Time 160.00
C          -0.96924171       -0.00000000        0.00000000
C           0.96924171       -0.00000000       -0.00000000
H          -1.54314190        0.89002575        0.33248604
H          -1.54314190       -0.89002575       -0.33248604
H           1.54314190        0.89002575       -0.33248604
H           1.54314190       -0.89002575        0.33248605
6
MD Time 170.00
C          -0.96476425       -0.00000000        0.00000000
C           0.96476425       -0.00000000       -0.00000000
H          -1.53782283        0.89346535        0.32924663
H          -1.53782283       -0.89346534       -0.32924663
H           1.53782283        0.89346535       -0.32924664
H           1.53782283       -0.89346534        0.32924664
6
MD Time 180.00
C          -0.96001512       -0.00000000        0.00000000
C           0.96001512       -0.00000000       -0.00000000
H          -1.53208749        0.89680980        0.32568674
H          -1.53208749       -0.89680980       -0.32568674
H           1.53208749        0.89680981       -0.32568675
H           1.53208749       -0.89680980        0.32568675
6
MD Time 190.00
C          -0.95499180       -0.00000000        0.00000000
C           0.95499180       -0.00000000       -0.00000000
H          -1.52593489        0.90003354        0.32179623
H          -1.52593489       -0.90003354       -0.32179623
H           1.52593489        0.90003354       -0.32179623
H           1.52593489       -0.90003354        0.32179623
6
MD Time 200.00
C          -0.94969119       -0.00000000        0.00000000
C           0.94969119       -0.00000000       -0.00000000
H          -1.51936671        0.90311486        0.31756649
H          -1.51936671       -0.90311486       -0.31756649
H           1.51936671        0.90311486       -0.31756649
H           1.51936671       -0.90311486        0.31756649
6
MD Time 210.00
C          -0.94410965       -0.00000000        0.00000000
C           0.94410965       -0.00000000       -0.00000000
H          -1.51238743        0.90603620        0.31299048
H          -1.51238742       -0.90603620       -0.31299048
H           1.51238743        0.90603620       -0.31299048
H           1.51238742       -0.90603620        0.31299048
6
MD Time 220.00
C          -0.93824298       -0.00000000        0.00000000
C           0.93824298       -0.00000000       -0.00000000
H          -1.50500425        0.90878422        0.30806274
H          -1.50500424       -0.90878422       -0.30806275
H           1.50500424        0.90878422       -0.30806275
H           1.50500424       -0.90878422        0.30806275
6
MD Time 230.00
C          -0.93208650       -0.00000000        0.00000000
C           0.93208650       -0.00000000       -0.00000000
H          -1.49722708        0.91134987        0.30277937
H          -1.49722708       -0.91134987       -0.30277937
H           1.49722708        0.91134988       -0.30277937
H           1.49722708       -0.91134987        0.30277938
6
MD Time 240.00
C          -0.92563505       -0.00000000        0.00000000
C           0.92563505       -0.00000000       -0.00000000
H          -1.48906846        0.91372838        0.29713794
H          -1.48906846       -0.91372837       -0.29713795
H           1.48906846        0.91372838       -0.29713795
H           1.48906846       -0.91372837        0.29713795
6
MD Time 250.00
C          -0.91888304       -0.00000000        0.00000000
C           0.91888304       -0.00000000       -0.00000000
H          -1.48054339        0.91591911        0.29113746
H          -1.48054339       -0.91591911       -0.29113746
H           1.48054339        0.91591911       -0.29113746
H           1.48054339       -0.91591911        0.29113747
6
MD Time 260.00
C          -0.91182455       -0.00000000        0.00000000
C           0.91182455       -0.00000000       -0.00000000
H          -1.47166920        0.91792547        0.28477824
H          -1.47166920       -0.91792547       -0.28477824
H           1.47166920        0.91792547       -0.28477824
H           1.47166920       -0.91792547        0.28477825
6
MD Time 270.00
C          -0.90445339       -0.00000000        0.00000000
C           0.90445339       -0.00000000       -0.00000000
H          -1.46246534        0.91975457        0.27806181
H          -1.46246534       -0.91975457       -0.27806181
H           1.46246534        0.91975457       -0.27806181
H           1.46246534       -0.91975457        0.27806182
6
MD Time 280.00
C          -0.89676319       -0.00000000        0.00000000
C           0.89676319       -0.00000000       -0.00000000
H          -1.45295311        0.92141699        0.27099077
H          -1.45295311       -0.92141699       -0.27099077
H           1.45295311        0.92141699       -0.27099077
H           1.45295311       -0.92141699        0.27099078
6
MD Time 290.00
C          -0.88874752       -0.00000000        0.00000000
C           0.88874752       -0.00000000       -0.00000000
H          -1.44315544        0.92292631        0.26356866
H          -1.44315544       -0.92292631       -0.26356867
H           1.44315544        0.92292631       -0.26356866
H           1.44315544       -0.92292631        0.26356867
6
MD Time 300.00
C          -0.88040005       -0.00000000        0.00000000
C           0.88040005       -0.00000000       -0.00000000
H          -1.43309655        0.92429869        0.25579983
H          -1.43309654       -0.92429869       -0.25579984
H           1.43309655        0.92429869       -0.25579983
H           1.43309654       -0.92429869        0.25579984
6
MD Time 310.00
C          -0.87171465       -0.00000000        0.00000000
C           0.87171465       -0.00000000       -0.00000000
H          -1.42280160        0.92555230        0.24768928
H          -1.42280160       -0.92555230       -0.24768929
H           1.42280160        0.92555230       -0.24768928
H           1.42280160       -0.92555230        0.24768929
6
MD Time 320.00
C          -0.86268564       -0.00000000        0.00000000
C           0.86268564       -0.00000000       -0.00000000
H          -1.41229639        0.92670677        0.23924256
H          -1.41229639       -0.92670677       -0.23924257
H           1.41229639        0.92670677       -0.23924256
H           1.41229639       -0.92670677        0.23924257
6
MD Time 330.00
C          -0.85330797       -0.00000000        0.00000000
C           0.85330797       -0.00000000       -0.00000000
H          -1.40160693        0.92778246        0.23046561
H          -1.40160693       -0.92778246       -0.23046562
H           1.40160693        0.92778246       -0.23046561
H           1.40160692       -0.92778246        0.23046562
6
MD Time 340.00
C          -0.84357743       -0.00000000        0.00000000
C           0.84357743       -0.00000000       -0.00000000
H          -1.39075907        0.92879985        0.22136472
H          -1.39075907       -0.92879985       -0.22136473
H           1.39075907        0.92879985       -0.22136472
H           1.39075907       -0.92879985        0.22136473
6
MD Time 350.00
C          -0.83349099       -0.00000000        0.00000000
C           0.83349099       -0.00000000       -0.00000000
H          -1.37977811        0.92977875        0.21194640
H          -1.37977810       -0.92977875       -0.21194641
H           1.37977811        0.92977875       -0.21194640
H           1.37977810       -0.92977875        0.21194641
6
MD Time 360.00
C          -0.82304707       -0.00000000        0.00000000
C           0.82304707       -0.00000000       -0.00000000
H          -1.36868840        0.93073764        0.20221739
H          -1.36868839       -0.93073764       -0.20221740
H           1.36868840        0.93073764       -0.20221739
H           1.36868839       -0.93073764        0.20221741
6
MD Time 370.00
C          -0.81224591       -0.00000000        0.00000000
C           0.81224591       -0.00000000       -0.00000000
H          -1.35751297        0.93169290        0.19218466
H          -1.35751297       -0.93169290       -0.19218467
H           1.35751297        0.93169290       -0.19218466
H           1.35751297       -0.93169290        0.19218468
6
MD Time 380.00
C          -0.80108995       -0.00000000        0.00000000
C           0.80108995       -0.00000000       -0.00000000
H          -1.34627321        0.93265819        0.18185543
H          -1.34627321       -0.93265819       -0.18185544
H           1.34627321        0.93265819       -0.18185542
H           1.34627321       -0.93265819        0.18185544
6
MD Time 390.00
C          -0.78958433       -0.00000000        0.00000000
C           0.78958433       -0.00000000       -0.00000000
H          -1.33498855        0.93364386        0.17123727
H          -1.33498854       -0.93364386       -0.17123728
H           1.33498854        0.93364386       -0.17123727
H           1.33498854       -0.93364386        0.17123728
6
MD Time 400.00
C          -0.77773735       -0.00000000        0.00000000
C           0.77773735       -0.00000000       -0.00000000
H          -1.32367620        0.93465640        0.16033825
H          -1.32367619       -0.93465640       -0.16033827
H           1.32367619        0.93465640       -0.16033825
H           1.32367619       -0.93465640        0.16033827
6
MD Time 410.00
C          -0.76556109       -0.00000000        0.00000000
C           0.76556109       -0.00000000       -0.00000000
H          -1.31235102        0.93569811        0.14916712
H          -1.31235101       -0.93569811       -0.14916714
H           1.31235102        0.93569811       -0.14916712
H           1.31235101       -0.93569811        0.14916714
6
MD Time 420.00
C          -0.75307200       -0.00000000        0.00000000
C           0.75307200       -0.00000000       -0.00000000
H          -1.30102542        0.93676684        0.13773349
H          -1.30102541       -0.93676684       -0.13773351
H           1.30102542        0.93676684       -0.13773348
H           1.30102541       -0.93676684        0.13773351
6
MD Time 430.00
C          -0.74029166       -0.00000000        0.00000000
C           0.74029166       -0.00000000       -0.00000000
H          -1.28970934        0.93785592        0.12604810
H          -1.28970934       -0.93785591       -0.12604812
H           1.28970934        0.93785592       -0.12604809
H           1.28970934       -0.93785592        0.12604812
6
MD Time 440.00
C          -0.72724757       -0.00000000        0.00000000
C           0.72724757       -0.00000000       -0.00000000
H          -1.27841038        0.93895424        0.11412307
H          -1.27841037       -0.93895424       -0.11412310
H           1.27841037        0.93895424       -0.11412307
H           1.27841037       -0.93895424        0.11412310
6
MD Time 450.00
C          -0.71397402       -0.00000000        0.00000000
C           0.71397402        0.00000000       -0.00000000
H          -1.26713397        0.94004654        0.10197220
H          -1.26713397       -0.94004654       -0.10197222
H           1.26713397        0.94004654       -0.10197219
H           1.26713397       -0.94004654        0.10197222
6
MD Time 460.00
C          -0.70051307       -0.00000000        0.00000000
C           0.70051307        0.00000000       -0.00000000
H          -1.25588377        0.94111384        0.08961114
H          -1.25588376       -0.94111384       -0.08961117
H           1.25588376        0.94111384       -0.08961113
H           1.25588376       -0.94111384        0.08961116
6
MD Time 470.00
C          -0.68691559       -0.00000000        0.00000000
C           0.68691559        0.00000000       -0.00000000
H          -1.24466199        0.94213404        0.07705773
H          -1.24466199       -0.94213404       -0.07705776
H           1.24466199        0.94213404       -0.07705772
H           1.24466199       -0.94213404        0.07705776
6
MD Time 480.00
C          -0.67324231       -0.00000000        0.00000000
C           0.67324231        0.00000000       -0.00000000
H          -1.23347004        0.94308269        0.06433212
H          -1.23347003       -0.94308269       -0.06433215
H           1.23347003        0.94308269       -0.06433210
H           1.23347003       -0.94308269        0.06433214
6
MD Time 490.00
C          -0.65956497       -0.00000000        0.00000000
C           0.65956497        0.00000000       -0.00000000
H          -1.22230905        0.94393384        0.05145693
H          -1.22230904       -0.94393384       -0.05145696
H           1.22230905        0.94393385       -0.05145691
H           1.22230904       -0.94393385        0.05145695
6
MD Time 500.00
C          -0.64596734       -0.00000000        0.00000000
C           0.64596734        0.00000000       -0.00000000
H          -1.21118069        0.94466108        0.03845735
H          -1.21118068       -0.94466108       -0.03845739
H           1.21118068        0.94466108       -0.03845734
H           1.21118068       -0.94466108        0.03845738
6
MD Time 510.00
C          -0.63254608       -0.00000000        0.00000000
C           0.63254608        0.00000000       -0.00000000
H          -1.20008789        0.94523850        0.02536114
H          -1.20008788       -0.94523850       -0.02536118
H           1.20008789        0.94523851       -0.02536112
H           1.20008788       -0.94523850        0.02536117
6
MD Time 520.00
C          -0.61941138       -0.00000000        0.00000000
C           0.61941138        0.00000000       -0.00000000
H          -1.18903574        0.94564191        0.01219853
H          -1.18903573       -0.94564191       -0.01219857
H           1.18903573        0.94564191       -0.01219851
H           1.18903573       -0.94564191        0.01219856
6
MD Time 530.00
C          -0.60668707       -0.00000000        0.00000000
C           0.60668707        0.00000000       -0.00000000
H          -1.17803232        0.94584986       -0.00099790
H          -1.17803231       -0.94584986        0.00099786
H           1.17803232        0.94584986        0.00099792
H           1.17803231       -0.94584986       -0.00099787
6
MD Time 540.00
C          -0.59451005       -0.00000000        0.00000000
C           0.59451005        0.00000000       -0.00000000
H          -1.16708966        0.94584484       -0.01419351
H          -1.16708965       -0.94584484        0.01419347
H           1.16708966        0.94584484        0.01419353
H           1.16708965       -0.94584484       -0.01419348
6
MD Time 550.00
C          -0.58302887       -0.00000000        0.00000000
C           0.58302887        0.00000000       -0.00000000
H          -1.15622455        0.94561433       -0.02735187
H          -1.15622454       -0.94561433        0.02735183
H           1.15622455        0.94561433        0.02735190
H           1.15622454       -0.94561433       -0.02735184
6
MD Time 560.00
C          -0.57240103       -0.00000000        0.00000000
C           0.57240103        0.00000000       -0.00000000
H          -1.14545941        0.94515190       -0.04043525
H          -1.14545940       -0.94515190        0.04043521
H           1.14545940        0.94515190        0.04043528
H           1.14545940       -0.94515190       -0.04043522
6
MD Time 570.00
C          -0.56278901       -0.00000000        0.00000000
C           0.56278901        0.00000000       -0.00000000
H          -1.13482299        0.94445822       -0.05340503
H          -1.13482298       -0.94445822        0.05340499
H           1.13482298        0.94445822        0.05340506
H           1.13482298       -0.94445822       -0.05340500
6
MD Time 580.00
C          -0.55435482       -0.00000000        0.00000000
C           0.55435482        0.00000000       -0.00000000
H          -1.12435103        0.94354199       -0.06622231
H          -1.12435102       -0.94354199        0.06622226
H           1.12435103        0.94354199        0.06622234
H           1.12435102       -0.94354199       -0.06622227
6
MD Time 590.00
C          -0.54725320       -0.00000000        0.00000000
C           0.54725320        0.00000000       -0.00000000
H          -1.11408671        0.94242080       -0.07884847
H          -1.11408670       -0.94242081        0.07884842
H           1.11408670        0.94242080        0.07884850
H           1.11408670       -0.94242081       -0.07884844
6
MD Time 600.00
C          -0.54162385       -0.00000000        0.00000000
C           0.54162385        0.00000000       -0.00000000
H          -1.10408085        0.94112188       -0.09124588
H          -1.10408084       -0.94112188        0.09124583
H           1.10408084        0.94112188        0.09124592
H           1.10408084       -0.94112188       -0.09124585
6
MD Time 610.00
C          -0.53758326       -0.00000000        0.00000000
C           0.53758326        0.00000000       -0.00000000
H          -1.09439199        0.93968260       -0.10337855
H          -1.09439198       -0.93968260        0.10337850
H           1.09439198        0.93968260        0.10337858
H           1.09439198       -0.93968260       -0.10337851
6
MD Time 620.00
C          -0.53521705       -0.00000000        0.00000000
C           0.53521705        0.00000000       -0.00000000
H          -1.08508602        0.93815083       -0.11521283
H          -1.08508601       -0.93815084        0.11521277
H           1.08508601        0.93815083        0.11521286
H           1.08508601       -0.93815084       -0.11521279
6
MD Time 630.00
C          -0.53457381       -0.00000000        0.00000000
C           0.53457381        0.00000000       -0.00000000
H          -1.07623554        0.93658489       -0.12671811
H          -1.07623554       -0.93658489        0.12671806
H           1.07623553        0.93658489        0.12671815
H           1.07623553       -0.93658489       -0.12671808
6
MD Time 640.00
C          -0.53566128       -0.00000000        0.00000000
C           0.53566128        0.00000000       -0.00000000
H          -1.06791890        0.93505301       -0.13786749
H          -1.06791889       -0.93505302        0.13786743
H           1.06791889        0.93505302        0.13786753
H           1.06791889       -0.93505302       -0.13786746
6
MD Time 650.00
C          -0.53844552       -0.00000000       -0.00000000
C           0.53844552        0.00000000       -0.00000000
H          -1.06021868        0.93363242       -0.14863830
H          -1.06021867       -0.93363243        0.14863824
H           1.06021867        0.93363242        0.14863834
H           1.06021867       -0.93363243       -0.14863826
6
MD Time 660.00
C          -0.54285322       -0.00000000       -0.00000000
C           0.54285323        0.00000000       -0.00000000
H          -1.05322000        0.93240760       -0.15901252
H          -1.05321999       -0.93240762        0.15901246
H           1.05321999        0.93240761        0.15901256
H           1.05321999       -0.93240761       -0.15901248
6
MD Time 670.00
C          -0.54877675       -0.00000000       -0.00000000
C           0.54877675        0.00000000       -0.00000000
H          -1.04700828        0.93146805       -0.16897706
H          -1.04700828       -0.93146806        0.16897700
H           1.04700827        0.93146805        0.16897710
H           1.04700827       -0.93146806       -0.16897702
6
MD Time 680.00
C          -0.55608125       -0.00000000       -0.00000000
C           0.55608126        0.00000000       -0.00000000
H          -1.04166694        0.93090524       -0.17852367
H          -1.04166693       -0.93090525        0.17852361
H           1.04166693        0.93090524        0.17852371
H           1.04166693       -0.93090525       -0.17852363
6
MD Time 690.00
C          -0.56461285       -0.00000000       -0.00000000
C           0.56461285        0.00000000       -0.00000000
H          -1.03727476        0.93080909       -0.18764864
H          -1.03727476       -0.93080911        0.18764858
H           1.03727475        0.93080909        0.18764869
H           1.03727475       -0.93080910       -0.18764861
6
MD Time 700.00
C          -0.57420692       -0.00000000       -0.00000000
C           0.57420692        0.00000000       -0.00000000
H          -1.03390339        0.93126393       -0.19635219
H          -1.03390338       -0.93126394        0.19635213
H           1.03390338        0.93126393        0.19635224
H           1.03390338       -0.93126394       -0.19635216
6
MD Time 710.00
C          -0.58469575       -0.00000000       -0.00000000
C           0.58469575        0.00000000       -0.00000000
H          -1.03161489        0.93234416       -0.20463752
H          -1.03161489       -0.93234418        0.20463745
H           1.03161488        0.93234416        0.20463757
H           1.03161488       -0.93234418       -0.20463748
6
MD Time 720.00
C          -0.59591495       -0.00000000       -0.00000000
C           0.59591495        0.00000000        0.00000000
H          -1.03045973        0.93411013       -0.21250963
H          -1.03045973       -0.93411015        0.21250957
H           1.03045972        0.93411013        0.21250968
H           1.03045972       -0.93411014       -0.21250960
6
MD Time 730.00
C          -0.60770842       -0.00000000       -0.00000000
C           0.60770842        0.00000000        0.00000000
H          -1.03047514        0.93660417       -0.21997407
H          -1.03047513       -0.93660419        0.21997401
H           1.03047513        0.93660417        0.21997413
H           1.03047513       -0.93660418       -0.21997404
6
MD Time 740.00
C          -0.61993186       -0.00000000       -0.00000000
C           0.61993186        0.00000000        0.00000000
H          -1.03168413        0.93984753       -0.22703557
H          -1.03168412       -0.93984755        0.22703550
H           1.03168412        0.93984753        0.22703563
H           1.03168412       -0.93984754       -0.22703554
6
MD Time 750.00
C          -0.63245480       -0.00000000       -0.00000000
C           0.63245481        0.00000000        0.00000000
H          -1.03409516        0.94383814       -0.23369684
H          -1.03409515       -0.94383816        0.23369677
H           1.03409514        0.94383814        0.23369690
H           1.03409515       -0.94383815       -0.23369681
6
MD Time 760.00
C          -0.64516165       -0.00000000       -0.00000000
C           0.64516165        0.00000000        0.00000000
H          -1.03770241        0.94854971       -0.23995763
H          -1.03770241       -0.94854973        0.23995756
H           1.03770240        0.94854971        0.23995769
H           1.03770241       -0.94854972       -0.23995759
6
MD Time 770.00
C          -0.65795164       -0.00000000       -0.00000000
C           0.65795164        0.00000000        0.00000000
H          -1.04248671        0.95393197       -0.24581403
H          -1.04248671       -0.95393199        0.24581396
H           1.04248670        0.95393197        0.24581409
H           1.04248671       -0.95393198       -0.24581399
6
MD Time 780.00
C          -0.67073829       -0.00000000       -0.00000000
C           0.67073829        0.00000000        0.00000000
H          -1.04841682        0.95991224       -0.25125824
H          -1.04841682       -0.95991226        0.25125817
H           1.04841681        0.95991223        0.25125830
H           1.04841681       -0.95991225       -0.25125821
6
MD Time 790.00
C          -0.68344836       -0.00000000       -0.00000000
C           0.68344836        0.00000000        0.00000000
H          -1.05545110        0.96639796       -0.25627866
H          -1.05545109       -0.96639799        0.25627859
H           1.05545108        0.96639796        0.25627872
H           1.05545109       -0.96639798       -0.25627863
6
MD Time 800.00
C          -0.69602055       -0.00000000       -0.00000000
C           0.69602055        0.00000000        0.00000000
H          -1.06353929        0.97328012       -0.26086027
H          -1.06353929       -0.97328014        0.26086019
H           1.06353928        0.97328012        0.26086033
H           1.06353929       -0.97328013       -0.26086023
6
MD Time 810.00
C          -0.70840417       -0.00000000       -0.00000001
C           0.70840417        0.00000000        0.00000000
H          -1.07262439        0.98043706       -0.26498532
H          -1.07262439       -0.98043708        0.26498524
H           1.07262438        0.98043705        0.26498538
H           1.07262438       -0.98043707       -0.26498528
6
MD Time 820.00
C          -0.72055777       -0.00000000       -0.00000001
C           0.72055777        0.00000000        0.00000000
H          -1.08264429        0.98773853       -0.26863416
H          -1.08264429       -0.98773856        0.26863409
H           1.08264428        0.98773853        0.26863423
H           1.08264429       -0.98773854       -0.26863413
6
MD Time 830.00
C          -0.73244783       -0.00000000       -0.00000001
C           0.73244783        0.00000000        0.00000000
H          -1.09353341        0.99504974       -0.27178616
H          -1.09353341       -0.99504976        0.27178608
H           1.09353340        0.99504973        0.27178622
H           1.09353340       -0.99504975       -0.27178612
6
MD Time 840.00
C          -0.74404758       -0.00000000       -0.00000001
C           0.74404758        0.00000000        0.00000000
H          -1.10522397        1.00223496       -0.27442054
H          -1.10522397       -1.00223498        0.27442046
H           1.10522396        1.00223495        0.27442061
H           1.10522396       -1.00223497       -0.27442051
6
MD Time 850.00
C          -0.75533598       -0.00000000       -0.00000001
C           0.75533598        0.00000000        0.00000000
H          -1.11764715        1.00916089       -0.27651731
H          -1.11764714       -1.00916091        0.27651723
H           1.11764714        1.00916088        0.27651738
H           1.11764714       -1.00916090       -0.27651728
6
MD Time 860.00
C          -0.76629675       -0.00000000       -0.00000001
C           0.76629676        0.00000000        0.00000001
H          -1.13073397        1.01569942       -0.27805792
H          -1.13073396       -1.01569945        0.27805783
H           1.13073395        1.01569941        0.27805799
H           1.13073396       -1.01569943       -0.27805788
6
MD Time 870.00
C          -0.77691765       -0.00000000       -0.00000001
C           0.77691765        0.00000000        0.00000001
H          -1.14441597        1.02172993       -0.27902592
H          -1.14441597       -1.02172996        0.27902584
H           1.14441596        1.02172992        0.27902599
H           1.14441597       -1.02172994       -0.27902589
6
MD Time 880.00
C          -0.78718971       -0.00000000       -0.00000001
C           0.78718971        0.00000000        0.00000001
H          -1.15862579        1.02714108       -0.27940747
H          -1.15862579       -1.02714110        0.27940738
H           1.15862578        1.02714107        0.27940754
H           1.15862579       -1.02714108       -0.27940744
6
MD Time 890.00
C          -0.79710674       -0.00000000       -0.00000001
C           0.79710674        0.00000000        0.00000001
H          -1.17329753        1.03183216       -0.27919167
H          -1.17329753       -1.03183219        0.27919158
H           1.17329752        1.03183215        0.27919175
H           1.17329752       -1.03183217       -0.27919164
6
MD Time 900.00
C          -0.80666477       -0.00000000       -0.00000001
C           0.80666477        0.00000000        0.00000001
H          -1.18836705        1.03571414       -0.27837086
H          -1.18836704       -1.03571417        0.27837078
H           1.18836703        1.03571413        0.27837094
H           1.18836704       -1.03571415       -0.27837083
6
MD Time 910.00
C          -0.81586170       -0.00000000       -0.00000001
C           0.81586170        0.00000000        0.00000001
H          -1.20377220        1.03871030       -0.27694077
H          -1.20377220       -1.03871032        0.27694069
H           1.20377219        1.03871029        0.27694085
H           1.20377220       -1.03871030       -0.27694074
6
MD Time 920.00
C          -0.82469688       -0.00000000       -0.00000001
C           0.82469689        0.00000000        0.00000001
H          -1.21945303        1.04075670       -0.27490062
H          -1.21945303       -1.04075672        0.27490053
H           1.21945302        1.04075668        0.27490070
H           1.21945303       -1.04075670       -0.27490059
6
MD Time 930.00
C          -0.83317087       -0.00000000       -0.00000001
C           0.83317087        0.00000000        0.00000001
H          -1.23535189        1.04180248       -0.27225313
H          -1.23535188       -1.04180251        0.27225304
H           1.23535188        1.04180247        0.27225321
H           1.23535188       -1.04180248       -0.27225310
6
MD Time 940.00
C          -0.84128512       -0.00000000       -0.00000001
C           0.84128512        0.00000000        0.00000001
H          -1.25141358        1.04181002       -0.26900452
H          -1.25141357       -1.04181005        0.26900443
H           1.25141357        1.04181001        0.26900460
H           1.25141357       -1.04181002       -0.26900449
6
MD Time 950.00
C          -0.84904176       -0.00000000       -0.00000001
C           0.84904176        0.00000000        0.00000001
H          -1.26758551        1.04075500       -0.26516443
H          -1.26758550       -1.04075502        0.26516434
H           1.26758549        1.04075499        0.26516452
H           1.26758550       -1.04075500       -0.26516440
6
MD Time 960.00
C          -0.85644343       -0.00000000       -0.00000001
C           0.85644343        0.00000000        0.00000001
H          -1.28381782        1.03862641       -0.26074584
H          -1.28381782       -1.03862643        0.26074575
H           1.28381781        1.03862639        0.26074593
H           1.28381782       -1.03862640       -0.26074581
6
MD Time 970.00
C          -0.86349303       -0.00000000       -0.00000001
C           0.86349303        0.00000000        0.00000001
H          -1.30006359        1.03542656       -0.25576493
H          -1.30006358       -1.03542658        0.25576483
H           1.30006358        1.03542654        0.25576501
H           1.30006358       -1.03542655       -0.25576490
6
MD Time 980.00
C          -0.87019363       -0.00000000       -0.00000001
C           0.87019363        0.00000000        0.00000001
H          -1.31627897        1.03117104       -0.25024092
H          -1.31627896       -1.03117106        0.25024083
H           1.31627896        1.03117102        0.25024101
H           1.31627896       -1.03117103       -0.25024089
6
MD Time 990.00
C          -0.87654824       -0.00000000       -0.00000001
C           0.87654824        0.00000000        0.00000001
H          -1.33242343        1.02588862       -0.24419593
H          -1.33242342       -1.02588864        0.24419584
H           1.33242342        1.02588861        0.24419602
H           1.33242343       -1.02588862       -0.24419590
6
MD Time 1000.00
C          -0.88255975       -0.00000000       -0.00000001
C           0.88255975        0.00000000        0.00000001
H          -1.34845997        1.01962118       -0.23765475
H          -1.34845996       -1.01962120        0.23765465
H           1.34845996        1.01962117        0.23765483
H           1.34845997       -1.01962117       -0.23765472
6
MD Time 1010.00
C          -0.88823074       -0.00000000       -0.00000001
C           0.88823074        0.00000000        0.00000001
H          -1.36435534        1.01242348       -0.23064458
H          -1.36435533       -1.01242350        0.23064448
H           1.36435533        1.01242347        0.23064467
H           1.36435534       -1.01242347       -0.23064455
6
MD Time 1020.00
C          -0.89356342       -0.00000000       -0.00000001
C           0.89356342        0.00000000        0.00000001
H          -1.38008026        1.00436291       -0.22319482
H          -1.38008025       -1.00436293        0.22319472
H           1.38008025        1.00436290        0.22319490
H           1.38008026       -1.00436291       -0.22319479
6
MD Time 1030.00
C          -0.89855950       -0.00000000       -0.00000001
C           0.89855950        0.00000000        0.00000001
H          -1.39560961        0.99551911       -0.21533669
H          -1.39560961       -0.99551913        0.21533659
H           1.39560960        0.99551910        0.21533678
H           1.39560961       -0.99551910       -0.21533666
6
MD Time 1040.00
C          -0.90322011       -0.00000000       -0.00000002
C           0.90322011        0.00000000        0.00000001
H          -1.41092259        0.98598333       -0.20710293
H          -1.41092258       -0.98598335        0.20710283
H           1.41092258        0.98598333        0.20710301
H           1.41092259       -0.98598333       -0.20710290
6
MD Time 1050.00
C          -0.90754577       -0.00000000       -0.00000002
C           0.90754577        0.00000000        0.00000001
H          -1.42600273        0.97585768       -0.19852733
H          -1.42600272       -0.97585769        0.19852723
H           1.42600272        0.97585767        0.19852742
H           1.42600272       -0.97585767       -0.19852730
6
MD Time 1060.00
C          -0.91153635       -0.00000000       -0.00000002
C           0.91153635        0.00000000        0.00000001
H          -1.44083785        0.96525396       -0.18964433
H          -1.44083784       -0.96525398        0.18964423
H           1.44083785        0.96525396        0.18964441
H           1.44083785       -0.96525396       -0.18964430
6
MD Time 1070.00
C          -0.91519106       -0.00000000       -0.00000002
C           0.91519106        0.00000000        0.00000002
H          -1.45541985        0.95429237       -0.18048846
H          -1.45541985       -0.95429238        0.18048836
H           1.45541985        0.95429236        0.18048854
H           1.45541986       -0.95429236       -0.18048843
6
MD Time 1080.00
C          -0.91850854       -0.00000000       -0.00000002
C           0.91850854        0.00000000        0.00000002
H          -1.46974426        0.94309962       -0.17109383
H          -1.46974425       -0.94309964        0.17109373
H           1.46974426        0.94309962        0.17109392
H           1.46974426       -0.94309962       -0.17109380
6
MD Time 1090.00
C          -0.92148689       -0.00000000       -0.00000002
C           0.92148689        0.00000000        0.00000002
H          -1.48380957        0.93180694       -0.16149356
H          -1.48380956       -0.93180696        0.16149345
H           1.48380956        0.93180694        0.16149364
H           1.48380957       -0.93180694       -0.16149353
6
MD Time 1100.00
C          -0.92412388       -0.00000000       -0.00000002
C           0.92412388        0.00000000        0.00000002
H          -1.49761635        0.92054752       -0.15171917
H          -1.49761634       -0.92054754        0.15171907
H           1.49761634        0.92054752        0.15171926
H           1.49761635       -0.92054752       -0.15171914
6
MD Time 1110.00
C          -0.92641709       -0.00000000       -0.00000002
C           0.92641709        0.00000000        0.00000002
H          -1.51116606        0.90945380       -0.14180010
H          -1.51116605       -0.90945382        0.14180000
H           1.51116606        0.90945380        0.14180018
H           1.51116606       -0.90945380       -0.14180007
6
MD Time 1120.00
C          -0.92836417       -0.00000000       -0.00000002
C           0.92836417        0.00000000        0.00000002
H          -1.52445964        0.89865448       -0.13176315
H          -1.52445964       -0.89865450        0.13176305
H           1.52445964        0.89865448        0.13176324
H           1.52445965       -0.89865447       -0.13176312
6
MD Time 1130.00
C          -0.92996308       -0.00000000       -0.00000002
C           0.92996308        0.00000000        0.00000002
H          -1.53749592        0.88827147       -0.12163217
H          -1.53749592       -0.88827149        0.12163207
H           1.53749592        0.88827147        0.12163225
H           1.53749593       -0.88827146       -0.12163214
6
MD Time 1140.00
C          -0.93121242       -0.00000000       -0.00000002
C           0.93121242        0.00000000        0.00000002
H          -1.55026990        0.87841694       -0.11142772
H          -1.55026989       -0.87841696        0.11142761
H           1.55026989        0.87841694        0.11142780
H           1.55026990       -0.87841693       -0.11142769
6
MD Time 1150.00
C          -0.93211168       -0.00000000       -0.00000002
C           0.93211168        0.00000000        0.00000002
H          -1.56277102        0.86919055       -0.10116702
H          -1.56277102       -0.86919057        0.10116692
H           1.56277102        0.86919055        0.10116710
H           1.56277103       -0.86919055       -0.10116699
6
MD Time 1160.00
C          -0.93266153       -0.00000000       -0.00000002
C           0.93266153        0.00000000        0.00000002
H          -1.57498168        0.86067720       -0.09086401
H          -1.57498167       -0.86067721        0.09086391
H           1.57498168        0.86067720        0.09086409
H           1.57498169       -0.86067719       -0.09086398
6
MD Time 1170.00
C          -0.93286404       -0.00000000       -0.00000002
C           0.93286404        0.00000000        0.00000002
H          -1.58687585        0.85294520       -0.08052956
H          -1.58687584       -0.85294522        0.08052946
H           1.58687585        0.85294520        0.08052965
H           1.58687585       -0.85294519       -0.08052954
6
MD Time 1180.00
C          -0.93272285       -0.00000000       -0.00000002
C           0.93272285        0.00000000        0.00000002
H          -1.59841822        0.84604529       -0.07017190
H          -1.59841821       -0.84604530        0.07017179
H           1.59841822        0.84604529        0.07017198
H           1.59841823       -0.84604528       -0.07017187
6
MD Time 1190.00
C          -0.93224319       -0.00000000       -0.00000002
C           0.93224319        0.00000000        0.00000002
H          -1.60956381        0.84001021       -0.05979707
H          -1.60956380       -0.84001023        0.05979697
H           1.60956381        0.84001022        0.05979716
H           1.60956382       -0.84001021       -0.05979705
6
MD Time 1200.00
C          -0.93143194       -0.00000000       -0.00000002
C           0.93143194        0.00000000        0.00000002
H          -1.62025808        0.83485512       -0.04940961
H          -1.62025807       -0.83485514        0.04940950
H           1.62025808        0.83485513        0.04940969
H           1.62025809       -0.83485512       -0.04940959
6
MD Time 1210.00
C          -0.93029747       -0.00000000       -0.00000002
C           0.93029747        0.00000000        0.00000002
H          -1.63043761        0.83057852       -0.03901307
H          -1.63043760       -0.83057854        0.03901297
H           1.63043761        0.83057853        0.03901316
H           1.63043762       -0.83057852       -0.03901305
6
MD Time 1220.00
C          -0.92884948       -0.00000000       -0.00000002
C           0.92884948        0.00000000        0.00000002
H          -1.64003127        0.82716379       -0.02861073
H          -1.64003127       -0.82716381        0.02861063
H           1.64003128        0.82716380        0.02861082
H           1.64003128       -0.82716379       -0.02861071
6
MD Time 1230.00
C          -0.92709873       -0.00000000       -0.00000002
C           0.92709873        0.00000000        0.00000002
H          -1.64896182        0.82458107       -0.01820608
H          -1.64896181       -0.82458109        0.01820598
H           1.64896182        0.82458108        0.01820617
H           1.64896183       -0.82458107       -0.01820607
6
MD Time 1240.00
C          -0.92505676       -0.00000000       -0.00000002
C           0.92505676        0.00000000        0.00000002
H          -1.65714769        0.82278934       -0.00780335
H          -1.65714768       -0.82278936        0.00780325
H           1.65714769        0.82278935        0.00780344
H           1.65714770       -0.82278934       -0.00780334
6
MD Time 1250.00
C          -0.92273557       -0.00000000       -0.00000002
C           0.92273557        0.00000000        0.00000002
H          -1.66450502        0.82173862        0.00259215
H          -1.66450501       -0.82173864       -0.00259225
H           1.66450502        0.82173863       -0.00259206
H           1.66450503       -0.82173861        0.00259216
6
MD Time 1260.00
C          -0.92014729       -0.00000000       -0.00000002
C           0.92014729        0.00000000        0.00000002
H          -1.67094965        0.82137209        0.01297373
H          -1.67094965       -0.82137210       -0.01297383
H           1.67094966        0.82137209       -0.01297363
H           1.67094967       -0.82137208        0.01297373
6
MD Time 1270.00
C          -0.91730386       -0.00000000       -0.00000002
C           0.91730386        0.00000000        0.00000003
H          -1.67639908        0.82162810        0.02333318
H          -1.67639907       -0.82162812       -0.02333328
H           1.67639908        0.82162811       -0.02333308
H           1.67639909       -0.82162809        0.02333318
6
MD Time 1280.00
C          -0.91421681       -0.00000000       -0.00000003
C           0.91421680        0.00000000        0.00000003
H          -1.68077418        0.82244202        0.03366067
H          -1.68077417       -0.82244203       -0.03366077
H           1.68077419        0.82244202       -0.03366057
H           1.68077420       -0.82244201        0.03366067
6
MD Time 1290.00
C          -0.91089693       -0.00000000       -0.00000003
C           0.91089693        0.00000000        0.00000003
H          -1.68400081        0.82374777        0.04394480
H          -1.68400080       -0.82374778       -0.04394490
H           1.68400082        0.82374777       -0.04394470
H           1.68400083       -0.82374776        0.04394480
6
MD Time 1300.00
C          -0.90735417       -0.00000000       -0.00000003
C           0.90735417        0.00000000        0.00000003
H          -1.68601108        0.82547922        0.05417263
H          -1.68601107       -0.82547923       -0.05417272
H           1.68601108        0.82547922       -0.05417253
H           1.68601109       -0.82547921        0.05417262
6
MD Time 1310.00
C          -0.90359741       -0.00000000       -0.00000003
C           0.90359740        0.00000000        0.00000003
H          -1.68674440        0.82757131        0.06432981
H          -1.68674439       -0.82757132       -0.06432991
H           1.68674441        0.82757132       -0.06432971
H           1.68674441       -0.82757130        0.06432980
6
MD Time 1320.00
C          -0.89963437       -0.00000000       -0.00000003
C           0.89963436        0.00000000        0.00000003
H          -1.68614836        0.82996101        0.07440077
H          -1.68614835       -0.82996102       -0.07440087
H           1.68614836        0.82996102       -0.07440067
H           1.68614837       -0.82996100        0.07440076
6
MD Time 1330.00
C          -0.89547154       -0.00000000       -0.00000003
C           0.89547154        0.00000000        0.00000003
H          -1.68417928        0.83258804        0.08436884
H          -1.68417927       -0.83258805       -0.08436894
H           1.68417929        0.83258805       -0.08436874
H           1.68417929       -0.83258803        0.08436883
6
MD Time 1340.00
C          -0.89111413       -0.00000000       -0.00000003
C           0.89111413        0.00000000        0.00000003
H          -1.68080269        0.83539555        0.09421649
H          -1.68080268       -0.83539556       -0.09421658
H           1.68080270        0.83539556       -0.09421639
H           1.68080270       -0.83539554        0.09421647
6
MD Time 1350.00
C          -0.88656602       -0.00000000       -0.00000003
C           0.88656601        0.00000000        0.00000003
H          -1.67599360        0.83833063        0.10392551
H          -1.67599359       -0.83833064       -0.10392560
H           1.67599361        0.83833064       -0.10392541
H           1.67599362       -0.83833062        0.10392549
6
MD Time 1360.00
C          -0.88182978       -0.00000000       -0.00000003
C           0.88182978        0.00000000        0.00000003
H          -1.66973669        0.84134474        0.11347721
H          -1.66973668       -0.84134475       -0.11347731
H           1.66973670        0.84134475       -0.11347711
H           1.66973671       -0.84134473        0.11347720
6
MD Time 1370.00
C          -0.87690669       -0.00000000       -0.00000003
C           0.87690669        0.00000000        0.00000003
H          -1.66202638        0.84439410        0.12285266
H          -1.66202636       -0.84439411       -0.12285275
H           1.66202639        0.84439412       -0.12285256
H           1.66202639       -0.84439409        0.12285264
6
MD Time 1380.00
C          -0.87179675       -0.00000000       -0.00000003
C           0.87179674        0.00000000        0.00000003
H          -1.65286685        0.84744007        0.13203282
H          -1.65286684       -0.84744008       -0.13203292
H           1.65286687        0.84744008       -0.13203272
H           1.65286687       -0.84744006        0.13203280
6
MD Time 1390.00
C          -0.86649871       -0.00000000       -0.00000003
C           0.86649870        0.00000000        0.00000003
H          -1.64227207        0.85044943        0.14099883
H          -1.64227206       -0.85044944       -0.14099892
H           1.64227208        0.85044944       -0.14099873
H           1.64227209       -0.85044942        0.14099881
6
MD Time 1400.00
C          -0.86101015       -0.00000000       -0.00000003
C           0.86101015        0.00000000        0.00000003
H          -1.63026567        0.85339475        0.14973214
H          -1.63026565       -0.85339476       -0.14973223
H           1.63026568        0.85339477       -0.14973205
H           1.63026569       -0.85339474        0.14973212
6
MD Time 1410.00
C          -0.85532751       -0.00000000       -0.00000003
C           0.85532751        0.00000000        0.00000003
H          -1.61688090        0.85625466        0.15821474
H          -1.61688088       -0.85625467       -0.15821483
H           1.61688091        0.85625468       -0.15821464
H           1.61688092       -0.85625465        0.15821472
6
MD Time 1420.00
C          -0.84944618       -0.00000000       -0.00000003
C           0.84944618        0.00000000        0.00000003
H          -1.60216049        0.85901415        0.16642931
H          -1.60216047       -0.85901416       -0.16642940
H           1.60216050        0.85901417       -0.16642922
H           1.60216050       -0.85901414        0.16642930
6
MD Time 1430.00
C          -0.84336056       -0.00000000       -0.00000003
C           0.84336056        0.00000000        0.00000003
H          -1.58615649        0.86166485        0.17435947
H          -1.58615647       -0.86166486       -0.17435956
H           1.58615651        0.86166486       -0.17435938
H           1.58615651       -0.86166484        0.17435945
6
MD Time 1440.00
C          -0.83706418       -0.00000000       -0.00000003
C           0.83706418        0.00000000        0.00000003
H          -1.56893008        0.86420524        0.18198985
H          -1.56893006       -0.86420525       -0.18198994
H           1.56893009        0.86420526       -0.18198977
H           1.56893009       -0.86420524        0.18198984
6
MD Time 1450.00
C          -0.83054982       -0.00000000       -0.00000003
C           0.83054981        0.00000000        0.00000003
H          -1.55055124        0.86664088        0.18930632
H          -1.55055122       -0.86664088       -0.18930641
H           1.55055126        0.86664089       -0.18930624
H           1.55055126       -0.86664087        0.18930631
6
MD Time 1460.00
C          -0.82380963       -0.00000000       -0.00000003
C           0.82380963        0.00000000        0.00000003
H          -1.53109844        0.86898444        0.19629608
H          -1.53109842       -0.86898445       -0.19629616
H           1.53109845        0.86898446       -0.19629600
H           1.53109846       -0.86898443        0.19629607
6
MD Time 1470.00
C          -0.81683536       -0.00000000       -0.00000003
C           0.81683536        0.00000000        0.00000003
H          -1.51065811        0.87125574        0.20294772
H          -1.51065809       -0.87125575       -0.20294781
H           1.51065813        0.87125576       -0.20294765
H           1.51065813       -0.87125574        0.20294772
6
MD Time 1480.00
C          -0.80961856       -0.00000000       -0.00000003
C           0.80961856        0.00000000        0.00000003
H          -1.48932407        0.87348159        0.20925134
H          -1.48932405       -0.87348160       -0.20925143
H           1.48932408        0.87348161       -0.20925127
H           1.48932408       -0.87348159        0.20925134
6
MD Time 1490.00
C          -0.80215082       -0.00000000       -0.00000003
C           0.80215082        0.00000000        0.00000003
H          -1.46719672        0.87569536        0.21519847
H          -1.46719670       -0.87569538       -0.21519856
H           1.46719674        0.87569539       -0.21519840
H           1.46719674       -0.87569537        0.21519847
6
MD Time 1500.00
C          -0.79442412       -0.00000000       -0.00000003
C           0.79442411        0.00000000        0.00000003
H          -1.44438218        0.87793652        0.22078204
H          -1.44438216       -0.87793653       -0.22078213
H           1.44438219        0.87793654       -0.22078198
H           1.44438220       -0.87793652        0.22078205
6
MD Time 1510.00
C          -0.78643119       -0.00000000       -0.00000003
C           0.78643118        0.00000000        0.00000003
H          -1.42099112        0.88024968        0.22599622
H          -1.42099110       -0.88024969       -0.22599630
H           1.42099113        0.88024970       -0.22599615
H           1.42099113       -0.88024969        0.22599622
6
MD Time 1520.00
C          -0.77816593       -0.00000000       -0.00000003
C           0.77816592        0.00000000        0.00000003
H          -1.39713755        0.88268357        0.23083617
H          -1.39713753       -0.88268358       -0.23083625
H           1.39713756        0.88268360       -0.23083611
H           1.39713756       -0.88268358        0.23083618
6
MD Time 1530.00
C          -0.76962391       -0.00000000       -0.00000003
C           0.76962391        0.00000000        0.00000003
H          -1.37293741        0.88528958        0.23529778
H          -1.37293739       -0.88528960       -0.23529786
H           1.37293742        0.88528961       -0.23529773
H           1.37293742       -0.88528959        0.23529779
6
MD Time 1540.00
C          -0.76080291       -0.00000000       -0.00000003
C           0.76080291        0.00000000        0.00000003
H          -1.34850707        0.88812009        0.23937723
H          -1.34850705       -0.88812010       -0.23937731
H           1.34850708        0.88812011       -0.23937718
H           1.34850708       -0.88812010        0.23937725
6
MD Time 1550.00
C          -0.75170349       -0.00000000       -0.00000003
C           0.75170349        0.00000000        0.00000003
H          -1.32396178        0.89122654        0.24307055
H          -1.32396176       -0.89122656       -0.24307063
H           1.32396179        0.89122657       -0.24307050
H           1.32396179       -0.89122655        0.24307057
6
MD Time 1560.00
C          -0.74232966       -0.00000000       -0.00000003
C           0.74232966        0.00000000        0.00000003
H          -1.29941413        0.89465737        0.24637313
H          -1.29941411       -0.89465738       -0.24637322
H           1.29941413        0.89465739       -0.24637309
H           1.29941413       -0.89465738        0.24637316
6
MD Time 1570.00
C          -0.73268950       -0.00000000       -0.00000003
C           0.73268950        0.00000000        0.00000003
H          -1.27497261        0.89845581        0.24927923
H          -1.27497259       -0.89845582       -0.24927932
H           1.27497261        0.89845583       -0.24927920
H           1.27497261       -0.89845582        0.24927927
6
MD Time 1580.00
C          -0.72279590       -0.00000000       -0.00000003
C           0.72279590        0.00000000        0.00000003
H          -1.25074033        0.90265780        0.25178148
H          -1.25074031       -0.90265782       -0.25178156
H           1.25074033        0.90265783       -0.25178144
H           1.25074033       -0.90265782        0.25178151
6
MD Time 1590.00
C          -0.71266720       -0.00000000       -0.00000003
C           0.71266720        0.00000000        0.00000003
H          -1.22681396        0.90729002        0.25387047
H          -1.22681394       -0.90729004       -0.25387055
H           1.22681396        0.90729005       -0.25387044
H           1.22681396       -0.90729004        0.25387051
6
MD Time 1600.00
C          -0.70232793       -0.00000000       -0.00000003
C           0.70232793        0.00000000        0.00000003
H          -1.20328297        0.91236822        0.25553451
H          -1.20328295       -0.91236824       -0.25553459
H           1.20328297        0.91236824       -0.25553448
H           1.20328297       -0.91236824        0.25553456
6
MD Time 1610.00
C          -0.69180947       -0.00000000       -0.00000003
C           0.69180947        0.00000000        0.00000003
H          -1.18022916        0.91789598        0.25675949
H          -1.18022914       -0.91789599       -0.25675957
H           1.18022915        0.91789600       -0.25675947
H           1.18022916       -0.91789599        0.25675954
6
MD Time 1620.00
C          -0.68115069       -0.00000000       -0.00000003
C           0.68115069        0.00000000        0.00000003
H          -1.15772656        0.92386395        0.25752891
H          -1.15772654       -0.92386397       -0.25752899
H           1.15772655        0.92386397       -0.25752889
H           1.15772655       -0.92386397        0.25752897
6
MD Time 1630.00
C          -0.67039856       -0.00000000       -0.00000003
C           0.67039856        0.00000000        0.00000003
H          -1.13584164        0.93024967        0.25782414
H          -1.13584162       -0.93024969       -0.25782422
H           1.13584163        0.93024969       -0.25782412
H           1.13584163       -0.93024968        0.25782420
6
MD Time 1640.00
C          -0.65960869       -0.00000000       -0.00000003
C           0.65960869        0.00000000        0.00000003
H          -1.11463381        0.93701789        0.25762487
H          -1.11463379       -0.93701791       -0.25762495
H           1.11463380        0.93701791       -0.25762485
H           1.11463380       -0.93701791        0.25762493
6
MD Time 1650.00
C          -0.64884570       -0.00000000       -0.00000003
C           0.64884570        0.00000000        0.00000003
H          -1.09415616        0.94412147        0.25690968
H          -1.09415613       -0.94412148       -0.25690976
H           1.09415614        0.94412148       -0.25690967
H           1.09415614       -0.94412148        0.25690975
6
MD Time 1660.00
C          -0.63818355       -0.00000000       -0.00000003
C           0.63818355        0.00000000        0.00000003
H          -1.07445639        0.95150265        0.25565681
H          -1.07445637       -0.95150267       -0.25565689
H           1.07445637        0.95150267       -0.25565680
H           1.07445637       -0.95150266        0.25565688
6
MD Time 1670.00
C          -0.62770552       -0.00000000       -0.00000002
C           0.62770552        0.00000000        0.00000002
H          -1.05557789        0.95909480        0.25384493
H          -1.05557786       -0.95909481       -0.25384502
H           1.05557787        0.95909481       -0.25384493
H           1.05557786       -0.95909481        0.25384502
6
MD Time 1680.00
C          -0.61750399       -0.00000000       -0.00000002
C           0.61750399        0.00000000        0.00000002
H          -1.03756077        0.96682427        0.25145406
H          -1.03756074       -0.96682428       -0.25145415
H           1.03756074        0.96682428       -0.25145406
H           1.03756074       -0.96682428        0.25145415
6
MD Time 1690.00
C          -0.60767979       -0.00000000       -0.00000002
C           0.60767979        0.00000000        0.00000002
H          -1.02044294        0.97461250        0.24846634
H          -1.02044291       -0.97461252       -0.24846643
H           1.02044291        0.97461252       -0.24846634
H           1.02044291       -0.97461251        0.24846644
6
MD Time 1700.00
C          -0.59834099       -0.00000000       -0.00000002
C           0.59834099        0.00000000        0.00000002
H          -1.00426109        0.98237811        0.24486685
H          -1.00426106       -0.98237812       -0.24486694
H           1.00426106        0.98237813       -0.24486685
H           1.00426106       -0.98237812        0.24486695
6
MD Time 1710.00
C          -0.58960121       -0.00000000       -0.00000002
C           0.58960122        0.00000000        0.00000002
H          -0.98905147        0.99003894        0.24064426
H          -0.98905144       -0.99003895       -0.24064435
H           0.98905143        0.99003895       -0.24064427
H           0.98905142       -0.99003894        0.24064437
6
MD Time 1720.00
C          -0.58157717       -0.00000000       -0.00000002
C           0.58157718        0.00000000        0.00000002
H          -0.97485048        0.99751397        0.23579141
H          -0.97485045       -0.99751398       -0.23579150
H           0.97485044        0.99751398       -0.23579142
H           0.97485043       -0.99751397        0.23579152
6
MD Time 1730.00
C          -0.57438557       -0.00000000       -0.00000002
C           0.57438557        0.00000000        0.00000002
H          -0.96169511        1.00472513        0.23030566
H          -0.96169508       -1.00472514       -0.23030575
H           0.96169507        1.00472515       -0.23030567
H           0.96169506       -1.00472513        0.23030577
6
MD Time 1740.00
C          -0.56813928       -0.00000000       -0.00000002
C           0.56813929        0.00000000        0.00000002
H          -0.94962305        1.01159884        0.22418916
H          -0.94962302       -1.01159885       -0.22418925
H           0.94962301        1.01159886       -0.22418917
H           0.94962300       -1.01159884        0.22418928
6
MD Time 1750.00
C          -0.56294313       -0.00000000       -0.00000002
C           0.56294314        0.00000000        0.00000002
H          -0.93867263        1.01806739        0.21744893
H          -0.93867259       -1.01806739       -0.21744902
H           0.93867258        1.01806740       -0.21744894
H           0.93867257       -1.01806738        0.21744905
6
MD Time 1760.00
C          -0.55888929       -0.00000000       -0.00000002
C           0.55888930        0.00000000        0.00000002
H          -0.92888247        1.02407007        0.21009678
H          -0.92888244       -1.02407007       -0.21009688
H           0.92888243        1.02407008       -0.21009680
H           0.92888241       -1.02407006        0.21009691
6
MD Time 1770.00
C          -0.55605286       -0.00000000       -0.00000002
C           0.55605286        0.00000000        0.00000002
H          -0.92029108        1.02955416        0.20214917
H          -0.92029104       -1.02955416       -0.20214926
H           0.92029104        1.02955417       -0.20214919
H           0.92029102       -1.02955415        0.20214930
6
MD Time 1780.00
C          -0.55448783       -0.00000000       -0.00000002
C           0.55448784        0.00000000        0.00000002
H          -0.91293615        1.03447565        0.19362683
H          -0.91293611       -1.03447565       -0.19362693
H           0.91293610        1.03447566       -0.19362685
H           0.91293609       -1.03447564        0.19362697
6
MD Time 1790.00
C          -0.55422412       -0.00000000       -0.00000002
C           0.55422413        0.00000000        0.00000002
H          -0.90685385        1.03879980        0.18455445
H          -0.90685381       -1.03879980       -0.18455455
H           0.90685380        1.03879981       -0.18455448
H           0.90685379       -1.03879979        0.18455460
6
MD Time 1800.00
C          -0.55526571       -0.00000000       -0.00000002
C           0.55526572        0.00000000        0.00000002
H          -0.90207806        1.04250151        0.17496021
H          -0.90207802       -1.04250152       -0.17496031
H           0.90207801        1.04250153       -0.17496024
H           0.90207799       -1.04250151        0.17496036
6
MD Time 1810.00
C          -0.55759037       -0.00000000       -0.00000002
C           0.55759038        0.00000000        0.00000002
H          -0.89863957        1.04556552        0.16487525
H          -0.89863953       -1.04556553       -0.16487536
H           0.89863952        1.04556554       -0.16487528
H           0.89863950       -1.04556552        0.16487541
6
MD Time 1820.00
C          -0.56115089       -0.00000000       -0.00000002
C           0.56115090        0.00000000        0.00000002
H          -0.89656536        1.04798638        0.15433317
H          -0.89656531       -1.04798639       -0.15433328
H           0.89656531        1.04798640       -0.15433321
H           0.89656528       -1.04798638        0.15433334
6
MD Time 1830.00
C          -0.56587765       -0.00000001       -0.00000002
C           0.56587765        0.00000000        0.00000002
H          -0.89587793        1.04976828        0.14336949
H          -0.89587789       -1.04976829       -0.14336960
H           0.89587788        1.04976830       -0.14336953
H           0.89587785       -1.04976828        0.14336966
6
MD Time 1840.00
C          -0.57168229       -0.00000001       -0.00000002
C           0.57168230        0.00000000        0.00000002
H          -0.89659479        1.05092471        0.13202110
H          -0.89659474       -1.05092471       -0.13202121
H           0.89659474        1.05092473       -0.13202113
H           0.89659471       -1.05092471        0.13202127
6
MD Time 1850.00
C          -0.57846208       -0.00000001       -0.00000002
C           0.57846208        0.00000000        0.00000002
H          -0.89872801        1.05147786        0.12032570
H          -0.89872797       -1.05147787       -0.12032581
H           0.89872796        1.05147789       -0.12032574
H           0.89872794       -1.05147786        0.12032588
6
MD Time 1860.00
C          -0.58610442       -0.00000001       -0.00000002
C           0.58610442        0.00000000        0.00000002
H          -0.90228397        1.05145795        0.10832136
H          -0.90228393       -1.05145795       -0.10832147
H           0.90228392        1.05145797       -0.10832140
H           0.90228390       -1.05145795        0.10832154
6
MD Time 1870.00
C          -0.59449134       -0.00000001       -0.00000002
C           0.59449135        0.00000000        0.00000002
H          -0.90726318        1.05090223        0.09604596
H          -0.90726314       -1.05090224       -0.09604608
H           0.90726313        1.05090226       -0.09604600
H           0.90726311       -1.05090223        0.09604615
6
MD Time 1880.00
C          -0.60350350       -0.00000001       -0.00000002
C           0.60350351        0.00000000        0.00000002
H          -0.91366027        1.04985393        0.08353682
H          -0.91366023       -1.04985394       -0.08353694
H           0.91366022        1.04985396       -0.08353686
H           0.91366020       -1.04985394        0.08353701
6
MD Time 1890.00
C          -0.61302353       -0.00000001       -0.00000002
C           0.61302354        0.00000000        0.00000002
H          -0.92146402        1.04836093        0.07083027
H          -0.92146398       -1.04836094       -0.07083039
H           0.92146398        1.04836096       -0.07083032
H           0.92146396       -1.04836094        0.07083046
6
MD Time 1900.00
C          -0.62293879       -0.00000001       -0.00000002
C           0.62293880        0.00000000        0.00000002
H          -0.93065755        1.04647431        0.05796135
H          -0.93065751       -1.04647432       -0.05796147
H           0.93065750        1.04647434       -0.05796139
H           0.93065748       -1.04647432        0.05796154
6
MD Time 1910.00
C          -0.63314328       -0.00000001       -0.00000002
C           0.63314329        0.00000001        0.00000002
H          -0.94121844        1.04424674        0.04496354
H          -0.94121840       -1.04424676       -0.04496366
H           0.94121839        1.04424677       -0.04496358
H           0.94121837       -1.04424676        0.04496374
6
MD Time 1920.00
C          -0.64353904       -0.00000001       -0.00000002
C           0.64353905        0.00000001        0.00000002
H          -0.95311895        1.04173077        0.03186859
H          -0.95311891       -1.04173078       -0.03186871
H           0.95311891        1.04173080       -0.03186863
H           0.95311889       -1.04173079        0.03186879
6
MD Time 1930.00
C          -0.65403691       -0.00000001       -0.00000002
C           0.65403691        0.00000001        0.00000002
H          -0.96632618        1.03897702        0.01870643
H          -0.96632614       -1.03897704       -0.01870656
H           0.96632614        1.03897705       -0.01870647
H           0.96632612       -1.03897704        0.01870663
6
MD Time 1940.00
C          -0.66455688       -0.00000001       -0.00000002
C           0.66455688        0.00000001        0.00000002
H          -0.98080216        1.03603243        0.00550516
H          -0.98080212       -1.03603245       -0.00550529
H           0.98080212        1.03603247       -0.00550520
H           0.98080210       -1.03603246        0.00550536
6
MD Time 1950.00
C          -0.67502810       -0.00000001       -0.00000002
C           0.67502810        0.00000001        0.00000002
H          -0.99650389        1.03293852       -0.00770889
H          -0.99650385       -1.03293854        0.00770875
H           0.99650385        1.03293856        0.00770884
H           0.99650384       -1.03293855       -0.00770868
6
MD Time 1960.00
C          -0.68538865       -0.00000001       -0.00000002
C           0.68538865        0.00000001        0.00000002
H          -1.01338327        1.02972980       -0.02091092
H          -1.01338323       -1.02972982        0.02091079
H           1.01338323        1.02972983        0.02091088
H           1.01338322       -1.02972983       -0.02091071
6
MD Time 1970.00
C          -0.69558515       -0.00000000       -0.00000002
C           0.69558515        0.00000001        0.00000002
H          -1.03138694        1.02643242       -0.03407749
H          -1.03138690       -1.02643245        0.03407736
H           1.03138690        1.02643245        0.03407745
H           1.03138689       -1.02643245       -0.03407728
6
MD Time 1980.00
C          -0.70557225       -0.00000000       -0.00000002
C           0.70557225        0.00000001        0.00000002
H          -1.05045603        1.02306317       -0.04718615
H          -1.05045600       -1.02306320        0.04718601
H           1.05045600        1.02306321        0.04718611
H           1.05045599       -1.02306321       -0.04718594
6
MD Time 1990.00
C          -0.71531211       -0.00000000       -0.00000002
C           0.71531211        0.00000001        0.00000002
H          -1.07052594        1.01962879       -0.06021508
H          -1.07052590       -1.01962882        0.06021494
H           1.07052590        1.01962883        0.06021504
H           1.07052589       -1.01962883       -0.06021486
6
MD Time 2000.00
C          -0.72477382       -0.00000000       -0.00000003
C           0.72477382        0.00000001        0.00000002
H          -1.09152599        1.01612574       -0.07314270
H          -1.09152596       -1.01612577        0.07314255
H           1.09152596        1.01612577        0.07314266
H           1.09152596       -1.01612578       -0.07314248
6
MD Time 2010.00
C          -0.73393283       -0.00000000       -0.00000003
C           0.73393283        0.00000001        0.00000002
H          -1.11337932        1.01254043       -0.08594730
H          -1.11337929       -1.01254046        0.08594716
H           1.11337930        1.01254046        0.08594727
H           1.11337929       -1.01254047       -0.08594708
6
MD Time 2020.00
C          -0.74277037       -0.00000000       -0.00000003
C           0.74277037        0.00000001        0.00000002
H          -1.13600272        1.00884990       -0.09860673
H          -1.13600269       -1.00884993        0.09860658
H           1.13600270        1.00884993        0.09860669
H           1.13600269       -1.00884994       -0.09860651
6
MD Time 2030.00
C          -0.75127293       -0.00000000       -0.00000003
C           0.75127293        0.00000001        0.00000002
H          -1.15930675        1.00502291       -0.11109806
H          -1.15930672       -1.00502295        0.11109791
H           1.15930672        1.00502295        0.11109803
H           1.15930672       -1.00502296       -0.11109784
6
MD Time 2040.00
C          -0.75943169       -0.00000000       -0.00000003
C           0.75943170        0.00000001        0.00000002
H          -1.18319599        1.00102139       -0.12339748
H          -1.18319596       -1.00102143        0.12339733
H           1.18319596        1.00102142        0.12339745
H           1.18319596       -1.00102144       -0.12339726
6
MD Time 2050.00
C          -0.76724202       -0.00000000       -0.00000003
C           0.76724202        0.00000001        0.00000002
H          -1.20756953        0.99680212       -0.13548018
H          -1.20756950       -0.99680216        0.13548003
H           1.20756951        0.99680215        0.13548016
H           1.20756951       -0.99680216       -0.13547996
6
MD Time 2060.00
C          -0.77470291       -0.00000000       -0.00000003
C           0.77470291        0.00000001        0.00000002
H          -1.23232165        0.99231864       -0.14732040
H          -1.23232163       -0.99231868        0.14732024
H           1.23232163        0.99231867        0.14732038
H           1.23232164       -0.99231868       -0.14732018
6
MD Time 2070.00
C          -0.78181654       -0.00000000       -0.00000003
C           0.78181654        0.00000001        0.00000002
H          -1.25734264        0.98752319       -0.15889157
H          -1.25734262       -0.98752324        0.15889141
H           1.25734262        0.98752322        0.15889154
H           1.25734263       -0.98752323       -0.15889135
6
MD Time 2080.00
C          -0.78858775       -0.00000000       -0.00000003
C           0.78858775        0.00000001        0.00000002
H          -1.28251976        0.98236867       -0.17016652
H          -1.28251974       -0.98236872        0.17016636
H           1.28251975        0.98236870        0.17016650
H           1.28251975       -0.98236871       -0.17016631
6
MD Time 2090.00
C          -0.79502360       -0.00000000       -0.00000003
C           0.79502360        0.00000001        0.00000002
H          -1.30773834        0.97681045       -0.18111785
H          -1.30773832       -0.97681050        0.18111769
H           1.30773832        0.97681048        0.18111783
H           1.30773833       -0.97681049       -0.18111763
6
MD Time 2100.00
C          -0.80113291       -0.00000000       -0.00000003
C           0.80113291        0.00000001        0.00000002
H          -1.33288282        0.97080806       -0.19171821
H          -1.33288280       -0.97080811        0.19171804
H           1.33288281        0.97080809        0.19171820
H           1.33288281       -0.97080810       -0.19171799
6
MD Time 2110.00
C          -0.80692587       -0.00000000       -0.00000003
C           0.80692587        0.00000001        0.00000002
H          -1.35783790        0.96432664       -0.20194074
H          -1.35783788       -0.96432668        0.20194057
H           1.35783789        0.96432666        0.20194073
H           1.35783790       -0.96432667       -0.20194052
6
MD Time 2120.00
C          -0.81241367       -0.00000000       -0.00000003
C           0.81241367        0.00000001        0.00000002
H          -1.38248960        0.95733813       -0.21175944
H          -1.38248958       -0.95733817        0.21175927
H           1.38248959        0.95733814        0.21175943
H           1.38248960       -0.95733816       -0.21175923
6
MD Time 2130.00
C          -0.81760813       -0.00000000       -0.00000003
C           0.81760813        0.00000001        0.00000003
H          -1.40672623        0.94982228       -0.22114960
H          -1.40672621       -0.94982233        0.22114943
H           1.40672622        0.94982230        0.22114959
H           1.40672623       -0.94982231       -0.22114939
6
MD Time 2140.00
C          -0.82252142       -0.00000000       -0.00000003
C           0.82252142        0.00000001        0.00000003
H          -1.43043937        0.94176735       -0.23008811
H          -1.43043935       -0.94176740        0.23008794
H           1.43043936        0.94176736        0.23008811
H           1.43043937       -0.94176738       -0.23008791
6
MD Time 2150.00
C          -0.82716578       -0.00000000       -0.00000003
C           0.82716578        0.00000001        0.00000003
H          -1.45352468        0.93317059       -0.23855387
H          -1.45352466       -0.93317064        0.23855370
H           1.45352468        0.93317061        0.23855387
H           1.45352469       -0.93317062       -0.23855367
6
MD Time 2160.00
C          -0.83155329       -0.00000000       -0.00000003
C           0.83155329        0.00000001        0.00000003
H          -1.47588267        0.92403856       -0.24652802
H          -1.47588266       -0.92403861        0.24652785
H           1.47588267        0.92403857        0.24652803
H           1.47588268       -0.92403858       -0.24652782
6
MD Time 2170.00
C          -0.83569566       -0.00000000       -0.00000003
C           0.83569566        0.00000001        0.00000003
H          -1.49741934        0.91438721       -0.25399426
H          -1.49741933       -0.91438726        0.25399409
H           1.49741934        0.91438722        0.25399427
H           1.49741936       -0.91438723       -0.25399407
6
MD Time 2180.00
C          -0.83960408       -0.00000000       -0.00000003
C           0.83960408        0.00000001        0.00000003
H          -1.51804676        0.90424191       -0.26093905
H          -1.51804675       -0.90424196        0.26093887
H           1.51804677        0.90424192        0.26093907
H           1.51804678       -0.90424192       -0.26093886
6
MD Time 2190.00
C          -0.84328904       -0.00000000       -0.00000003
C           0.84328904        0.00000001        0.00000003
H          -1.53768358        0.89363725       -0.26735178
H          -1.53768356       -0.89363730        0.26735161
H           1.53768358        0.89363726        0.26735180
H           1.53768359       -0.89363726       -0.26735160
6
MD Time 2200.00
C          -0.84676024       -0.00000000       -0.00000003
C           0.84676024        0.00000001        0.00000003
H          -1.55625542        0.88261687       -0.27322496
H          -1.55625540       -0.88261692        0.27322479
H           1.55625542        0.88261687        0.27322499
H           1.55625544       -0.88261688       -0.27322479
6
MD Time 2210.00
C          -0.85002645       -0.00000000       -0.00000003
C           0.85002644        0.00000001        0.00000003
H          -1.57369530        0.87123313       -0.27855431
H          -1.57369529       -0.87123318        0.27855414
H           1.57369531        0.87123313        0.27855434
H           1.57369532       -0.87123314       -0.27855414
6
MD Time 2220.00
C          -0.85309543       -0.00000000       -0.00000003
C           0.85309543        0.00000001        0.00000003
H          -1.58994397        0.85954679       -0.28333887
H          -1.58994396       -0.85954684        0.28333869
H           1.58994397        0.85954679        0.28333890
H           1.58994399       -0.85954680       -0.28333870
6
MD Time 2230.00
C          -0.85597388       -0.00000000       -0.00000003
C           0.85597387        0.00000001        0.00000003
H          -1.60495017        0.84762660       -0.28758103
H          -1.60495016       -0.84762665        0.28758086
H           1.60495018        0.84762660        0.28758107
H           1.60495019       -0.84762661       -0.28758088
6
MD Time 2240.00
C          -0.85866731       -0.00000000       -0.00000003
C           0.85866730        0.00000001        0.00000003
H          -1.61867095        0.83554889       -0.29128664
H          -1.61867094       -0.83554894        0.29128646
H           1.61867096        0.83554889        0.29128668
H           1.61867098       -0.83554890       -0.29128648
6
MD Time 2250.00
C          -0.86118002       -0.00000000       -0.00000003
C           0.86118002        0.00000001        0.00000003
H          -1.63107192        0.82339711       -0.29446492
H          -1.63107191       -0.82339716        0.29446475
H           1.63107193        0.82339711        0.29446497
H           1.63107195       -0.82339711       -0.29446477
6
MD Time 2260.00
C          -0.86351505       -0.00000000       -0.00000003
C           0.86351504        0.00000001        0.00000003
H          -1.64212745        0.81126130       -0.29712854
H          -1.64212744       -0.81126135        0.29712836
H           1.64212746        0.81126130        0.29712859
H           1.64212747       -0.81126130       -0.29712840
6
MD Time 2270.00
C          -0.86567409       -0.00000000       -0.00000003
C           0.86567408        0.00000001        0.00000003
H          -1.65182086        0.79923754       -0.29929348
H          -1.65182085       -0.79923759        0.29929331
H           1.65182087        0.79923754        0.29929354
H           1.65182089       -0.79923754       -0.29929335
6
MD Time 2280.00
C          -0.86765748       -0.00000000       -0.00000003
C           0.86765747        0.00000001        0.00000003
H          -1.66014463        0.78742731       -0.30097898
H          -1.66014462       -0.78742736        0.30097881
H           1.66014463        0.78742731        0.30097904
H           1.66014465       -0.78742731       -0.30097886
6
MD Time 2290.00
C          -0.86946416       -0.00000000       -0.00000003
C           0.86946416        0.00000001        0.00000003
H          -1.66710039        0.77593680       -0.30220737
H          -1.66710038       -0.77593686        0.30220720
H           1.66710040        0.77593680        0.30220744
H           1.66710041       -0.77593680       -0.30220725
6
MD Time 2300.00
C          -0.87109169       -0.00000000       -0.00000003
C           0.87109168        0.00000001        0.00000003
H          -1.67269904        0.76487606       -0.30300385
H          -1.67269903       -0.76487611        0.30300369
H           1.67269904        0.76487605        0.30300393
H           1.67269906       -0.76487605       -0.30300375
6
MD Time 2310.00
C          -0.87253619       -0.00000000       -0.00000003
C           0.87253618        0.00000001        0.00000003
H          -1.67696058        0.75435807       -0.30339624
H          -1.67696057       -0.75435812        0.30339607
H           1.67696058        0.75435806        0.30339631
H           1.67696060       -0.75435806       -0.30339613
6
MD Time 2320.00
C          -0.87379243       -0.00000000       -0.00000003
C           0.87379243        0.00000001        0.00000003
H          -1.67991393        0.74449768       -0.30341456
H          -1.67991392       -0.74449774        0.30341439
H           1.67991393        0.74449768        0.30341464
H           1.67991395       -0.74449767       -0.30341446
6
MD Time 2330.00
C          -0.87485385       -0.00000000       -0.00000003
C           0.87485385        0.00000001        0.00000003
H          -1.68159654        0.73541039       -0.30309066
H          -1.68159653       -0.73541044        0.30309049
H           1.68159654        0.73541038        0.30309074
H           1.68159656       -0.73541038       -0.30309057
6
MD Time 2340.00
C          -0.87571265       -0.00000000       -0.00000003
C           0.87571265        0.00000001        0.00000003
H          -1.68205381        0.72721092       -0.30245763
H          -1.68205381       -0.72721097        0.30245746
H           1.68205382        0.72721091        0.30245772
H           1.68205383       -0.72721091       -0.30245755
6
MD Time 2350.00
C          -0.87635993       -0.00000000       -0.00000003
C           0.87635993        0.00000001        0.00000003
H          -1.68133829        0.72001167       -0.30154918
H          -1.68133829       -0.72001172        0.30154902
H           1.68133829        0.72001166        0.30154928
H           1.68133831       -0.72001165       -0.30154911
6
MD Time 2360.00
C          -0.87678583       -0.00000000       -0.00000003
C           0.87678583        0.00000001        0.00000003
H          -1.67950863        0.71392097       -0.30039894
H          -1.67950862       -0.71392103        0.30039878
H           1.67950863        0.71392096        0.30039904
H           1.67950864       -0.71392096       -0.30039888
6
MD Time 2370.00
C          -0.87697977       -0.00000000       -0.00000003
C           0.87697976        0.00000001        0.00000003
H          -1.67662826        0.70904119       -0.29903963
H          -1.67662825       -0.70904125        0.29903947
H           1.67662826        0.70904118        0.29903973
H           1.67662827       -0.70904118       -0.29903957
6
MD Time 2380.00
C          -0.87693066       -0.00000000       -0.00000003
C           0.87693066        0.00000001        0.00000003
H          -1.67276386        0.70546666       -0.29750218
H          -1.67276385       -0.70546671        0.29750203
H           1.67276385        0.70546664        0.29750229
H           1.67276386       -0.70546664       -0.29750213
6
MD Time 2390.00
C          -0.87662726       -0.00000000       -0.00000003
C           0.87662726        0.00000001        0.00000003
H          -1.66798351        0.70328153       -0.29581487
H          -1.66798350       -0.70328159        0.29581472
H           1.66798350        0.70328151        0.29581498
H           1.66798351       -0.70328151       -0.29581483
6
MD Time 2400.00
C          -0.87605847       -0.00000000       -0.00000003
C           0.87605847        0.00000001        0.00000003
H          -1.66235477        0.70255758       -0.29400236
H          -1.66235476       -0.70255764        0.29400221
H           1.66235476        0.70255756        0.29400248
H           1.66235477       -0.70255756       -0.29400233
6
MD Time 2410.00
C          -0.87521368       -0.00000000       -0.00000003
C           0.87521368        0.00000001        0.00000003
H          -1.65594255        0.70335201       -0.29208486
H          -1.65594254       -0.70335206        0.29208471
H           1.65594253        0.70335199        0.29208498
H           1.65594255       -0.70335199       -0.29208483
6
MD Time 2420.00
C          -0.87408312       -0.00000000       -0.00000003
C           0.87408312        0.00000001        0.00000003
H          -1.64880704        0.70570535       -0.29007728
H          -1.64880703       -0.70570541        0.29007714
H           1.64880702        0.70570533        0.29007741
H           1.64880703       -0.70570533       -0.29007726
6
MD Time 2430.00
C          -0.87265820       -0.00000000       -0.00000003
C           0.87265820        0.00000001        0.00000003
H          -1.64100177        0.70963962       -0.28798866
H          -1.64100176       -0.70963967        0.28798851
H           1.64100175        0.70963959        0.28798879
H           1.64100176       -0.70963960       -0.28798864
6
MD Time 2440.00
C          -0.87093182       -0.00000000       -0.00000003
C           0.87093182        0.00000001        0.00000003
H          -1.63257192        0.71515669       -0.28582161
H          -1.63257190       -0.71515675        0.28582146
H           1.63257189        0.71515667        0.28582174
H           1.63257190       -0.71515667       -0.28582160
6
MD Time 2450.00
C          -0.86889855       -0.00000000       -0.00000003
C           0.86889855        0.00000001        0.00000003
H          -1.62355300        0.72223721       -0.28357214
H          -1.62355298       -0.72223726        0.28357200
H           1.62355297        0.72223718        0.28357229
H           1.62355298       -0.72223719       -0.28357214
6
MD Time 2460.00
C          -0.86655483       -0.00000000       -0.00000003
C           0.86655483        0.00000001        0.00000003
H          -1.61397012        0.73083988       -0.28122969
H          -1.61397010       -0.73083993        0.28122955
H           1.61397009        0.73083985        0.28122984
H           1.61397010       -0.73083986       -0.28122970
6
MD Time 2470.00
C          -0.86389898       -0.00000000       -0.00000003
C           0.86389898        0.00000001        0.00000003
H          -1.60383777        0.74090146       -0.27877737
H          -1.60383775       -0.74090152        0.27877723
H           1.60383774        0.74090144        0.27877752
H           1.60383775       -0.74090144       -0.27877739
6
MD Time 2480.00
C          -0.86093116       -0.00000000       -0.00000003
C           0.86093116        0.00000001        0.00000003
H          -1.59316026        0.75233734       -0.27619260
H          -1.59316024       -0.75233740        0.27619246
H           1.59316023        0.75233731        0.27619276
H           1.59316023       -0.75233732       -0.27619262
6
MD Time 2490.00
C          -0.85765325       -0.00000000       -0.00000003
C           0.85765326        0.00000001        0.00000003
H          -1.58193271        0.76504274       -0.27344789
H          -1.58193268       -0.76504280        0.27344775
H           1.58193267        0.76504272        0.27344806
H           1.58193268       -0.76504272       -0.27344792
6
MD Time 2500.00
C          -0.85406860       -0.00000000       -0.00000003
C           0.85406860        0.00000001        0.00000003
H          -1.57014259        0.77889458       -0.27051185
H          -1.57014256       -0.77889464        0.27051172
H           1.57014255        0.77889456        0.27051202
H           1.57014255       -0.77889457       -0.27051189
6
MD Time 2510.00
C          -0.85018174       -0.00000000       -0.00000003
C           0.85018174        0.00000001        0.00000003
H          -1.55777161        0.79375385       -0.26735036
H          -1.55777158       -0.79375391        0.26735022
H           1.55777157        0.79375383        0.26735053
H           1.55777157       -0.79375384       -0.26735040
6
MD Time 2520.00
C          -0.84599808       -0.00000000       -0.00000003
C           0.84599808        0.00000001        0.00000003
H          -1.54479784        0.80946837       -0.26392775
H          -1.54479781       -0.80946843        0.26392762
H           1.54479781        0.80946835        0.26392793
H           1.54479780       -0.80946835       -0.26392780
6
MD Time 2530.00
C          -0.84152357       -0.00000000       -0.00000003
C           0.84152358        0.00000001        0.00000003
H          -1.53119793        0.82587589       -0.26020807
H          -1.53119790       -0.82587595        0.26020793
H           1.53119789        0.82587587        0.26020825
H           1.53119789       -0.82587588       -0.26020812
6
MD Time 2540.00
C          -0.83676442       -0.00000000       -0.00000003
C           0.83676442        0.00000001        0.00000003
H          -1.51694921        0.84280731       -0.25615619
H          -1.51694917       -0.84280737        0.25615606
H           1.51694917        0.84280729        0.25615638
H           1.51694916       -0.84280730       -0.25615625
6
MD Time 2550.00
C          -0.83172678       -0.00000000       -0.00000003
C           0.83172678        0.00000001        0.00000003
H          -1.50203161        0.86008983       -0.25173888
H          -1.50203157       -0.86008989        0.25173875
H           1.50203157        0.86008981        0.25173907
H           1.50203156       -0.86008982       -0.25173894
6
MD Time 2560.00
C          -0.82641656       -0.00000000       -0.00000003
C           0.82641657        0.00000001        0.00000003
H          -1.48642937        0.87755003       -0.24692568
H          -1.48642934       -0.87755009        0.24692555
H           1.48642933        0.87755001        0.24692588
H           1.48642933       -0.87755002       -0.24692575
6
MD Time 2570.00
C          -0.82083930       -0.00000000       -0.00000003
C           0.82083930        0.00000001        0.00000003
H          -1.47013233        0.89501666       -0.24168963
H          -1.47013229       -0.89501672        0.24168949
H           1.47013229        0.89501665        0.24168982
H           1.47013228       -0.89501666       -0.24168970
6
MD Time 2580.00
C          -0.81500003       -0.00000000       -0.00000003
C           0.81500004        0.00000001        0.00000003
H          -1.45313689        0.91232312       -0.23600779
H          -1.45313685       -0.91232318        0.23600766
H           1.45313685        0.91232311        0.23600799
H           1.45313684       -0.91232312       -0.23600786
6
MD Time 2590.00
C          -0.80890332       -0.00000000       -0.00000002
C           0.80890333        0.00000001        0.00000002
H          -1.43544675        0.92930957       -0.22986166
H          -1.43544671       -0.92930962        0.22986153
H           1.43544671        0.92930955        0.22986186
H           1.43544670       -0.92930956       -0.22986173
6
MD Time 2600.00
C          -0.80255329       -0.00000000       -0.00000002
C           0.80255329        0.00000001        0.00000002
H          -1.41707325        0.94582469       -0.22323734
H          -1.41707320       -0.94582474        0.22323721
H           1.41707321        0.94582468        0.22323755
H           1.41707319       -0.94582469       -0.22323742
6
MD Time 2610.00
C          -0.79595372       -0.00000000       -0.00000002
C           0.79595372        0.00000001        0.00000002
H          -1.39803550        0.96172711       -0.21612569
H          -1.39803545       -0.96172717        0.21612556
H           1.39803546        0.96172710        0.21612590
H           1.39803544       -0.96172711       -0.21612577
6
MD Time 2620.00
C          -0.78910821       -0.00000000       -0.00000002
C           0.78910821        0.00000001        0.00000002
H          -1.37836040        0.97688650       -0.20852222
H          -1.37836035       -0.97688655        0.20852209
H           1.37836037        0.97688649        0.20852243
H           1.37836035       -0.97688650       -0.20852231
6
MD Time 2630.00
C          -0.78202038       -0.00000000       -0.00000002
C           0.78202039        0.00000001        0.00000002
H          -1.35808247        0.99118434       -0.20042708
H          -1.35808241       -0.99118439        0.20042695
H           1.35808243        0.99118433        0.20042729
H           1.35808241       -0.99118434       -0.20042717
6
MD Time 2640.00
C          -0.77469411       -0.00000000       -0.00000002
C           0.77469412        0.00000001        0.00000002
H          -1.33724353        1.00451460       -0.19184482
H          -1.33724348       -1.00451465        0.19184469
H           1.33724349        1.00451460        0.19184503
H           1.33724347       -1.00451461       -0.19184490
6
MD Time 2650.00
C          -0.76713378       -0.00000000       -0.00000002
C           0.76713379        0.00000001        0.00000002
H          -1.31589251        1.01678413       -0.18278420
H          -1.31589245       -1.01678418        0.18278408
H           1.31589247        1.01678413        0.18278442
H           1.31589245       -1.01678414       -0.18278429
6
MD Time 2660.00
C          -0.75934459       -0.00000000       -0.00000002
C           0.75934459        0.00000001        0.00000002
H          -1.29408506        1.02791297       -0.17325797
H          -1.29408500       -1.02791302        0.17325785
H           1.29408502        1.02791297        0.17325819
H           1.29408500       -1.02791298       -0.17325806
6
MD Time 2670.00
C          -0.75133284       -0.00000000       -0.00000002
C           0.75133285        0.00000001        0.00000002
H          -1.27188327        1.03783458       -0.16328256
H          -1.27188321       -1.03783463        0.16328244
H           1.27188323        1.03783458        0.16328277
H           1.27188321       -1.03783459       -0.16328265
6
MD Time 2680.00
C          -0.74310634       -0.00000000       -0.00000002
C           0.74310635        0.00000001        0.00000002
H          -1.24935538        1.04649603       -0.15287782
H          -1.24935532       -1.04649607        0.15287770
H           1.24935534        1.04649603        0.15287803
H           1.24935531       -1.04649604       -0.15287790
6
MD Time 2690.00
C          -0.73467473       -0.00000000       -0.00000002
C           0.73467473        0.00000001        0.00000002
H          -1.22657550        1.05385813       -0.14206671
H          -1.22657544       -1.05385818        0.14206659
H           1.22657547        1.05385814        0.14206692
H           1.22657544       -1.05385815       -0.14206680
6
MD Time 2700.00
C          -0.72604985       -0.00000000       -0.00000002
C           0.72604986        0.00000001        0.00000002
H          -1.20362340        1.05989564       -0.13087504
H          -1.20362334       -1.05989568        0.13087492
H           1.20362337        1.05989565        0.13087525
H           1.20362334       -1.05989566       -0.13087512
6
MD Time 2710.00
C          -0.71724625       -0.00000000       -0.00000002
C           0.71724625        0.00000001        0.00000002
H          -1.18058425        1.06459739       -0.11933111
H          -1.18058418       -1.06459743        0.11933100
H           1.18058422        1.06459740        0.11933132
H           1.18058419       -1.06459741       -0.11933119
6
MD Time 2720.00
C          -0.70828150       -0.00000000       -0.00000002
C           0.70828150        0.00000001        0.00000002
H          -1.15754842        1.06796652       -0.10746542
H          -1.15754836       -1.06796656        0.10746531
H           1.15754840        1.06796653        0.10746562
H           1.15754836       -1.06796654       -0.10746550
6
MD Time 2730.00
C          -0.69917677       -0.00000000       -0.00000002
C           0.69917678        0.00000001        0.00000002
H          -1.13461135        1.07002068       -0.09531031
H          -1.13461128       -1.07002071        0.09531020
H           1.13461132        1.07002069        0.09531051
H           1.13461129       -1.07002069       -0.09531038
6
MD Time 2740.00
C          -0.68995722       -0.00000000       -0.00000002
C           0.68995722        0.00000001        0.00000002
H          -1.11187326        1.07079221       -0.08289962
H          -1.11187320       -1.07079224        0.08289951
H           1.11187324        1.07079222        0.08289981
H           1.11187320       -1.07079223       -0.08289969
6
MD Time 2750.00
C          -0.68065248       -0.00000000       -0.00000002
C           0.68065248        0.00000001        0.00000001
H          -1.08943905        1.07032839       -0.07026831
H          -1.08943899       -1.07032843        0.07026821
H           1.08943903        1.07032841        0.07026850
H           1.08943899       -1.07032841       -0.07026838
6
MD Time 2760.00
C          -0.67129715       -0.00000000       -0.00000002
C           0.67129715        0.00000001        0.00000001
H          -1.06741800        1.06869158       -0.05745207
H          -1.06741794       -1.06869161        0.05745197
H           1.06741798        1.06869159        0.05745225
H           1.06741794       -1.06869160       -0.05745213
6
MD Time 2770.00
C          -0.66193119       -0.00000000       -0.00000001
C           0.66193120        0.00000001        0.00000001
H          -1.04592352        1.06595922       -0.04448689
H          -1.04592345       -1.06595925        0.04448679
H           1.04592349        1.06595923        0.04448706
H           1.04592346       -1.06595924       -0.04448694
6
MD Time 2780.00
C          -0.65260036       -0.00000000       -0.00000001
C           0.65260036        0.00000001        0.00000001
H          -1.02507277        1.06222379       -0.03140861
H          -1.02507271       -1.06222382        0.03140850
H           1.02507275        1.06222381        0.03140877
H           1.02507272       -1.06222381       -0.03140866
6
MD Time 2790.00
C          -0.64335642       -0.00000000       -0.00000001
C           0.64335642        0.00000001        0.00000001
H          -1.00498625        1.05759249       -0.01825247
H          -1.00498619       -1.05759252        0.01825237
H           1.00498623        1.05759251        0.01825263
H           1.00498620       -1.05759251       -0.01825251
6
MD Time 2800.00
C          -0.63425740       -0.00000000       -0.00000001
C           0.63425740        0.00000001        0.00000001
H          -0.98578708        1.05218660       -0.00505264
H          -0.98578702       -1.05218662        0.00505255
H           0.98578706        1.05218661        0.00505280
H           0.98578703       -1.05218662       -0.00505268
6
MD Time 2810.00
C          -0.62536748       -0.00000000       -0.00000001
C           0.62536748        0.00000001        0.00000001
H          -0.96760024        1.04614047        0.00815823
H          -0.96760018       -1.04614049       -0.00815833
H           0.96760022        1.04614049       -0.00815808
H           0.96760019       -1.04614049        0.00815820
6
MD Time 2820.00
C          -0.61675685       -0.00000000       -0.00000001
C           0.61675685        0.00000001        0.00000001
H          -0.95055145        1.03960007        0.02134949
H          -0.95055139       -1.03960009       -0.02134958
H           0.95055143        1.03960009       -0.02134935
H           0.95055140       -1.03960009        0.02134946
6
MD Time 2830.00
C          -0.60850108       -0.00000000       -0.00000001
C           0.60850108        0.00000001        0.00000001
H          -0.93476584        1.03272089        0.03449280
H          -0.93476578       -1.03272091       -0.03449289
H           0.93476582        1.03272091       -0.03449267
H           0.93476579       -1.03272091        0.03449278
6
MD Time 2840.00
C          -0.60068030       -0.00000000       -0.00000001
C           0.60068030        0.00000001        0.00000001
H          -0.92036627        1.02566527        0.04756245
H          -0.92036621       -1.02566528       -0.04756254
H           0.92036625        1.02566529       -0.04756233
H           0.92036622       -1.02566529        0.04756244
6
MD Time 2850.00
C          -0.59337792       -0.00000000       -0.00000001
C           0.59337792        0.00000001        0.00000001
H          -0.90747139        1.01859900        0.06053550
H          -0.90747134       -1.01859902       -0.06053558
H           0.90747138        1.01859902       -0.06053538
H           0.90747135       -1.01859902        0.06053549
6
MD Time 2860.00
C          -0.58667892       -0.00000000       -0.00000001
C           0.58667892        0.00000000        0.00000001
H          -0.89619344        1.01168736        0.07339167
H          -0.89619339       -1.01168738       -0.07339175
H           0.89619343        1.01168738       -0.07339156
H           0.89619340       -1.01168738        0.07339167
6
MD Time 2870.00
C          -0.58066779       -0.00000000       -0.00000001
C           0.58066779        0.00000000        0.00000001
H          -0.88663582        1.00509054        0.08611318
H          -0.88663577       -1.00509056       -0.08611326
H           0.88663581        1.00509056       -0.08611308
H           0.88663579       -1.00509056        0.08611319
6
MD Time 2880.00
C          -0.57542610       -0.00000000       -0.00000001
C           0.57542610        0.00000000        0.00000001
H          -0.87889060        0.99895871        0.09868420
H          -0.87889055       -0.99895872       -0.09868428
H           0.87889059        0.99895873       -0.09868411
H           0.87889057       -0.99895872        0.09868422
6
MD Time 2890.00
C          -0.57102974       -0.00000000       -0.00000001
C           0.57102974        0.00000000        0.00000001
H          -0.87303603        0.99342694        0.11109019
H          -0.87303599       -0.99342696       -0.11109026
H           0.87303603        0.99342697       -0.11109011
H           0.87303600       -0.99342696        0.11109021
6
MD Time 2900.00
C          -0.56754616       -0.00000000       -0.00000001
C           0.56754616        0.00000000        0.00000001
H          -0.86913425        0.98861039        0.12331695
H          -0.86913421       -0.98861040       -0.12331703
H           0.86913424        0.98861041       -0.12331688
H           0.86913422       -0.98861041        0.12331698
6
MD Time 2910.00
C          -0.56503157       -0.00000000       -0.00000001
C           0.56503157        0.00000000        0.00000001
H          -0.86722927        0.98459992        0.13534969
H          -0.86722923       -0.98459993       -0.13534976
H           0.86722926        0.98459994       -0.13534962
H           0.86722924       -0.98459993        0.13534972
6
MD Time 2920.00
C          -0.56352851       -0.00000000       -0.00000001
C           0.56352851        0.00000000        0.00000001
H          -0.86734549        0.98145866        0.14717187
H          -0.86734546       -0.98145867       -0.14717194
H           0.86734549        0.98145868       -0.14717182
H           0.86734547       -0.98145867        0.14717191
6
MD Time 2930.00
C          -0.56306387       -0.00000000       -0.00000001
C           0.56306387        0.00000000        0.00000001
H          -0.86948678        0.97921975        0.15876432
H          -0.86948675       -0.97921976       -0.15876439
H           0.86948678        0.97921977       -0.15876427
H           0.86948676       -0.97921976        0.15876437
6
MD Time 2940.00
C          -0.56364768       -0.00000000       -0.00000001
C           0.56364768        0.00000000        0.00000000
H          -0.87363622        0.97788539        0.17010435
H          -0.87363619       -0.97788540       -0.17010442
H           0.87363622        0.97788541       -0.17010431
H           0.87363620       -0.97788540        0.17010441
6
MD Time 2950.00
C          -0.56527261       -0.00000000       -0.00000001
C           0.56527261        0.00000000        0.00000000
H          -0.87975658        0.97742735        0.18116525
H          -0.87975655       -0.97742736       -0.18116532
H           0.87975658        0.97742737       -0.18116522
H           0.87975656       -0.97742736        0.18116532
6
MD Time 2960.00
C          -0.56791442       -0.00000000       -0.00000001
C           0.56791442        0.00000000        0.00000000
H          -0.88779144        0.97778887        0.19191607
H          -0.88779142       -0.97778888       -0.19191613
H           0.88779144        0.97778889       -0.19191604
H           0.88779143       -0.97778887        0.19191614
6
MD Time 2970.00
C          -0.57153322       -0.00000000       -0.00000001
C           0.57153321        0.00000000        0.00000000
H          -0.89766692        0.97888768        0.20232173
H          -0.89766690       -0.97888769       -0.20232179
H           0.89766691        0.97888770       -0.20232171
H           0.89766690       -0.97888768        0.20232180
6
MD Time 2980.00
C          -0.57607535       -0.00000000       -0.00000001
C           0.57607535        0.00000000        0.00000000
H          -0.90929380        0.98061997        0.21234351
H          -0.90929378       -0.98061998       -0.21234357
H           0.90929380        0.98062000       -0.21234351
H           0.90929379       -0.98061997        0.21234360
6
MD Time 2990.00
C          -0.58147590       -0.00000000       -0.00000001
C           0.58147590        0.00000000        0.00000000
H          -0.92257003        0.98286495        0.22193984
H          -0.92257002       -0.98286495       -0.22193990
H           0.92257003        0.98286497       -0.22193984
H           0.92257002       -0.98286494        0.22193993
