6
MD Time 0.00
C          -1.00424993        0.00000000        0.00000000
C           1.00424993        0.00000000        0.00000000
H          -1.57974221        0.85087473        0.35244385
H          -1.57974221       -0.85087473       -0.35244385
H           1.57974221        0.85087473       -0.35244385
H           1.57974221       -0.85087473        0.35244385
6
MD Time 10.00
C          -1.00410942        0.00000000       -0.00000000
C           1.00410942        0.00000000        0.00000000
H          -1.57962871        0.85109639        0.35239018
H          -1.57962871       -0.85109639       -0.35239018
H           1.57962871        0.85109639       -0.35239018
H           1.57962871       -0.85109639        0.35239018
6
MD Time 20.00
C          -1.00368811        0.00000000       -0.00000000
C           1.00368811        0.00000000        0.00000000
H          -1.57928658        0.85175762        0.35222757
H          -1.57928658       -0.85175762       -0.35222757
H           1.57928658        0.85175762       -0.35222757
H           1.57928658       -0.85175762        0.35222757
6
MD Time 30.00
C          -1.00298657        0.00000000       -0.00000000
C           1.00298657        0.00000000        0.00000000
H          -1.57871090        0.85284723        0.35195131
H          -1.57871090       -0.85284723       -0.35195131
H           1.57871090        0.85284723       -0.35195131
H           1.57871090       -0.85284723        0.35195131
6
MD Time 40.00
C          -1.00200575        0.00000000       -0.00000000
C           1.00200575        0.00000000        0.00000000
H          -1.57789372        0.85434691        0.35155374
H          -1.57789372       -0.85434691       -0.35155374
H           1.57789372        0.85434691       -0.35155374
H           1.57789372       -0.85434691        0.35155374
6
MD Time 50.00
C          -1.00074691        0.00000000       -0.00000000
C           1.00074691        0.00000000        0.00000000
H          -1.57682431        0.85623175        0.35102442
H          -1.57682432       -0.85623175       -0.35102442
H           1.57682432        0.85623175       -0.35102442
H           1.57682432       -0.85623175        0.35102442
6
MD Time 60.00
C          -0.99921153        0.00000000       -0.00000000
C           0.99921153        0.00000000        0.00000000
H          -1.57548961        0.85847088        0.35035055
H          -1.57548961       -0.85847088       -0.35035055
H           1.57548961        0.85847088       -0.35035055
H           1.57548961       -0.85847088        0.35035055
6
MD Time 70.00
C          -0.99740125        0.00000000       -0.00000000
C           0.99740125        0.00000000        0.00000000
H          -1.57387463        0.86102833        0.34951729
H          -1.57387463       -0.86102833       -0.34951729
H           1.57387463        0.86102833       -0.34951729
H           1.57387463       -0.86102833        0.34951729
6
MD Time 80.00
C          -0.99531779        0.00000000       -0.00000000
C           0.99531779        0.00000000        0.00000000
H          -1.57196304        0.86386387        0.34850819
H          -1.57196304       -0.86386387       -0.34850819
H           1.57196304        0.86386387       -0.34850819
H           1.57196304       -0.86386387        0.34850819
6
MD Time 90.00
C          -0.99296283        0.00000000       -0.00000000
C           0.99296283        0.00000000        0.00000000
H          -1.56973774        0.86693409        0.34730570
H          -1.56973774       -0.86693409       -0.34730570
H           1.56973774        0.86693409       -0.34730571
H           1.56973774       -0.86693409        0.34730570
6
MD Time 100.00
C          -0.99033793        0.00000000       -0.00000000
C           0.99033793        0.00000000        0.00000000
H          -1.56718139        0.87019334        0.34589160
H          -1.56718139       -0.87019334       -0.34589160
H           1.56718139        0.87019334       -0.34589160
H           1.56718139       -0.87019334        0.34589160
6
MD Time 110.00
C          -0.98744443        0.00000000       -0.00000000
C           0.98744443        0.00000000        0.00000000
H          -1.56427701        0.87359478        0.34424746
H          -1.56427701       -0.87359478       -0.34424746
H           1.56427701        0.87359478       -0.34424746
H           1.56427701       -0.87359478        0.34424746
6
MD Time 120.00
C          -0.98428333        0.00000000       -0.00000000
C           0.98428333        0.00000000        0.00000000
H          -1.56100852        0.87709140        0.34235511
H          -1.56100852       -0.87709140       -0.34235511
H           1.56100852        0.87709140       -0.34235511
H           1.56100852       -0.87709140        0.34235511
6
MD Time 130.00
C          -0.98085525        0.00000000       -0.00000000
C           0.98085525        0.00000000        0.00000000
H          -1.55736121        0.88063694        0.34019701
H          -1.55736121       -0.88063694       -0.34019701
H           1.55736121        0.88063694       -0.34019701
H           1.55736121       -0.88063694        0.34019701
6
MD Time 140.00
C          -0.97716036        0.00000000       -0.00000000
C           0.97716036        0.00000000        0.00000000
H          -1.55332223        0.88418678        0.33775667
H          -1.55332223       -0.88418678       -0.33775666
H           1.55332223        0.88418678       -0.33775667
H           1.55332223       -0.88418678        0.33775666
6
MD Time 150.00
C          -0.97319824        0.00000000       -0.00000000
C           0.97319824        0.00000000        0.00000000
H          -1.54888093        0.88769874        0.33501888
H          -1.54888094       -0.88769875       -0.33501888
H           1.54888094        0.88769874       -0.33501888
H           1.54888094       -0.88769875        0.33501888
6
MD Time 160.00
C          -0.96896794        0.00000000       -0.00000000
C           0.96896794        0.00000000        0.00000000
H          -1.54402925        0.89113379        0.33197008
H          -1.54402925       -0.89113379       -0.33197008
H           1.54402925        0.89113379       -0.33197008
H           1.54402925       -0.89113379        0.33197008
6
MD Time 170.00
C          -0.96446784        0.00000000       -0.00000000
C           0.96446784        0.00000000        0.00000000
H          -1.53876189        0.89445664        0.32859847
H          -1.53876189       -0.89445664       -0.32859847
H           1.53876189        0.89445664       -0.32859847
H           1.53876189       -0.89445664        0.32859847
6
MD Time 180.00
C          -0.95969566        0.00000000       -0.00000000
C           0.95969566        0.00000000        0.00000000
H          -1.53307659        0.89763628        0.32489422
H          -1.53307659       -0.89763628       -0.32489422
H           1.53307659        0.89763628       -0.32489422
H           1.53307659       -0.89763628        0.32489422
6
MD Time 190.00
C          -0.95464848        0.00000000       -0.00000000
C           0.95464848        0.00000000        0.00000000
H          -1.52697421        0.90064635        0.32084954
H          -1.52697421       -0.90064635       -0.32084954
H           1.52697421        0.90064635       -0.32084954
H           1.52697421       -0.90064635        0.32084954
6
MD Time 200.00
C          -0.94932267        0.00000000       -0.00000000
C           0.94932267        0.00000000        0.00000000
H          -1.52045882        0.90346551        0.31645874
H          -1.52045882       -0.90346551       -0.31645874
H           1.52045882        0.90346551       -0.31645875
H           1.52045882       -0.90346551        0.31645874
6
MD Time 210.00
C          -0.94371395        0.00000000       -0.00000000
C           0.94371395        0.00000000        0.00000000
H          -1.51353772        0.90607759        0.31171822
H          -1.51353772       -0.90607759       -0.31171822
H           1.51353772        0.90607759       -0.31171822
H           1.51353772       -0.90607759        0.31171822
6
MD Time 220.00
C          -0.93781738        0.00000000       -0.00000000
C           0.93781738        0.00000000        0.00000000
H          -1.50622136        0.90847175        0.30662642
H          -1.50622136       -0.90847175       -0.30662641
H           1.50622136        0.90847175       -0.30662642
H           1.50622136       -0.90847175        0.30662641
6
MD Time 230.00
C          -0.93162743       -0.00000000        0.00000000
C           0.93162743       -0.00000000        0.00000000
H          -1.49852329        0.91064246        0.30118370
H          -1.49852329       -0.91064246       -0.30118370
H           1.49852329        0.91064246       -0.30118370
H           1.49852329       -0.91064246        0.30118370
6
MD Time 240.00
C          -0.92513799       -0.00000000        0.00000000
C           0.92513799       -0.00000000       -0.00000000
H          -1.49046000        0.91258943        0.29539227
H          -1.49046000       -0.91258943       -0.29539227
H           1.49046000        0.91258943       -0.29539227
H           1.49046000       -0.91258943        0.29539227
6
MD Time 250.00
C          -0.91834245       -0.00000000        0.00000000
C           0.91834245       -0.00000000       -0.00000000
H          -1.48205065        0.91431746        0.28925594
H          -1.48205065       -0.91431746       -0.28925594
H           1.48205065        0.91431746       -0.28925594
H           1.48205065       -0.91431746        0.28925594
6
MD Time 260.00
C          -0.91123382       -0.00000000        0.00000000
C           0.91123382       -0.00000000       -0.00000000
H          -1.47331694        0.91583612        0.28278000
H          -1.47331694       -0.91583612       -0.28278000
H           1.47331693        0.91583612       -0.28278000
H           1.47331693       -0.91583612        0.28278000
6
MD Time 270.00
C          -0.90380476       -0.00000000        0.00000000
C           0.90380476       -0.00000000       -0.00000000
H          -1.46428267        0.91715937        0.27597092
H          -1.46428267       -0.91715937       -0.27597092
H           1.46428267        0.91715937       -0.27597092
H           1.46428267       -0.91715937        0.27597092
6
MD Time 280.00
C          -0.89604776       -0.00000000        0.00000000
C           0.89604776       -0.00000000       -0.00000000
H          -1.45497349        0.91830509        0.26883614
H          -1.45497349       -0.91830509       -0.26883614
H           1.45497349        0.91830509       -0.26883614
H           1.45497349       -0.91830509        0.26883614
6
MD Time 290.00
C          -0.88795523       -0.00000000        0.00000000
C           0.88795523       -0.00000000       -0.00000000
H          -1.44541646        0.91929450        0.26138381
H          -1.44541646       -0.91929450       -0.26138381
H           1.44541646        0.91929450       -0.26138381
H           1.44541646       -0.91929450        0.26138381
6
MD Time 300.00
C          -0.87951974       -0.00000000        0.00000000
C           0.87951974       -0.00000000       -0.00000000
H          -1.43563961        0.92015148        0.25362251
H          -1.43563961       -0.92015148       -0.25362251
H           1.43563961        0.92015148       -0.25362251
H           1.43563961       -0.92015148        0.25362251
6
MD Time 310.00
C          -0.87073412       -0.00000000        0.00000000
C           0.87073412       -0.00000000       -0.00000000
H          -1.42567147        0.92090178        0.24556099
H          -1.42567146       -0.92090178       -0.24556099
H           1.42567146        0.92090178       -0.24556098
H           1.42567146       -0.92090178        0.24556099
6
MD Time 320.00
C          -0.86159177       -0.00000000        0.00000000
C           0.86159177       -0.00000000       -0.00000000
H          -1.41554052        0.92157222        0.23720792
H          -1.41554052       -0.92157221       -0.23720792
H           1.41554052        0.92157222       -0.23720792
H           1.41554052       -0.92157221        0.23720792
6
MD Time 330.00
C          -0.85208683       -0.00000000        0.00000000
C           0.85208683       -0.00000000       -0.00000000
H          -1.40527474        0.92218974        0.22857168
H          -1.40527474       -0.92218974       -0.22857168
H           1.40527474        0.92218974       -0.22857168
H           1.40527474       -0.92218974        0.22857168
6
MD Time 340.00
C          -0.84221455       -0.00000000        0.00000000
C           0.84221455       -0.00000000       -0.00000000
H          -1.39490097        0.92278052        0.21966015
H          -1.39490097       -0.92278052       -0.21966015
H           1.39490097        0.92278052       -0.21966014
H           1.39490097       -0.92278052        0.21966015
6
MD Time 350.00
C          -0.83197156       -0.00000000        0.00000000
C           0.83197156       -0.00000000       -0.00000000
H          -1.38444444        0.92336899        0.21048057
H          -1.38444444       -0.92336899       -0.21048058
H           1.38444444        0.92336899       -0.21048057
H           1.38444443       -0.92336899        0.21048058
6
MD Time 360.00
C          -0.82135625       -0.00000000        0.00000000
C           0.82135625       -0.00000000       -0.00000000
H          -1.37392819        0.92397692        0.20103949
H          -1.37392819       -0.92397692       -0.20103950
H           1.37392819        0.92397692       -0.20103949
H           1.37392819       -0.92397692        0.20103950
6
MD Time 370.00
C          -0.81036917       -0.00000000        0.00000000
C           0.81036917       -0.00000000       -0.00000000
H          -1.36337264        0.92462256        0.19134271
H          -1.36337263       -0.92462256       -0.19134272
H           1.36337263        0.92462256       -0.19134271
H           1.36337263       -0.92462256        0.19134272
6
MD Time 380.00
C          -0.79901351       -0.00000000        0.00000000
C           0.79901351       -0.00000000       -0.00000000
H          -1.35279511        0.92531988        0.18139538
H          -1.35279510       -0.92531988       -0.18139539
H           1.35279510        0.92531989       -0.18139538
H           1.35279510       -0.92531988        0.18139539
6
MD Time 390.00
C          -0.78729558       -0.00000000        0.00000000
C           0.78729558       -0.00000000       -0.00000000
H          -1.34220949        0.92607793        0.17120209
H          -1.34220948       -0.92607792       -0.17120210
H           1.34220948        0.92607793       -0.17120208
H           1.34220948       -0.92607792        0.17120210
6
MD Time 400.00
C          -0.77522540       -0.00000000        0.00000000
C           0.77522540       -0.00000000       -0.00000000
H          -1.33162596        0.92690033        0.16076709
H          -1.33162596       -0.92690032       -0.16076711
H           1.33162596        0.92690033       -0.16076709
H           1.33162596       -0.92690033        0.16076710
6
MD Time 410.00
C          -0.76281728       -0.00000000        0.00000000
C           0.76281728       -0.00000000       -0.00000000
H          -1.32105086        0.92778505        0.15009460
H          -1.32105085       -0.92778505       -0.15009461
H           1.32105085        0.92778505       -0.15009459
H           1.32105085       -0.92778505        0.15009461
6
MD Time 420.00
C          -0.75009056       -0.00000000        0.00000000
C           0.75009056       -0.00000000       -0.00000000
H          -1.31048659        0.92872433        0.13918904
H          -1.31048659       -0.92872433       -0.13918906
H           1.31048659        0.92872433       -0.13918903
H           1.31048659       -0.92872433        0.13918906
6
MD Time 430.00
C          -0.73707033       -0.00000000        0.00000000
C           0.73707033       -0.00000000       -0.00000000
H          -1.29993181        0.92970481        0.12805552
H          -1.29993180       -0.92970481       -0.12805554
H           1.29993180        0.92970481       -0.12805551
H           1.29993180       -0.92970481        0.12805553
6
MD Time 440.00
C          -0.72378828       -0.00000000        0.00000000
C           0.72378828       -0.00000000       -0.00000000
H          -1.28938158        0.93070797        0.11670012
H          -1.28938158       -0.93070796       -0.11670014
H           1.28938158        0.93070797       -0.11670011
H           1.28938157       -0.93070796        0.11670014
6
MD Time 450.00
C          -0.71028364       -0.00000000        0.00000000
C           0.71028364       -0.00000000       -0.00000000
H          -1.27882785        0.93171070        0.10513036
H          -1.27882784       -0.93171070       -0.10513039
H           1.27882784        0.93171070       -0.10513035
H           1.27882784       -0.93171070        0.10513038
6
MD Time 460.00
C          -0.69660412       -0.00000000        0.00000000
C           0.69660412       -0.00000000       -0.00000000
H          -1.26825994        0.93268616        0.09335555
H          -1.26825993       -0.93268616       -0.09335557
H           1.26825993        0.93268616       -0.09335553
H           1.26825993       -0.93268616        0.09335556
6
MD Time 470.00
C          -0.68280698       -0.00000000        0.00000000
C           0.68280698       -0.00000000       -0.00000000
H          -1.25766526        0.93360473        0.08138710
H          -1.25766526       -0.93360473       -0.08138713
H           1.25766526        0.93360473       -0.08138709
H           1.25766525       -0.93360473        0.08138712
6
MD Time 480.00
C          -0.66896007       -0.00000000        0.00000000
C           0.66896007       -0.00000000       -0.00000000
H          -1.24703018        0.93443517        0.06923890
H          -1.24703018       -0.93443517       -0.06923892
H           1.24703018        0.93443518       -0.06923888
H           1.24703018       -0.93443517        0.06923892
6
MD Time 490.00
C          -0.65514292       -0.00000000        0.00000000
C           0.65514292       -0.00000000       -0.00000000
H          -1.23634097        0.93514586        0.05692743
H          -1.23634097       -0.93514586       -0.05692746
H           1.23634097        0.93514587       -0.05692741
H           1.23634096       -0.93514587        0.05692745
6
MD Time 500.00
C          -0.64144761       -0.00000000        0.00000000
C           0.64144761        0.00000000       -0.00000000
H          -1.22558493        0.93570612        0.04447200
H          -1.22558493       -0.93570612       -0.04447203
H           1.22558493        0.93570613       -0.04447198
H           1.22558492       -0.93570612        0.04447202
6
MD Time 510.00
C          -0.62797956       -0.00000000        0.00000000
C           0.62797956        0.00000000       -0.00000000
H          -1.21475161        0.93608754        0.03189475
H          -1.21475161       -0.93608753       -0.03189478
H           1.21475161        0.93608754       -0.03189473
H           1.21475160       -0.93608754        0.03189477
6
MD Time 520.00
C          -0.61485781       -0.00000000        0.00000000
C           0.61485781        0.00000000       -0.00000000
H          -1.20383413        0.93626534        0.01922064
H          -1.20383412       -0.93626534       -0.01922067
H           1.20383412        0.93626535       -0.01922061
H           1.20383412       -0.93626534        0.01922066
6
MD Time 530.00
C          -0.60221485       -0.00000000        0.00000000
C           0.60221486        0.00000000       -0.00000000
H          -1.19283055        0.93621973        0.00647735
H          -1.19283054       -0.93621973       -0.00647738
H           1.19283054        0.93621974       -0.00647732
H           1.19283054       -0.93621974        0.00647737
6
MD Time 540.00
C          -0.59019558       -0.00000000        0.00000000
C           0.59019558        0.00000000       -0.00000000
H          -1.18174530        0.93593715       -0.00630492
H          -1.18174529       -0.93593715        0.00630488
H           1.18174529        0.93593716        0.00630494
H           1.18174529       -0.93593716       -0.00630489
6
MD Time 550.00
C          -0.57895515       -0.00000000        0.00000000
C           0.57895515        0.00000000       -0.00000000
H          -1.17059058        0.93541152       -0.01909369
H          -1.17059057       -0.93541152        0.01909364
H           1.17059057        0.93541153        0.01909371
H           1.17059057       -0.93541153       -0.01909366
6
MD Time 560.00
C          -0.56865566       -0.00000000        0.00000000
C           0.56865566        0.00000000       -0.00000000
H          -1.15938772        0.93464538       -0.03185455
H          -1.15938771       -0.93464538        0.03185451
H           1.15938771        0.93464539        0.03185458
H           1.15938771       -0.93464539       -0.03185452
6
MD Time 570.00
C          -0.55946126       -0.00000000        0.00000000
C           0.55946126        0.00000000       -0.00000000
H          -1.14816846        0.93365098       -0.04455156
H          -1.14816845       -0.93365099        0.04455151
H           1.14816845        0.93365099        0.04455159
H           1.14816844       -0.93365099       -0.04455152
6
MD Time 580.00
C          -0.55153188       -0.00000000        0.00000000
C           0.55153188        0.00000000       -0.00000000
H          -1.13697597        0.93245128       -0.05714764
H          -1.13697596       -0.93245128        0.05714759
H           1.13697596        0.93245128        0.05714767
H           1.13697596       -0.93245128       -0.05714760
6
MD Time 590.00
C          -0.54501572       -0.00000000        0.00000000
C           0.54501572        0.00000000       -0.00000000
H          -1.12586577        0.93108075       -0.06960515
H          -1.12586576       -0.93108076        0.06960510
H           1.12586576        0.93108076        0.06960518
H           1.12586576       -0.93108076       -0.06960511
6
MD Time 600.00
C          -0.54004094       -0.00000000        0.00000000
C           0.54004095        0.00000000       -0.00000000
H          -1.11490617        0.92958614       -0.08188640
H          -1.11490616       -0.92958615        0.08188635
H           1.11490616        0.92958615        0.08188644
H           1.11490616       -0.92958615       -0.08188637
6
MD Time 610.00
C          -0.53670752       -0.00000000        0.00000000
C           0.53670752        0.00000000       -0.00000000
H          -1.10417844        0.92802682       -0.09395431
H          -1.10417843       -0.92802682        0.09395426
H           1.10417843        0.92802682        0.09395435
H           1.10417842       -0.92802683       -0.09395428
6
MD Time 620.00
C          -0.53507997       -0.00000000        0.00000000
C           0.53507998        0.00000000       -0.00000000
H          -1.09377634        0.92647479       -0.10577303
H          -1.09377633       -0.92647480        0.10577297
H           1.09377633        0.92647480        0.10577306
H           1.09377633       -0.92647480       -0.10577299
6
MD Time 630.00
C          -0.53518228       -0.00000000        0.00000000
C           0.53518228        0.00000000       -0.00000000
H          -1.08380518        0.92501421       -0.11730858
H          -1.08380517       -0.92501422        0.11730852
H           1.08380517        0.92501421        0.11730862
H           1.08380517       -0.92501422       -0.11730854
6
MD Time 640.00
C          -0.53699546       -0.00000000        0.00000000
C           0.53699546        0.00000000       -0.00000000
H          -1.07438009        0.92374008       -0.12852954
H          -1.07438008       -0.92374009        0.12852948
H           1.07438008        0.92374008        0.12852958
H           1.07438008       -0.92374009       -0.12852950
6
MD Time 650.00
C          -0.54045850       -0.00000000        0.00000000
C           0.54045850        0.00000000       -0.00000000
H          -1.06562362        0.92275615       -0.13940753
H          -1.06562361       -0.92275616        0.13940747
H           1.06562361        0.92275616        0.13940757
H           1.06562361       -0.92275617       -0.13940749
6
MD Time 660.00
C          -0.54547232       -0.00000000        0.00000000
C           0.54547232        0.00000000       -0.00000000
H          -1.05766259        0.92217179       -0.14991760
H          -1.05766258       -0.92217180        0.14991754
H           1.05766258        0.92217180        0.14991764
H           1.05766258       -0.92217180       -0.14991756
6
MD Time 670.00
C          -0.55190640        0.00000000        0.00000000
C           0.55190640        0.00000000       -0.00000000
H          -1.05062436        0.92209781       -0.16003838
H          -1.05062435       -0.92209782        0.16003831
H           1.05062435        0.92209781        0.16003842
H           1.05062435       -0.92209782       -0.16003834
6
MD Time 680.00
C          -0.55960689        0.00000000        0.00000000
C           0.55960689        0.00000000       -0.00000000
H          -1.04463257        0.92264140       -0.16975188
H          -1.04463257       -0.92264141        0.16975182
H           1.04463256        0.92264140        0.16975193
H           1.04463256       -0.92264141       -0.16975184
6
MD Time 690.00
C          -0.56840549        0.00000000        0.00000000
C           0.56840549        0.00000000       -0.00000000
H          -1.03980281        0.92390033       -0.17904305
H          -1.03980281       -0.92390035        0.17904298
H           1.03980280        0.92390033        0.17904309
H           1.03980280       -0.92390034       -0.17904301
6
MD Time 700.00
C          -0.57812778        0.00000000       -0.00000000
C           0.57812779        0.00000000       -0.00000000
H          -1.03623836        0.92595690       -0.18789890
H          -1.03623835       -0.92595692        0.18789883
H           1.03623835        0.92595691        0.18789895
H           1.03623835       -0.92595692       -0.18789886
6
MD Time 710.00
C          -0.58860072        0.00000000       -0.00000000
C           0.58860072        0.00000000       -0.00000000
H          -1.03402652        0.92887204       -0.19630748
H          -1.03402651       -0.92887206        0.19630742
H           1.03402651        0.92887204        0.19630754
H           1.03402651       -0.92887205       -0.19630745
6
MD Time 720.00
C          -0.59965844        0.00000000       -0.00000000
C           0.59965845        0.00000000       -0.00000000
H          -1.03323579        0.93268020       -0.20425669
H          -1.03323578       -0.93268022        0.20425662
H           1.03323577        0.93268021        0.20425674
H           1.03323578       -0.93268022       -0.20425665
6
MD Time 730.00
C          -0.61114658        0.00000000       -0.00000000
C           0.61114658        0.00000000       -0.00000000
H          -1.03391408        0.93738564       -0.21173303
H          -1.03391407       -0.93738566        0.21173296
H           1.03391407        0.93738564        0.21173308
H           1.03391407       -0.93738566       -0.21173299
6
MD Time 740.00
C          -0.62292493       -0.00000000       -0.00000000
C           0.62292493        0.00000000       -0.00000000
H          -1.03608812        0.94296032       -0.21872072
H          -1.03608811       -0.94296034        0.21872065
H           1.03608810        0.94296032        0.21872077
H           1.03608811       -0.94296034       -0.21872068
6
MD Time 750.00
C          -0.63486883       -0.00000000       -0.00000000
C           0.63486883        0.00000000       -0.00000000
H          -1.03976389        0.94934386       -0.22520097
H          -1.03976389       -0.94934388        0.22520090
H           1.03976388        0.94934386        0.22520103
H           1.03976389       -0.94934387       -0.22520094
6
MD Time 760.00
C          -0.64686940       -0.00000000       -0.00000000
C           0.64686940        0.00000000        0.00000000
H          -1.04492806        0.95644531       -0.23115180
H          -1.04492805       -0.95644533        0.23115173
H           1.04492805        0.95644530        0.23115186
H           1.04492805       -0.95644532       -0.23115176
6
MD Time 770.00
C          -0.65883305       -0.00000000       -0.00000000
C           0.65883306        0.00000000        0.00000000
H          -1.05154995        0.96414669       -0.23654818
H          -1.05154994       -0.96414671        0.23654810
H           1.05154994        0.96414668        0.23654824
H           1.05154994       -0.96414670       -0.23654814
6
MD Time 780.00
C          -0.67068044       -0.00000000       -0.00000000
C           0.67068044        0.00000000        0.00000000
H          -1.05958398        0.97230772       -0.24136261
H          -1.05958398       -0.97230774        0.24136254
H           1.05958397        0.97230771        0.24136267
H           1.05958397       -0.97230773       -0.24136258
6
MD Time 790.00
C          -0.68234513       -0.00000000       -0.00000000
C           0.68234513        0.00000000        0.00000000
H          -1.06897222        0.98077132       -0.24556602
H          -1.06897221       -0.98077134        0.24556595
H           1.06897220        0.98077131        0.24556608
H           1.06897221       -0.98077133       -0.24556599
6
MD Time 800.00
C          -0.69377219       -0.00000000       -0.00000000
C           0.69377220        0.00000000        0.00000000
H          -1.07964678        0.98936943       -0.24912873
H          -1.07964677       -0.98936945        0.24912866
H           1.07964677        0.98936942        0.24912880
H           1.07964677       -0.98936944       -0.24912870
6
MD Time 810.00
C          -0.70491675       -0.00000000       -0.00000000
C           0.70491675        0.00000000        0.00000000
H          -1.09153210        0.99792856       -0.25202158
H          -1.09153209       -0.99792859        0.25202150
H           1.09153209        0.99792856        0.25202164
H           1.09153209       -0.99792857       -0.25202154
6
MD Time 820.00
C          -0.71574260       -0.00000000       -0.00000000
C           0.71574260        0.00000000        0.00000000
H          -1.10454687        1.00627501       -0.25421691
H          -1.10454686       -1.00627503        0.25421684
H           1.10454685        1.00627500        0.25421698
H           1.10454686       -1.00627502       -0.25421688
6
MD Time 830.00
C          -0.72622098       -0.00000000       -0.00000000
C           0.72622098        0.00000000        0.00000000
H          -1.11860561        1.01423922       -0.25568956
H          -1.11860560       -1.01423924        0.25568948
H           1.11860560        1.01423921        0.25568963
H           1.11860560       -1.01423923       -0.25568953
6
MD Time 840.00
C          -0.73632948       -0.00000000       -0.00000000
C           0.73632948        0.00000000        0.00000000
H          -1.13362006        1.02165951       -0.25641755
H          -1.13362005       -1.02165953        0.25641747
H           1.13362005        1.02165950        0.25641762
H           1.13362005       -1.02165952       -0.25641751
6
MD Time 850.00
C          -0.74605107       -0.00000000       -0.00000001
C           0.74605107        0.00000000        0.00000000
H          -1.14950015        1.02838492       -0.25638269
H          -1.14950014       -1.02838494        0.25638261
H           1.14950014        1.02838491        0.25638276
H           1.14950014       -1.02838492       -0.25638266
6
MD Time 860.00
C          -0.75537324       -0.00000000       -0.00000001
C           0.75537324        0.00000000        0.00000000
H          -1.16615488        1.03427738       -0.25557104
H          -1.16615486       -1.03427740        0.25557096
H           1.16615486        1.03427737        0.25557112
H           1.16615487       -1.03427739       -0.25557101
6
MD Time 870.00
C          -0.76428734       -0.00000000       -0.00000001
C           0.76428734        0.00000000        0.00000000
H          -1.18349289        1.03921328       -0.25397313
H          -1.18349288       -1.03921331        0.25397304
H           1.18349288        1.03921327        0.25397320
H           1.18349288       -1.03921329       -0.25397310
6
MD Time 880.00
C          -0.77278791       -0.00000000       -0.00000001
C           0.77278791        0.00000000        0.00000000
H          -1.20142307        1.04308448       -0.25158411
H          -1.20142306       -1.04308450        0.25158402
H           1.20142306        1.04308447        0.25158418
H           1.20142306       -1.04308448       -0.25158407
6
MD Time 890.00
C          -0.78087217       -0.00000000       -0.00000001
C           0.78087217        0.00000000        0.00000001
H          -1.21985487        1.04579894       -0.24840382
H          -1.21985486       -1.04579896        0.24840373
H           1.21985486        1.04579892        0.24840389
H           1.21985486       -1.04579894       -0.24840378
6
MD Time 900.00
C          -0.78853958       -0.00000000       -0.00000001
C           0.78853958        0.00000000        0.00000001
H          -1.23869872        1.04728110       -0.24443671
H          -1.23869871       -1.04728112        0.24443662
H           1.23869871        1.04728109        0.24443678
H           1.23869871       -1.04728110       -0.24443668
6
MD Time 910.00
C          -0.79579145       -0.00000000       -0.00000001
C           0.79579145        0.00000000        0.00000001
H          -1.25786631        1.04747206       -0.23969180
H          -1.25786630       -1.04747208        0.23969171
H           1.25786630        1.04747205        0.23969187
H           1.25786630       -1.04747206       -0.23969176
6
MD Time 920.00
C          -0.80263054       -0.00000000       -0.00000001
C           0.80263054        0.00000000        0.00000001
H          -1.27727092        1.04632956       -0.23418246
H          -1.27727090       -1.04632958        0.23418237
H           1.27727091        1.04632955        0.23418254
H           1.27727090       -1.04632956       -0.23418243
6
MD Time 930.00
C          -0.80906083       -0.00000000       -0.00000001
C           0.80906083        0.00000000        0.00000001
H          -1.29682765        1.04382801       -0.22792633
H          -1.29682764       -1.04382803        0.22792624
H           1.29682764        1.04382800        0.22792640
H           1.29682764       -1.04382801       -0.22792629
6
MD Time 940.00
C          -0.81508722       -0.00000000       -0.00000001
C           0.81508722        0.00000000        0.00000001
H          -1.31645384        1.03995837       -0.22094503
H          -1.31645382       -1.03995839        0.22094494
H           1.31645383        1.03995836        0.22094511
H           1.31645383       -1.03995837       -0.22094500
6
MD Time 950.00
C          -0.82071527       -0.00000000       -0.00000001
C           0.82071527        0.00000000        0.00000001
H          -1.33606929        1.03472810       -0.21326402
H          -1.33606927       -1.03472812        0.21326393
H           1.33606928        1.03472809        0.21326409
H           1.33606928       -1.03472810       -0.21326398
6
MD Time 960.00
C          -0.82595103       -0.00000000       -0.00000001
C           0.82595103        0.00000000        0.00000001
H          -1.35559668        1.02816102       -0.20491227
H          -1.35559666       -1.02816105        0.20491218
H           1.35559667        1.02816102        0.20491234
H           1.35559667       -1.02816102       -0.20491223
6
MD Time 970.00
C          -0.83080078       -0.00000000       -0.00000001
C           0.83080078        0.00000000        0.00000001
H          -1.37496193        1.02029727       -0.19592205
H          -1.37496192       -1.02029729        0.19592196
H           1.37496193        1.02029726        0.19592212
H           1.37496192       -1.02029726       -0.19592201
6
MD Time 980.00
C          -0.83527091       -0.00000000       -0.00000001
C           0.83527091        0.00000000        0.00000001
H          -1.39409460        1.01119304       -0.18632859
H          -1.39409458       -1.01119306        0.18632850
H           1.39409459        1.01119303        0.18632866
H           1.39409458       -1.01119304       -0.18632855
6
MD Time 990.00
C          -0.83936772       -0.00000000       -0.00000001
C           0.83936772        0.00000000        0.00000001
H          -1.41292826        1.00092046       -0.17616975
H          -1.41292824       -1.00092048        0.17616966
H           1.41292825        1.00092045        0.17616981
H           1.41292824       -1.00092045       -0.17616971
6
MD Time 1000.00
C          -0.84309729       -0.00000000       -0.00000001
C           0.84309729        0.00000000        0.00000001
H          -1.43140091        0.98956717       -0.16548561
H          -1.43140088       -0.98956719        0.16548552
H           1.43140090        0.98956716        0.16548568
H           1.43140089       -0.98956716       -0.16548557
6
MD Time 1010.00
C          -0.84646537       -0.00000000       -0.00000001
C           0.84646537        0.00000000        0.00000001
H          -1.44945532        0.97723589       -0.15431808
H          -1.44945530       -0.97723591        0.15431799
H           1.44945531        0.97723589        0.15431815
H           1.44945530       -0.97723589       -0.15431804
6
MD Time 1020.00
C          -0.84947725       -0.00000000       -0.00000001
C           0.84947725        0.00000000        0.00000001
H          -1.46703931        0.96404372       -0.14271037
H          -1.46703929       -0.96404374        0.14271028
H           1.46703931        0.96404372        0.14271044
H           1.46703930       -0.96404372       -0.14271033
6
MD Time 1030.00
C          -0.85213772       -0.00000000       -0.00000001
C           0.85213772        0.00000000        0.00000001
H          -1.48410595        0.95012119       -0.13070652
H          -1.48410593       -0.95012121        0.13070643
H           1.48410595        0.95012119        0.13070658
H           1.48410593       -0.95012119       -0.13070648
6
MD Time 1040.00
C          -0.85445105       -0.00000000       -0.00000001
C           0.85445105        0.00000000        0.00000001
H          -1.50061357        0.93561102       -0.11835077
H          -1.50061355       -0.93561104        0.11835068
H           1.50061357        0.93561102        0.11835083
H           1.50061356       -0.93561102       -0.11835073
6
MD Time 1050.00
C          -0.85642094       -0.00000000       -0.00000001
C           0.85642094        0.00000000        0.00000001
H          -1.51652567        0.92066654       -0.10568703
H          -1.51652565       -0.92066656        0.10568694
H           1.51652567        0.92066654        0.10568709
H           1.51652565       -0.92066654       -0.10568699
6
MD Time 1060.00
C          -0.85805064       -0.00000000       -0.00000001
C           0.85805064        0.00000000        0.00000001
H          -1.53181054        0.90544973       -0.09275824
H          -1.53181052       -0.90544975        0.09275815
H           1.53181054        0.90544973        0.09275830
H           1.53181052       -0.90544973       -0.09275820
6
MD Time 1070.00
C          -0.85934298       -0.00000000       -0.00000002
C           0.85934298        0.00000000        0.00000001
H          -1.54644072        0.89012884       -0.07960576
H          -1.54644069       -0.89012886        0.07960567
H           1.54644072        0.89012884        0.07960581
H           1.54644070       -0.89012884       -0.07960571
6
MD Time 1080.00
C          -0.86030058       -0.00000000       -0.00000002
C           0.86030058        0.00000000        0.00000001
H          -1.56039214        0.87487569       -0.06626882
H          -1.56039211       -0.87487572        0.06626873
H           1.56039214        0.87487570        0.06626888
H           1.56039212       -0.87487570       -0.06626877
6
MD Time 1090.00
C          -0.86092598       -0.00000000       -0.00000002
C           0.86092598        0.00000000        0.00000002
H          -1.57364307        0.85986261       -0.05278406
H          -1.57364304       -0.85986263        0.05278397
H           1.57364307        0.85986262        0.05278412
H           1.57364305       -0.85986261       -0.05278401
6
MD Time 1100.00
C          -0.86122189       -0.00000000       -0.00000002
C           0.86122189        0.00000000        0.00000002
H          -1.58617286        0.84525913       -0.03918513
H          -1.58617283       -0.84525916        0.03918504
H           1.58617286        0.84525914        0.03918518
H           1.58617284       -0.84525914       -0.03918508
6
MD Time 1110.00
C          -0.86119148       -0.00000000       -0.00000002
C           0.86119148        0.00000000        0.00000002
H          -1.59796049        0.83122868       -0.02550247
H          -1.59796046       -0.83122871        0.02550238
H           1.59796049        0.83122869        0.02550252
H           1.59796047       -0.83122869       -0.02550242
6
MD Time 1120.00
C          -0.86083854       -0.00000000       -0.00000002
C           0.86083854        0.00000000        0.00000002
H          -1.60898313        0.81792523       -0.01176327
H          -1.60898310       -0.81792526        0.01176318
H           1.60898313        0.81792524        0.01176332
H           1.60898311       -0.81792524       -0.01176322
6
MD Time 1130.00
C          -0.86016785       -0.00000000       -0.00000002
C           0.86016785        0.00000000        0.00000002
H          -1.61921468        0.80549026        0.00200839
H          -1.61921465       -0.80549029       -0.00200847
H           1.61921468        0.80549028       -0.00200833
H           1.61921466       -0.80549028        0.00200843
6
MD Time 1140.00
C          -0.85918530       -0.00000000       -0.00000002
C           0.85918530        0.00000000        0.00000002
H          -1.62862457        0.79405009        0.01579119
H          -1.62862454       -0.79405011       -0.01579128
H           1.62862457        0.79405010       -0.01579114
H           1.62862455       -0.79405010        0.01579124
6
MD Time 1150.00
C          -0.85789810       -0.00000000       -0.00000002
C           0.85789810        0.00000000        0.00000002
H          -1.63717676        0.78371368        0.02956613
H          -1.63717673       -0.78371371       -0.02956622
H           1.63717676        0.78371370       -0.02956608
H           1.63717675       -0.78371370        0.02956618
6
MD Time 1160.00
C          -0.85631485       -0.00000000       -0.00000002
C           0.85631485        0.00000000        0.00000002
H          -1.64482926        0.77457114        0.04331580
H          -1.64482922       -0.77457117       -0.04331589
H           1.64482925        0.77457116       -0.04331575
H           1.64482924       -0.77457116        0.04331585
6
MD Time 1170.00
C          -0.85444557       -0.00000000       -0.00000002
C           0.85444557        0.00000000        0.00000002
H          -1.65153395        0.76669268        0.05702375
H          -1.65153392       -0.76669271       -0.05702384
H           1.65153395        0.76669270       -0.05702370
H           1.65153393       -0.76669270        0.05702380
6
MD Time 1180.00
C          -0.85230162       -0.00000000       -0.00000002
C           0.85230162        0.00000000        0.00000002
H          -1.65723709        0.76012833        0.07067366
H          -1.65723706       -0.76012835       -0.07067375
H           1.65723709        0.76012834       -0.07067361
H           1.65723707       -0.76012834        0.07067371
6
MD Time 1190.00
C          -0.84989554       -0.00000000       -0.00000002
C           0.84989554        0.00000000        0.00000002
H          -1.66188008        0.75490804        0.08424862
H          -1.66188005       -0.75490807       -0.08424871
H           1.66188008        0.75490806       -0.08424857
H           1.66188006       -0.75490806        0.08424867
6
MD Time 1200.00
C          -0.84724086       -0.00000000       -0.00000002
C           0.84724085        0.00000000        0.00000002
H          -1.66540073        0.75104244        0.09773041
H          -1.66540070       -0.75104247       -0.09773050
H           1.66540073        0.75104246       -0.09773037
H           1.66540071       -0.75104246        0.09773047
6
MD Time 1210.00
C          -0.84435178       -0.00000000       -0.00000002
C           0.84435178        0.00000000        0.00000002
H          -1.66773478        0.74852383        0.11109896
H          -1.66773474       -0.74852386       -0.11109905
H           1.66773478        0.74852385       -0.11109892
H           1.66773476       -0.74852385        0.11109902
6
MD Time 1220.00
C          -0.84124296       -0.00000000       -0.00000002
C           0.84124296        0.00000001        0.00000002
H          -1.66881760        0.74732758        0.12433183
H          -1.66881756       -0.74732761       -0.12433192
H           1.66881759        0.74732760       -0.12433178
H           1.66881757       -0.74732760        0.12433188
6
MD Time 1230.00
C          -0.83792912       -0.00000000       -0.00000002
C           0.83792912        0.00000001        0.00000002
H          -1.66858595        0.74741376        0.13740390
H          -1.66858592       -0.74741379       -0.13740399
H           1.66858595        0.74741378       -0.13740386
H           1.66858593       -0.74741378        0.13740396
6
MD Time 1240.00
C          -0.83442480       -0.00000000       -0.00000002
C           0.83442479        0.00000001        0.00000002
H          -1.66697977        0.74872887        0.15028727
H          -1.66697974       -0.74872891       -0.15028736
H           1.66697977        0.74872889       -0.15028722
H           1.66697975       -0.74872890        0.15028732
6
MD Time 1250.00
C          -0.83074405       -0.00000000       -0.00000002
C           0.83074405        0.00000001        0.00000002
H          -1.66394378        0.75120772        0.16295117
H          -1.66394374       -0.75120775       -0.16295126
H           1.66394377        0.75120774       -0.16295112
H           1.66394375       -0.75120774        0.16295122
6
MD Time 1260.00
C          -0.82690022       -0.00000000       -0.00000002
C           0.82690022        0.00000001        0.00000002
H          -1.65942897        0.75477527        0.17536216
H          -1.65942893       -0.75477531       -0.17536225
H           1.65942896        0.75477529       -0.17536211
H           1.65942894       -0.75477530        0.17536221
6
MD Time 1270.00
C          -0.82290567       -0.00000000       -0.00000002
C           0.82290567        0.00000001        0.00000002
H          -1.65339396        0.75934851        0.18748435
H          -1.65339392       -0.75934855       -0.18748444
H           1.65339395        0.75934854       -0.18748430
H           1.65339393       -0.75934854        0.18748440
6
MD Time 1280.00
C          -0.81877165       -0.00000000       -0.00000002
C           0.81877165        0.00000001        0.00000002
H          -1.64580605        0.76483823        0.19927979
H          -1.64580601       -0.76483826       -0.19927989
H           1.64580604        0.76483825       -0.19927975
H           1.64580602       -0.76483825        0.19927985
6
MD Time 1290.00
C          -0.81450814       -0.00000000       -0.00000002
C           0.81450814        0.00000001        0.00000002
H          -1.63664219        0.77115069        0.21070892
H          -1.63664215       -0.77115072       -0.21070901
H           1.63664218        0.77115071       -0.21070887
H           1.63664216       -0.77115071        0.21070898
6
MD Time 1300.00
C          -0.81012375       -0.00000000       -0.00000002
C           0.81012375        0.00000001        0.00000002
H          -1.62588965        0.77818925        0.22173102
H          -1.62588961       -0.77818928       -0.22173111
H           1.62588964        0.77818927       -0.22173097
H           1.62588962       -0.77818927        0.22173108
6
MD Time 1310.00
C          -0.80562561       -0.00000000       -0.00000002
C           0.80562561        0.00000001        0.00000002
H          -1.61354664        0.78585582        0.23230480
H          -1.61354660       -0.78585586       -0.23230490
H           1.61354663        0.78585585       -0.23230476
H           1.61354661       -0.78585585        0.23230486
6
MD Time 1320.00
C          -0.80101940       -0.00000000       -0.00000002
C           0.80101940        0.00000001        0.00000002
H          -1.59962269        0.79405228        0.24238896
H          -1.59962265       -0.79405232       -0.24238905
H           1.59962268        0.79405231       -0.24238892
H           1.59962266       -0.79405231        0.24238902
6
MD Time 1330.00
C          -0.79630924       -0.00000000       -0.00000002
C           0.79630924        0.00000001        0.00000002
H          -1.58413896        0.80268173        0.25194270
H          -1.58413892       -0.80268176       -0.25194279
H           1.58413895        0.80268175       -0.25194266
H           1.58413893       -0.80268175        0.25194276
6
MD Time 1340.00
C          -0.79149780       -0.00000000       -0.00000002
C           0.79149780        0.00000001        0.00000002
H          -1.56712841        0.81164966        0.26092633
H          -1.56712836       -0.81164970       -0.26092643
H           1.56712840        0.81164969       -0.26092629
H           1.56712837       -0.81164969        0.26092639
6
MD Time 1350.00
C          -0.78658625       -0.00000000       -0.00000002
C           0.78658625        0.00000001        0.00000002
H          -1.54863585        0.82086515        0.26930178
H          -1.54863581       -0.82086519       -0.26930188
H           1.54863584        0.82086518       -0.26930175
H           1.54863581       -0.82086518        0.26930185
6
MD Time 1360.00
C          -0.78157437       -0.00000000       -0.00000002
C           0.78157437        0.00000001        0.00000002
H          -1.52871796        0.83024182        0.27703315
H          -1.52871792       -0.83024185       -0.27703324
H           1.52871795        0.83024185       -0.27703311
H           1.52871792       -0.83024185        0.27703322
6
MD Time 1370.00
C          -0.77646062       -0.00000000       -0.00000002
C           0.77646063        0.00000001        0.00000002
H          -1.50744312        0.83969884        0.28408713
H          -1.50744307       -0.83969887       -0.28408723
H           1.50744311        0.83969887       -0.28408710
H           1.50744308       -0.83969886        0.28408720
6
MD Time 1380.00
C          -0.77124227       -0.00000000       -0.00000002
C           0.77124227        0.00000001        0.00000002
H          -1.48489121        0.84916182        0.29043352
H          -1.48489116       -0.84916185       -0.29043362
H           1.48489120        0.84916185       -0.29043349
H           1.48489117       -0.84916185        0.29043359
6
MD Time 1390.00
C          -0.76591548       -0.00000000       -0.00000002
C           0.76591548        0.00000000        0.00000002
H          -1.46115327        0.85856364        0.29604559
H          -1.46115322       -0.85856366       -0.29604568
H           1.46115325        0.85856366       -0.29604555
H           1.46115322       -0.85856366        0.29604566
6
MD Time 1400.00
C          -0.76047555       -0.00000000       -0.00000002
C           0.76047555        0.00000000        0.00000002
H          -1.43633104        0.86784511        0.30090041
H          -1.43633099       -0.86784514       -0.30090050
H           1.43633103        0.86784514       -0.30090038
H           1.43633100       -0.86784513        0.30090048
6
MD Time 1410.00
C          -0.75491708       -0.00000000       -0.00000002
C           0.75491708        0.00000000        0.00000002
H          -1.41053642        0.87695565        0.30497916
H          -1.41053637       -0.87695568       -0.30497926
H           1.41053641        0.87695568       -0.30497914
H           1.41053638       -0.87695567        0.30497924
6
MD Time 1420.00
C          -0.74923423       -0.00000000       -0.00000002
C           0.74923423        0.00000000        0.00000002
H          -1.38389073        0.88585371        0.30826735
H          -1.38389068       -0.88585374       -0.30826744
H           1.38389072        0.88585374       -0.30826732
H           1.38389069       -0.88585373        0.30826742
6
MD Time 1430.00
C          -0.74342102       -0.00000000       -0.00000002
C           0.74342102        0.00000000        0.00000002
H          -1.35652390        0.89450709        0.31075487
H          -1.35652385       -0.89450711       -0.31075497
H           1.35652389        0.89450711       -0.31075485
H           1.35652386       -0.89450710        0.31075495
6
MD Time 1440.00
C          -0.73747163       -0.00000000       -0.00000002
C           0.73747163        0.00000000        0.00000002
H          -1.32857345        0.90289303        0.31243612
H          -1.32857340       -0.90289305       -0.31243622
H           1.32857344        0.90289306       -0.31243610
H           1.32857341       -0.90289305        0.31243620
6
MD Time 1450.00
C          -0.73138082       -0.00000000       -0.00000002
C           0.73138082        0.00000000        0.00000002
H          -1.30018341        0.91099816        0.31330988
H          -1.30018336       -0.91099818       -0.31330997
H           1.30018340        0.91099819       -0.31330986
H           1.30018337       -0.91099818        0.31330996
6
MD Time 1460.00
C          -0.72514430       -0.00000000       -0.00000002
C           0.72514430        0.00000000        0.00000002
H          -1.27150305        0.91881809        0.31337916
H          -1.27150300       -0.91881811       -0.31337926
H           1.27150304        0.91881811       -0.31337914
H           1.27150301       -0.91881810        0.31337925
6
MD Time 1470.00
C          -0.71875923       -0.00000000       -0.00000002
C           0.71875923        0.00000000        0.00000002
H          -1.24268558        0.92635682        0.31265099
H          -1.24268553       -0.92635684       -0.31265108
H           1.24268557        0.92635685       -0.31265097
H           1.24268554       -0.92635684        0.31265107
6
MD Time 1480.00
C          -0.71222466       -0.00000000       -0.00000002
C           0.71222466        0.00000000        0.00000002
H          -1.21388670        0.93362591        0.31113598
H          -1.21388665       -0.93362593       -0.31113608
H           1.21388668        0.93362593       -0.31113596
H           1.21388666       -0.93362592        0.31113606
6
MD Time 1490.00
C          -0.70554208       -0.00000000       -0.00000002
C           0.70554208        0.00000000        0.00000002
H          -1.18526314        0.94064326        0.30884796
H          -1.18526308       -0.94064328       -0.30884805
H           1.18526312        0.94064329       -0.30884794
H           1.18526309       -0.94064327        0.30884804
6
MD Time 1500.00
C          -0.69871593       -0.00000000       -0.00000002
C           0.69871593        0.00000000        0.00000002
H          -1.15697120        0.94743181        0.30580342
H          -1.15697115       -0.94743183       -0.30580352
H           1.15697118        0.94743184       -0.30580341
H           1.15697116       -0.94743182        0.30580351
6
MD Time 1510.00
C          -0.69175411       -0.00000000       -0.00000002
C           0.69175411        0.00000000        0.00000002
H          -1.12916532        0.95401793        0.30202101
H          -1.12916527       -0.95401794       -0.30202110
H           1.12916531        0.95401796       -0.30202099
H           1.12916528       -0.95401794        0.30202109
6
MD Time 1520.00
C          -0.68466850       -0.00000000       -0.00000002
C           0.68466850        0.00000000        0.00000002
H          -1.10199676        0.96042967        0.29752092
H          -1.10199671       -0.96042969       -0.29752101
H           1.10199675        0.96042970       -0.29752091
H           1.10199672       -0.96042968        0.29752101
6
MD Time 1530.00
C          -0.67747544       -0.00000000       -0.00000002
C           0.67747544        0.00000000        0.00000002
H          -1.07561239        0.96669499        0.29232440
H          -1.07561234       -0.96669501       -0.29232449
H           1.07561237        0.96669502       -0.29232438
H           1.07561235       -0.96669500        0.29232449
6
MD Time 1540.00
C          -0.67019614       -0.00000000       -0.00000002
C           0.67019615        0.00000000        0.00000002
H          -1.05015369        0.97283991        0.28645321
H          -1.05015365       -0.97283992       -0.28645331
H           1.05015368        0.97283993       -0.28645320
H           1.05015365       -0.97283991        0.28645330
6
MD Time 1550.00
C          -0.66285705       -0.00000000       -0.00000002
C           0.66285706        0.00000000        0.00000002
H          -1.02575602        0.97888678        0.27992928
H          -1.02575598       -0.97888679       -0.27992937
H           1.02575600        0.97888680       -0.27992926
H           1.02575598       -0.97888678        0.27992937
6
MD Time 1560.00
C          -0.65549012       -0.00000001       -0.00000002
C           0.65549012        0.00000000        0.00000002
H          -1.00254798        0.98485274        0.27277431
H          -1.00254793       -0.98485275       -0.27277441
H           1.00254796        0.98485276       -0.27277430
H           1.00254794       -0.98485274        0.27277441
6
MD Time 1570.00
C          -0.64813297       -0.00000001       -0.00000002
C           0.64813297        0.00000000        0.00000002
H          -0.98065106        0.99074840        0.26500972
H          -0.98065102       -0.99074841       -0.26500981
H           0.98065104        0.99074842       -0.26500970
H           0.98065102       -0.99074840        0.26500981
6
MD Time 1580.00
C          -0.64082890       -0.00000001       -0.00000002
C           0.64082890        0.00000000        0.00000002
H          -0.96017940        0.99657684        0.25665644
H          -0.96017936       -0.99657685       -0.25665654
H           0.96017939        0.99657686       -0.25665643
H           0.96017937       -0.99657684        0.25665654
6
MD Time 1590.00
C          -0.63362681       -0.00000001       -0.00000002
C           0.63362681        0.00000000        0.00000002
H          -0.94123960        1.00233301        0.24773509
H          -0.94123956       -1.00233302       -0.24773518
H           0.94123958        1.00233303       -0.24773508
H           0.94123956       -1.00233301        0.24773519
6
MD Time 1600.00
C          -0.62658086       -0.00000001       -0.00000002
C           0.62658086        0.00000000        0.00000002
H          -0.92393046        1.00800343        0.23826599
H          -0.92393042       -1.00800344       -0.23826609
H           0.92393044        1.00800345       -0.23826598
H           0.92393043       -1.00800343        0.23826609
6
MD Time 1610.00
C          -0.61974995       -0.00000001       -0.00000002
C           0.61974995        0.00000000        0.00000002
H          -0.90834277        1.01356636        0.22826942
H          -0.90834273       -1.01356636       -0.22826952
H           0.90834275        1.01356637       -0.22826941
H           0.90834273       -1.01356635        0.22826952
6
MD Time 1620.00
C          -0.61319705       -0.00000001       -0.00000002
C           0.61319705        0.00000000        0.00000002
H          -0.89455881        1.01899218        0.21776579
H          -0.89455878       -1.01899218       -0.21776589
H           0.89455879        1.01899219       -0.21776579
H           0.89455879       -1.01899217        0.21776590
6
MD Time 1630.00
C          -0.60698813       -0.00000001       -0.00000002
C           0.60698814        0.00000000        0.00000002
H          -0.88265186        1.02424419        0.20677589
H          -0.88265183       -1.02424420       -0.20677599
H           0.88265184        1.02424420       -0.20677589
H           0.88265183       -1.02424418        0.20677600
6
MD Time 1640.00
C          -0.60119102       -0.00000001       -0.00000002
C           0.60119102        0.00000000        0.00000002
H          -0.87268540        1.02927954        0.19532110
H          -0.87268537       -1.02927955       -0.19532120
H           0.87268537        1.02927956       -0.19532110
H           0.87268537       -1.02927954        0.19532121
6
MD Time 1650.00
C          -0.59587383       -0.00000001       -0.00000002
C           0.59587384        0.00000000        0.00000002
H          -0.86471233        1.03405038        0.18342361
H          -0.86471230       -1.03405039       -0.18342371
H           0.86471231        1.03405039       -0.18342360
H           0.86471230       -1.03405038        0.18342372
6
MD Time 1660.00
C          -0.59110335       -0.00000001       -0.00000002
C           0.59110335        0.00000000        0.00000002
H          -0.85877409        1.03850511        0.17110661
H          -0.85877406       -1.03850512       -0.17110671
H           0.85877407        1.03850512       -0.17110661
H           0.85877407       -1.03850510        0.17110672
6
MD Time 1670.00
C          -0.58694308       -0.00000001       -0.00000002
C           0.58694308        0.00000000        0.00000002
H          -0.85489975        1.04258971        0.15839450
H          -0.85489973       -1.04258972       -0.15839460
H           0.85489973        1.04258972       -0.15839450
H           0.85489973       -1.04258970        0.15839462
6
MD Time 1680.00
C          -0.58345133       -0.00000001       -0.00000002
C           0.58345133        0.00000000        0.00000002
H          -0.85310526        1.04624907        0.14531309
H          -0.85310523       -1.04624908       -0.14531319
H           0.85310523        1.04624908       -0.14531309
H           0.85310524       -1.04624907        0.14531321
6
MD Time 1690.00
C          -0.58067922       -0.00000001       -0.00000002
C           0.58067922        0.00000000        0.00000002
H          -0.85339277        1.04942833        0.13188975
H          -0.85339275       -1.04942834       -0.13188985
H           0.85339275        1.04942834       -0.13188975
H           0.85339276       -1.04942832        0.13188987
6
MD Time 1700.00
C          -0.57866886       -0.00000001       -0.00000002
C           0.57866886        0.00000001        0.00000002
H          -0.85575033        1.05207412        0.11815364
H          -0.85575031       -1.05207413       -0.11815374
H           0.85575030        1.05207414       -0.11815364
H           0.85575031       -1.05207412        0.11815376
6
MD Time 1710.00
C          -0.57745174       -0.00000001       -0.00000002
C           0.57745174        0.00000001        0.00000002
H          -0.86015173        1.05413578        0.10413586
H          -0.86015172       -1.05413579       -0.10413597
H           0.86015171        1.05413579       -0.10413587
H           0.86015172       -1.05413577        0.10413599
6
MD Time 1720.00
C          -0.57704751       -0.00000001       -0.00000002
C           0.57704751        0.00000001        0.00000002
H          -0.86655686        1.05556639        0.08986962
H          -0.86655685       -1.05556640       -0.08986973
H           0.86655684        1.05556641       -0.08986963
H           0.86655685       -1.05556639        0.08986976
6
MD Time 1730.00
C          -0.57746324       -0.00000001       -0.00000002
C           0.57746324        0.00000001        0.00000002
H          -0.87491226        1.05632381        0.07539033
H          -0.87491225       -1.05632382       -0.07539044
H           0.87491224        1.05632382       -0.07539033
H           0.87491226       -1.05632381        0.07539047
6
MD Time 1740.00
C          -0.57869315       -0.00000001       -0.00000002
C           0.57869315        0.00000001        0.00000002
H          -0.88515215        1.05637142        0.06073560
H          -0.88515214       -1.05637144       -0.06073571
H           0.88515213        1.05637144       -0.06073561
H           0.88515215       -1.05637142        0.06073574
6
MD Time 1750.00
C          -0.58071900       -0.00000001       -0.00000002
C           0.58071900        0.00000001        0.00000002
H          -0.89719966        1.05567884        0.04594522
H          -0.89719965       -1.05567885       -0.04594533
H           0.89719963        1.05567886       -0.04594523
H           0.89719965       -1.05567884        0.04594536
6
MD Time 1760.00
C          -0.58351089       -0.00000001       -0.00000002
C           0.58351089        0.00000001        0.00000002
H          -0.91096829        1.05422240        0.03106095
H          -0.91096828       -1.05422242       -0.03106107
H           0.91096827        1.05422242       -0.03106096
H           0.91096829       -1.05422240        0.03106110
6
MD Time 1770.00
C          -0.58702856       -0.00000001       -0.00000002
C           0.58702856        0.00000001        0.00000002
H          -0.92636358        1.05198551        0.01612628
H          -0.92636358       -1.05198552       -0.01612640
H           0.92636356        1.05198552       -0.01612629
H           0.92636358       -1.05198550        0.01612643
6
MD Time 1780.00
C          -0.59122307       -0.00000001       -0.00000002
C           0.59122307        0.00000001        0.00000002
H          -0.94328472        1.04895877        0.00118598
H          -0.94328471       -1.04895879       -0.00118610
H           0.94328469        1.04895879       -0.00118599
H           0.94328472       -1.04895877        0.00118613
6
MD Time 1790.00
C          -0.59603862       -0.00000001       -0.00000002
C           0.59603862        0.00000001        0.00000002
H          -0.96162614        1.04514007       -0.01371434
H          -0.96162614       -1.04514009        0.01371422
H           0.96162612        1.04514009        0.01371433
H           0.96162615       -1.04514007       -0.01371418
6
MD Time 1800.00
C          -0.60141454       -0.00000001       -0.00000002
C           0.60141454        0.00000001        0.00000002
H          -0.98127901        1.04053436       -0.02852878
H          -0.98127901       -1.04053437        0.02852865
H           0.98127899        1.04053438        0.02852876
H           0.98127902       -1.04053436       -0.02852861
6
MD Time 1810.00
C          -0.60728721       -0.00000001       -0.00000002
C           0.60728721        0.00000001        0.00000002
H          -1.00213246        1.03515341       -0.04321170
H          -1.00213246       -1.03515343        0.04321157
H           1.00213244        1.03515343        0.04321169
H           1.00213247       -1.03515341       -0.04321154
6
MD Time 1820.00
C          -0.61359182       -0.00000001       -0.00000002
C           0.61359182        0.00000001        0.00000002
H          -1.02407460        1.02901545       -0.05771836
H          -1.02407461       -1.02901547        0.05771823
H           1.02407458        1.02901547        0.05771834
H           1.02407461       -1.02901546       -0.05771819
6
MD Time 1830.00
C          -0.62026403       -0.00000001       -0.00000002
C           0.62026404        0.00000001        0.00000002
H          -1.04699329        1.02214467       -0.07200538
H          -1.04699330       -1.02214469        0.07200525
H           1.04699327        1.02214469        0.07200536
H           1.04699331       -1.02214468       -0.07200521
6
MD Time 1840.00
C          -0.62724131       -0.00000001       -0.00000002
C           0.62724131        0.00000001        0.00000002
H          -1.07077665        1.01457070       -0.08603127
H          -1.07077665       -1.01457072        0.08603114
H           1.07077663        1.01457072        0.08603125
H           1.07077666       -1.01457070       -0.08603110
6
MD Time 1850.00
C          -0.63446398       -0.00000001       -0.00000002
C           0.63446398        0.00000001        0.00000002
H          -1.09531336        1.00632804       -0.09975685
H          -1.09531336       -1.00632806        0.09975671
H           1.09531334        1.00632807        0.09975683
H           1.09531337       -1.00632805       -0.09975667
6
MD Time 1860.00
C          -0.64187613       -0.00000001       -0.00000003
C           0.64187614        0.00000001        0.00000002
H          -1.12049282        0.99745553       -0.11314554
H          -1.12049283       -0.99745555        0.11314540
H           1.12049281        0.99745556        0.11314552
H           1.12049284       -0.99745554       -0.11314536
6
MD Time 1870.00
C          -0.64942614       -0.00000001       -0.00000003
C           0.64942614        0.00000001        0.00000002
H          -1.14620525        0.98799575       -0.12616366
H          -1.14620526       -0.98799577        0.12616352
H           1.14620524        0.98799577        0.12616364
H           1.14620527       -0.98799575       -0.12616348
6
MD Time 1880.00
C          -0.65706706       -0.00000001       -0.00000003
C           0.65706706        0.00000001        0.00000002
H          -1.17234161        0.97799449       -0.13878053
H          -1.17234162       -0.97799451        0.13878039
H           1.17234159        0.97799452        0.13878051
H           1.17234163       -0.97799450       -0.13878035
6
MD Time 1890.00
C          -0.66475680       -0.00000001       -0.00000003
C           0.66475680        0.00000001        0.00000002
H          -1.19879361        0.96750030       -0.15096862
H          -1.19879362       -0.96750032        0.15096848
H           1.19879359        0.96750033        0.15096860
H           1.19879363       -0.96750031       -0.15096844
6
MD Time 1900.00
C          -0.67245815       -0.00000001       -0.00000003
C           0.67245815        0.00000001        0.00000003
H          -1.22545369        0.95656402       -0.16270352
H          -1.22545370       -0.95656405        0.16270337
H           1.22545368        0.95656405        0.16270350
H           1.22545371       -0.95656403       -0.16270333
6
MD Time 1910.00
C          -0.68013867       -0.00000001       -0.00000003
C           0.68013867        0.00000001        0.00000003
H          -1.25221501        0.94523846       -0.17396390
H          -1.25221502       -0.94523849        0.17396375
H           1.25221499        0.94523849        0.17396388
H           1.25221503       -0.94523847       -0.17396372
6
MD Time 1920.00
C          -0.68777048       -0.00000001       -0.00000003
C           0.68777048        0.00000001        0.00000003
H          -1.27897143        0.93357809       -0.18473146
H          -1.27897144       -0.93357811        0.18473131
H           1.27897141        0.93357812        0.18473144
H           1.27897145       -0.93357810       -0.18473128
6
MD Time 1930.00
C          -0.69533005       -0.00000001       -0.00000003
C           0.69533005        0.00000001        0.00000003
H          -1.30561763        0.92163884       -0.19499079
H          -1.30561764       -0.92163887        0.19499064
H           1.30561762        0.92163887        0.19499077
H           1.30561766       -0.92163885       -0.19499060
6
MD Time 1940.00
C          -0.70279778       -0.00000001       -0.00000003
C           0.70279778        0.00000001        0.00000003
H          -1.33204922        0.90947802       -0.20472920
H          -1.33204923       -0.90947805        0.20472905
H           1.33204921        0.90947805        0.20472919
H           1.33204924       -0.90947803       -0.20472902
6
MD Time 1950.00
C          -0.71015775       -0.00000001       -0.00000003
C           0.71015775        0.00000001        0.00000003
H          -1.35816292        0.89715419       -0.21393665
H          -1.35816293       -0.89715421        0.21393650
H           1.35816291        0.89715422        0.21393663
H           1.35816295       -0.89715420       -0.21393646
6
MD Time 1960.00
C          -0.71739726       -0.00000001       -0.00000003
C           0.71739726        0.00000001        0.00000003
H          -1.38385689        0.88472716       -0.22260550
H          -1.38385690       -0.88472719        0.22260535
H           1.38385688        0.88472720        0.22260548
H           1.38385691       -0.88472718       -0.22260532
6
MD Time 1970.00
C          -0.72450648       -0.00000001       -0.00000003
C           0.72450648        0.00000001        0.00000003
H          -1.40903105        0.87225802       -0.23073047
H          -1.40903106       -0.87225804        0.23073031
H           1.40903103        0.87225805        0.23073045
H           1.40903107       -0.87225803       -0.23073028
6
MD Time 1980.00
C          -0.73147805       -0.00000001       -0.00000003
C           0.73147805        0.00000001        0.00000003
H          -1.43358757        0.85980905       -0.23830844
H          -1.43358757       -0.85980908        0.23830828
H           1.43358755        0.85980908        0.23830842
H           1.43358759       -0.85980906       -0.23830825
6
MD Time 1990.00
C          -0.73830671       -0.00000001       -0.00000003
C           0.73830671        0.00000001        0.00000003
H          -1.45743137        0.84744379       -0.24533839
H          -1.45743137       -0.84744382        0.24533824
H           1.45743135        0.84744382        0.24533838
H           1.45743139       -0.84744380       -0.24533821
6
MD Time 2000.00
C          -0.74498890       -0.00000001       -0.00000003
C           0.74498890        0.00000001        0.00000003
H          -1.48047068        0.83522693       -0.25182128
H          -1.48047068       -0.83522696        0.25182113
H           1.48047066        0.83522696        0.25182127
H           1.48047070       -0.83522694       -0.25182110
6
MD Time 2010.00
C          -0.75152242       -0.00000001       -0.00000003
C           0.75152242        0.00000001        0.00000003
H          -1.50261765        0.82322424       -0.25775998
H          -1.50261766       -0.82322427        0.25775982
H           1.50261764        0.82322427        0.25775997
H           1.50261767       -0.82322425       -0.25775980
6
MD Time 2020.00
C          -0.75790613       -0.00000001       -0.00000003
C           0.75790613        0.00000001        0.00000003
H          -1.52378897        0.81150241       -0.26315915
H          -1.52378898       -0.81150245        0.26315900
H           1.52378896        0.81150244        0.26315915
H           1.52378899       -0.81150243       -0.26315898
6
MD Time 2030.00
C          -0.76413958       -0.00000001       -0.00000003
C           0.76413958        0.00000001        0.00000003
H          -1.54390645        0.80012887       -0.26802525
H          -1.54390645       -0.80012890        0.26802510
H           1.54390644        0.80012890        0.26802525
H           1.54390647       -0.80012888       -0.26802508
6
MD Time 2040.00
C          -0.77022275       -0.00000001       -0.00000003
C           0.77022275        0.00000001        0.00000003
H          -1.56289762        0.78917151       -0.27236638
H          -1.56289762       -0.78917154        0.27236622
H           1.56289761        0.78917154        0.27236637
H           1.56289764       -0.78917152       -0.27236620
6
MD Time 2050.00
C          -0.77615582       -0.00000001       -0.00000003
C           0.77615582        0.00000001        0.00000003
H          -1.58069630        0.77869839       -0.27619222
H          -1.58069629       -0.77869843        0.27619206
H           1.58069628        0.77869842        0.27619222
H           1.58069631       -0.77869840       -0.27619205
6
MD Time 2060.00
C          -0.78193891       -0.00000001       -0.00000003
C           0.78193890        0.00000001        0.00000003
H          -1.59724308        0.76877739       -0.27951396
H          -1.59724307       -0.76877743        0.27951380
H           1.59724306        0.76877742        0.27951396
H           1.59724309       -0.76877740       -0.27951379
6
MD Time 2070.00
C          -0.78757185       -0.00000001       -0.00000003
C           0.78757185        0.00000001        0.00000003
H          -1.61248580        0.75947574       -0.28234413
H          -1.61248580       -0.75947578        0.28234397
H           1.61248579        0.75947577        0.28234413
H           1.61248582       -0.75947575       -0.28234396
6
MD Time 2080.00
C          -0.79305406       -0.00000001       -0.00000003
C           0.79305406        0.00000001        0.00000003
H          -1.62637996        0.75085960       -0.28469649
H          -1.62637996       -0.75085964        0.28469633
H           1.62637995        0.75085963        0.28469649
H           1.62637998       -0.75085961       -0.28469632
6
MD Time 2090.00
C          -0.79838436       -0.00000001       -0.00000003
C           0.79838436        0.00000001        0.00000003
H          -1.63888900        0.74299352       -0.28658581
H          -1.63888899       -0.74299356        0.28658566
H           1.63888899        0.74299354        0.28658582
H           1.63888901       -0.74299353       -0.28658565
6
MD Time 2100.00
C          -0.80356085       -0.00000001       -0.00000003
C           0.80356085        0.00000001        0.00000003
H          -1.64998457        0.73593987       -0.28802773
H          -1.64998456       -0.73593991        0.28802758
H           1.64998456        0.73593989        0.28802775
H           1.64998458       -0.73593988       -0.28802758
6
MD Time 2110.00
C          -0.80858078       -0.00000001       -0.00000003
C           0.80858078        0.00000001        0.00000003
H          -1.65964670        0.72975826       -0.28903846
H          -1.65964669       -0.72975831        0.28903830
H           1.65964669        0.72975829        0.28903847
H           1.65964671       -0.72975828       -0.28903830
6
MD Time 2120.00
C          -0.81344053       -0.00000001       -0.00000003
C           0.81344053        0.00000001        0.00000003
H          -1.66786386        0.72450495       -0.28963454
H          -1.66786385       -0.72450500        0.28963438
H           1.66786385        0.72450497        0.28963456
H           1.66786387       -0.72450497       -0.28963439
6
MD Time 2130.00
C          -0.81813552       -0.00000001       -0.00000003
C           0.81813552        0.00000001        0.00000003
H          -1.67463297        0.72023215       -0.28983258
H          -1.67463295       -0.72023220        0.28983243
H           1.67463296        0.72023217        0.28983261
H           1.67463297       -0.72023216       -0.28983244
6
MD Time 2140.00
C          -0.82266017       -0.00000001       -0.00000003
C           0.82266017        0.00000001        0.00000003
H          -1.67995921        0.71698743       -0.28964895
H          -1.67995919       -0.71698748        0.28964879
H           1.67995920        0.71698745        0.28964898
H           1.67995922       -0.71698744       -0.28964881
6
MD Time 2150.00
C          -0.82700794       -0.00000001       -0.00000003
C           0.82700794        0.00000001        0.00000003
H          -1.68385586        0.71481307       -0.28909945
H          -1.68385584       -0.71481312        0.28909929
H           1.68385585        0.71481308        0.28909948
H           1.68385586       -0.71481308       -0.28909931
6
MD Time 2160.00
C          -0.83117131       -0.00000001       -0.00000003
C           0.83117131        0.00000001        0.00000003
H          -1.68634391        0.71374542       -0.28819903
H          -1.68634389       -0.71374547        0.28819888
H           1.68634390        0.71374543        0.28819907
H           1.68634392       -0.71374543       -0.28819890
6
MD Time 2170.00
C          -0.83514185       -0.00000000       -0.00000003
C           0.83514185        0.00000001        0.00000003
H          -1.68745161        0.71381429       -0.28696150
H          -1.68745159       -0.71381435        0.28696134
H           1.68745160        0.71381430        0.28696154
H           1.68745161       -0.71381430       -0.28696137
6
MD Time 2180.00
C          -0.83891031       -0.00000000       -0.00000003
C           0.83891031        0.00000001        0.00000003
H          -1.68721387        0.71504236       -0.28539919
H          -1.68721385       -0.71504242        0.28539904
H           1.68721386        0.71504237        0.28539924
H           1.68721387       -0.71504237       -0.28539907
6
MD Time 2190.00
C          -0.84246667       -0.00000000       -0.00000003
C           0.84246667        0.00000001        0.00000003
H          -1.68567156        0.71744461       -0.28352275
H          -1.68567153       -0.71744468        0.28352259
H           1.68567155        0.71744462        0.28352280
H           1.68567156       -0.71744463       -0.28352263
6
MD Time 2200.00
C          -0.84580031       -0.00000000       -0.00000003
C           0.84580030        0.00000001        0.00000003
H          -1.68287068        0.72102778       -0.28134084
H          -1.68287065       -0.72102785        0.28134069
H           1.68287068        0.72102779        0.28134090
H           1.68287068       -0.72102780       -0.28134073
6
MD Time 2210.00
C          -0.84890012       -0.00000000       -0.00000003
C           0.84890012        0.00000001        0.00000003
H          -1.67886145        0.72578985       -0.27885999
H          -1.67886142       -0.72578992        0.27885984
H           1.67886145        0.72578986        0.27886005
H           1.67886145       -0.72578987       -0.27885989
6
MD Time 2220.00
C          -0.85175470       -0.00000000       -0.00000003
C           0.85175470        0.00000001        0.00000003
H          -1.67369727        0.73171958       -0.27608436
H          -1.67369724       -0.73171966        0.27608421
H           1.67369727        0.73171959        0.27608443
H           1.67369726       -0.73171960       -0.27608426
6
MD Time 2230.00
C          -0.85435250       -0.00000000       -0.00000003
C           0.85435249        0.00000001        0.00000003
H          -1.66743369        0.73879605       -0.27301565
H          -1.66743366       -0.73879612        0.27301550
H           1.66743369        0.73879605        0.27301572
H           1.66743369       -0.73879606       -0.27301555
6
MD Time 2240.00
C          -0.85668198       -0.00000000       -0.00000003
C           0.85668198        0.00000001        0.00000003
H          -1.66012736        0.74698826       -0.26965298
H          -1.66012732       -0.74698834        0.26965283
H           1.66012736        0.74698826        0.26965306
H           1.66012735       -0.74698827       -0.26965289
6
MD Time 2250.00
C          -0.85873185       -0.00000000       -0.00000003
C           0.85873184        0.00000001        0.00000003
H          -1.65183494        0.75625481       -0.26599290
H          -1.65183490       -0.75625489        0.26599275
H           1.65183494        0.75625480        0.26599298
H           1.65183493       -0.75625482       -0.26599282
6
MD Time 2260.00
C          -0.86049117       -0.00000000       -0.00000003
C           0.86049117        0.00000001        0.00000003
H          -1.64261221        0.76654363       -0.26202941
H          -1.64261217       -0.76654371        0.26202926
H           1.64261221        0.76654362        0.26202950
H           1.64261220       -0.76654364       -0.26202933
6
MD Time 2270.00
C          -0.86194955       -0.00000000       -0.00000003
C           0.86194955        0.00000001        0.00000003
H          -1.63251323        0.77779188       -0.25775406
H          -1.63251319       -0.77779196        0.25775391
H           1.63251324        0.77779187        0.25775416
H           1.63251322       -0.77779189       -0.25775399
6
MD Time 2280.00
C          -0.86309720       -0.00000000       -0.00000003
C           0.86309720        0.00000001        0.00000003
H          -1.62158970        0.78992593       -0.25315620
H          -1.62158966       -0.78992601        0.25315605
H           1.62158971        0.78992591        0.25315630
H           1.62158969       -0.78992594       -0.25315613
6
MD Time 2290.00
C          -0.86392507       -0.00000000       -0.00000003
C           0.86392507        0.00000001        0.00000003
H          -1.60989053        0.80286160       -0.24822322
H          -1.60989048       -0.80286168        0.24822307
H           1.60989054        0.80286158        0.24822333
H           1.60989052       -0.80286160       -0.24822316
6
MD Time 2300.00
C          -0.86442487       -0.00000000       -0.00000003
C           0.86442487        0.00000001        0.00000003
H          -1.59746163        0.81650461       -0.24294097
H          -1.59746158       -0.81650469        0.24294082
H           1.59746164        0.81650459        0.24294108
H           1.59746161       -0.81650461       -0.24294092
6
MD Time 2310.00
C          -0.86458908       -0.00000000       -0.00000003
C           0.86458907        0.00000001        0.00000003
H          -1.58434592        0.83075127       -0.23729422
H          -1.58434587       -0.83075136        0.23729407
H           1.58434593        0.83075125        0.23729434
H           1.58434590       -0.83075128       -0.23729417
6
MD Time 2320.00
C          -0.86441090       -0.00000000       -0.00000003
C           0.86441089        0.00000001        0.00000003
H          -1.57058356        0.84548946       -0.23126717
H          -1.57058350       -0.84548954        0.23126702
H           1.57058357        0.84548943        0.23126730
H           1.57058354       -0.84548946       -0.23126713
6
MD Time 2330.00
C          -0.86388423       -0.00000000       -0.00000003
C           0.86388422        0.00000001        0.00000003
H          -1.55621234        0.86059980       -0.22484408
H          -1.55621228       -0.86059988        0.22484393
H           1.55621235        0.86059977        0.22484421
H           1.55621232       -0.86059980       -0.22484405
6
MD Time 2340.00
C          -0.86300355       -0.00000000       -0.00000003
C           0.86300354        0.00000001        0.00000003
H          -1.54126822        0.87595714       -0.21800983
H          -1.54126816       -0.87595723        0.21800968
H           1.54126823        0.87595711        0.21800996
H           1.54126819       -0.87595714       -0.21800979
6
MD Time 2350.00
C          -0.86176383       -0.00000000       -0.00000003
C           0.86176383        0.00000001        0.00000003
H          -1.52578596        0.89143213       -0.21075051
H          -1.52578589       -0.89143222        0.21075036
H           1.52578596        0.89143210        0.21075065
H           1.52578592       -0.89143213       -0.21075048
6
MD Time 2360.00
C          -0.86016045       -0.00000000       -0.00000003
C           0.86016045        0.00000001        0.00000003
H          -1.50979976        0.90689296       -0.20305404
H          -1.50979968       -0.90689305        0.20305390
H           1.50979976        0.90689293        0.20305419
H           1.50979972       -0.90689296       -0.20305402
6
MD Time 2370.00
C          -0.85818904       -0.00000000       -0.00000003
C           0.85818903        0.00000001        0.00000003
H          -1.49334398        0.92220714       -0.19491062
H          -1.49334390       -0.92220722        0.19491048
H           1.49334398        0.92220710        0.19491077
H           1.49334394       -0.92220714       -0.19491060
6
MD Time 2380.00
C          -0.85584542       -0.00000000       -0.00000003
C           0.85584542        0.00000001        0.00000003
H          -1.47645372        0.93724327       -0.18631318
H          -1.47645364       -0.93724335        0.18631304
H           1.47645372        0.93724323        0.18631334
H           1.47645367       -0.93724327       -0.18631317
6
MD Time 2390.00
C          -0.85312553       -0.00000000       -0.00000003
C           0.85312553        0.00000001        0.00000003
H          -1.45916541        0.95187278       -0.17725775
H          -1.45916532       -0.95187286        0.17725760
H           1.45916541        0.95187275        0.17725790
H           1.45916536       -0.95187278       -0.17725774
6
MD Time 2400.00
C          -0.85002536       -0.00000000       -0.00000003
C           0.85002536        0.00000001        0.00000003
H          -1.44151724        0.96597157       -0.16774367
H          -1.44151715       -0.96597166        0.16774353
H           1.44151724        0.96597154        0.16774383
H           1.44151719       -0.96597158       -0.16774366
6
MD Time 2410.00
C          -0.84654090       -0.00000000       -0.00000003
C           0.84654090        0.00000001        0.00000002
H          -1.42354955        0.97942150       -0.15777383
H          -1.42354946       -0.97942158        0.15777369
H           1.42354955        0.97942146        0.15777400
H           1.42354950       -0.97942150       -0.15777383
6
MD Time 2420.00
C          -0.84266817       -0.00000000       -0.00000003
C           0.84266817        0.00000001        0.00000002
H          -1.40530509        0.99211171       -0.14735470
H          -1.40530499       -0.99211179        0.14735456
H           1.40530509        0.99211168        0.14735487
H           1.40530503       -0.99211171       -0.14735471
6
MD Time 2430.00
C          -0.83840321       -0.00000000       -0.00000003
C           0.83840320        0.00000001        0.00000002
H          -1.38682912        1.00393989       -0.13649637
H          -1.38682902       -1.00393997        0.13649622
H           1.38682912        1.00393986        0.13649654
H           1.38682906       -1.00393990       -0.13649637
6
MD Time 2440.00
C          -0.83374214       -0.00000000       -0.00000002
C           0.83374214        0.00000001        0.00000002
H          -1.36816955        1.01481326       -0.12521244
H          -1.36816944       -1.01481334        0.12521230
H           1.36816954        1.01481324        0.12521261
H           1.36816948       -1.01481327       -0.12521245
6
MD Time 2450.00
C          -0.82868126       -0.00000000       -0.00000002
C           0.82868126        0.00000001        0.00000002
H          -1.34937684        1.02464947       -0.11351998
H          -1.34937674       -1.02464954        0.11351984
H           1.34937684        1.02464944        0.11352015
H           1.34937677       -1.02464948       -0.11351999
6
MD Time 2460.00
C          -0.82321711       -0.00000000       -0.00000002
C           0.82321711        0.00000001        0.00000002
H          -1.33050401        1.03337732       -0.10143928
H          -1.33050390       -1.03337739        0.10143914
H           1.33050401        1.03337730        0.10143945
H           1.33050394       -1.03337733       -0.10143929
6
MD Time 2470.00
C          -0.81734662       -0.00000000       -0.00000002
C           0.81734662        0.00000001        0.00000002
H          -1.31160643        1.04093741       -0.08899370
H          -1.31160632       -1.04093747        0.08899356
H           1.31160643        1.04093739        0.08899387
H           1.31160635       -1.04093742       -0.08899371
6
MD Time 2480.00
C          -0.81106727       -0.00000000       -0.00000002
C           0.81106726        0.00000001        0.00000002
H          -1.29274172        1.04728260       -0.07620940
H          -1.29274161       -1.04728267        0.07620926
H           1.29274172        1.04728259        0.07620958
H           1.29274164       -1.04728262       -0.07620942
6
MD Time 2490.00
C          -0.80437724       -0.00000000       -0.00000002
C           0.80437724        0.00000001        0.00000002
H          -1.27396954        1.05237848       -0.06311511
H          -1.27396943       -1.05237854        0.06311498
H           1.27396954        1.05237847        0.06311529
H           1.27396946       -1.05237849       -0.06311513
6
MD Time 2500.00
C          -0.79727565       -0.00000000       -0.00000002
C           0.79727565        0.00000001        0.00000002
H          -1.25535141        1.05620362       -0.04974183
H          -1.25535129       -1.05620368        0.04974170
H           1.25535140        1.05620361        0.04974201
H           1.25535132       -1.05620364       -0.04974185
6
MD Time 2510.00
C          -0.78976277       -0.00000000       -0.00000002
C           0.78976277        0.00000001        0.00000002
H          -1.23695048        1.05874992       -0.03612256
H          -1.23695036       -1.05874997        0.03612242
H           1.23695047        1.05874991        0.03612273
H           1.23695039       -1.05874993       -0.03612257
6
MD Time 2520.00
C          -0.78184032       -0.00000000       -0.00000002
C           0.78184032        0.00000001        0.00000002
H          -1.21883137        1.06002274       -0.02229198
H          -1.21883125       -1.06002279        0.02229185
H           1.21883136        1.06002274        0.02229215
H           1.21883128       -1.06002276       -0.02229200
6
MD Time 2530.00
C          -0.77351173       -0.00000000       -0.00000002
C           0.77351172        0.00000001        0.00000002
H          -1.20105991        1.06004107       -0.00828621
H          -1.20105979       -1.06004112        0.00828608
H           1.20105990        1.06004108        0.00828638
H           1.20105981       -1.06004109       -0.00828623
6
MD Time 2540.00
C          -0.76478254       -0.00000000       -0.00000002
C           0.76478254        0.00000001        0.00000002
H          -1.18370295        1.05883757        0.00585755
H          -1.18370283       -1.05883762       -0.00585768
H           1.18370294        1.05883758       -0.00585738
H           1.18370286       -1.05883760        0.00585753
6
MD Time 2550.00
C          -0.75566079       -0.00000000       -0.00000002
C           0.75566079        0.00000001        0.00000002
H          -1.16682812        1.05645851        0.02010128
H          -1.16682800       -1.05645855       -0.02010141
H           1.16682811        1.05645853       -0.02010111
H           1.16682803       -1.05645854        0.02010126
6
MD Time 2560.00
C          -0.74615748       -0.00000000       -0.00000002
C           0.74615748        0.00000001        0.00000002
H          -1.15050356        1.05296359        0.03440643
H          -1.15050345       -1.05296363       -0.03440656
H           1.15050355        1.05296361       -0.03440626
H           1.15050347       -1.05296362        0.03440641
6
MD Time 2570.00
C          -0.73628711       -0.00000000       -0.00000002
C           0.73628711        0.00000001        0.00000002
H          -1.13479765        1.04842556        0.04873422
H          -1.13479753       -1.04842560       -0.04873434
H           1.13479764        1.04842559       -0.04873406
H           1.13479755       -1.04842560        0.04873420
6
MD Time 2580.00
C          -0.72606826       -0.00000000       -0.00000002
C           0.72606826        0.00000001        0.00000001
H          -1.11977862        1.04292968        0.06304586
H          -1.11977851       -1.04292972       -0.06304599
H           1.11977861        1.04292971       -0.06304571
H           1.11977853       -1.04292972        0.06304585
6
MD Time 2590.00
C          -0.71552430       -0.00000000       -0.00000002
C           0.71552430        0.00000001        0.00000001
H          -1.10551421        1.03657282        0.07730281
H          -1.10551410       -1.03657286       -0.07730293
H           1.10551419        1.03657286       -0.07730266
H           1.10551411       -1.03657286        0.07730280
6
MD Time 2600.00
C          -0.70468416       -0.00000000       -0.00000002
C           0.70468416        0.00000001        0.00000001
H          -1.09207110        1.02946233        0.09146689
H          -1.09207099       -1.02946237       -0.09146701
H           1.09207109        1.02946238       -0.09146675
H           1.09207100       -1.02946238        0.09146688
6
MD Time 2610.00
C          -0.69358318       -0.00000000       -0.00000001
C           0.69358318        0.00000001        0.00000001
H          -1.07951437        1.02171448        0.10550046
H          -1.07951427       -1.02171451       -0.10550058
H           1.07951435        1.02171453       -0.10550032
H           1.07951427       -1.02171453        0.10550046
6
MD Time 2620.00
C          -0.68226405       -0.00000000       -0.00000001
C           0.68226405        0.00000001        0.00000001
H          -1.06790674        1.01345253        0.11936640
H          -1.06790664       -1.01345256       -0.11936651
H           1.06790673        1.01345258       -0.11936626
H           1.06790665       -1.01345258        0.11936639
6
MD Time 2630.00
C          -0.67077781       -0.00000000       -0.00000001
C           0.67077781        0.00000001        0.00000001
H          -1.05730776        1.00480447        0.13302803
H          -1.05730767       -1.00480450       -0.13302814
H           1.05730775        1.00480453       -0.13302789
H           1.05730767       -1.00480452        0.13302802
6
MD Time 2640.00
C          -0.65918486       -0.00000000       -0.00000001
C           0.65918486        0.00000001        0.00000001
H          -1.04777281        0.99590034        0.14644899
H          -1.04777271       -0.99590036       -0.14644910
H           1.04777279        0.99590039       -0.14644886
H           1.04777271       -0.99590039        0.14644899
6
MD Time 2650.00
C          -0.64755602       -0.00000000       -0.00000001
C           0.64755602        0.00000001        0.00000001
H          -1.03935199        0.98686929        0.15959292
H          -1.03935190       -0.98686932       -0.15959303
H           1.03935197        0.98686935       -0.15959280
H           1.03935190       -0.98686935        0.15959293
6
MD Time 2660.00
C          -0.63597337       -0.00000000       -0.00000001
C           0.63597337        0.00000001        0.00000001
H          -1.03208902        0.97783659        0.17242314
H          -1.03208893       -0.97783661       -0.17242325
H           1.03208900        0.97783665       -0.17242302
H           1.03208893       -0.97783665        0.17242315
6
MD Time 2670.00
C          -0.62453100       -0.00000000       -0.00000001
C           0.62453100        0.00000001        0.00000001
H          -1.02601996        0.96892053        0.18490219
H          -1.02601988       -0.96892055       -0.18490230
H           1.02601994        0.96892059       -0.18490208
H           1.02601987       -0.96892058        0.18490220
6
MD Time 2680.00
C          -0.61333532       -0.00000000       -0.00000001
C           0.61333532        0.00000000        0.00000001
H          -1.02117211        0.96022961        0.19699145
H          -1.02117204       -0.96022963       -0.19699155
H           1.02117209        0.96022967       -0.19699134
H           1.02117203       -0.96022967        0.19699146
6
MD Time 2690.00
C          -0.60250492       -0.00000000       -0.00000001
C           0.60250493        0.00000000        0.00000001
H          -1.01756295        0.95186016        0.20865077
H          -1.01756288       -0.95186019       -0.20865087
H           1.01756292        0.95186023       -0.20865067
H           1.01756286       -0.95186022        0.20865078
6
MD Time 2700.00
C          -0.59216966       -0.00000000       -0.00000001
C           0.59216966        0.00000000        0.00000001
H          -1.01519934        0.94389450        0.21983827
H          -1.01519928       -0.94389452       -0.21983837
H           1.01519931        0.94389456       -0.21983817
H           1.01519926       -0.94389456        0.21983828
6
MD Time 2710.00
C          -0.58246887       -0.00000000       -0.00000001
C           0.58246887        0.00000000        0.00000001
H          -1.01407708        0.93639982        0.23051029
H          -1.01407702       -0.93639984       -0.23051038
H           1.01407704        0.93639988       -0.23051020
H           1.01407700       -0.93639987        0.23051031
6
MD Time 2720.00
C          -0.57354853       -0.00000000       -0.00000001
C           0.57354854        0.00000000        0.00000001
H          -1.01418078        0.92942790        0.24062165
H          -1.01418073       -0.92942792       -0.24062174
H           1.01418075        0.92942796       -0.24062156
H           1.01418071       -0.92942795        0.24062167
6
MD Time 2730.00
C          -0.56555724       -0.00000000       -0.00000001
C           0.56555725        0.00000000        0.00000001
H          -1.01548425        0.92301557        0.25012612
H          -1.01548421       -0.92301559       -0.25012621
H           1.01548421        0.92301564       -0.25012604
H           1.01548418       -0.92301563        0.25012615
6
MD Time 2740.00
C          -0.55864108       -0.00000000       -0.00000001
C           0.55864109        0.00000000        0.00000001
H          -1.01795125        0.91718583        0.25897722
H          -1.01795121       -0.91718585       -0.25897731
H           1.01795121        0.91718589       -0.25897715
H           1.01795118       -0.91718588        0.25897725
6
MD Time 2750.00
C          -0.55293754       -0.00000000       -0.00000001
C           0.55293754        0.00000000        0.00000001
H          -1.02153665        0.91194949        0.26712915
H          -1.02153661       -0.91194951       -0.26712923
H           1.02153661        0.91194955       -0.26712908
H           1.02153658       -0.91194954        0.26712917
6
MD Time 2760.00
C          -0.54856891       -0.00000000       -0.00000001
C           0.54856891        0.00000000        0.00000001
H          -1.02618791        0.90730716        0.27453786
H          -1.02618788       -0.90730718       -0.27453795
H           1.02618786        0.90730721       -0.27453780
H           1.02618784       -0.90730720        0.27453789
6
MD Time 2770.00
C          -0.54563567       -0.00000000       -0.00000001
C           0.54563568        0.00000000        0.00000001
H          -1.03184672        0.90325133        0.28116227
H          -1.03184669       -0.90325134       -0.28116235
H           1.03184667        0.90325138       -0.28116221
H           1.03184666       -0.90325137        0.28116230
6
MD Time 2780.00
C          -0.54421065       -0.00000000       -0.00000001
C           0.54421066        0.00000000        0.00000001
H          -1.03845074        0.89976843        0.28696526
H          -1.03845072       -0.89976845       -0.28696534
H           1.03845069        0.89976848       -0.28696521
H           1.03845068       -0.89976847        0.28696530
6
MD Time 2790.00
C          -0.54433451       -0.00000000       -0.00000001
C           0.54433452        0.00000000        0.00000001
H          -1.04593531        0.89684068        0.29191472
H          -1.04593530       -0.89684069       -0.29191479
H           1.04593526        0.89684073       -0.29191467
H           1.04593526       -0.89684072        0.29191475
6
MD Time 2800.00
C          -0.54601331       -0.00000000       -0.00000001
C           0.54601332        0.00000000        0.00000001
H          -1.05423501        0.89444762        0.29598423
H          -1.05423500       -0.89444763       -0.29598431
H           1.05423496        0.89444766       -0.29598419
H           1.05423496       -0.89444765        0.29598427
6
MD Time 2810.00
C          -0.54921839       -0.00000000       -0.00000001
C           0.54921840        0.00000000        0.00000001
H          -1.06328507        0.89256734        0.29915375
H          -1.06328506       -0.89256734       -0.29915382
H           1.06328501        0.89256738       -0.29915371
H           1.06328502       -0.89256736        0.29915380
6
MD Time 2820.00
C          -0.55388857       -0.00000000       -0.00000001
C           0.55388858        0.00000000        0.00000001
H          -1.07302251        0.89117738        0.30140986
H          -1.07302251       -0.89117739       -0.30140993
H           1.07302245        0.89117742       -0.30140983
H           1.07302247       -0.89117740        0.30140991
6
MD Time 2830.00
C          -0.55993438       -0.00000000       -0.00000001
C           0.55993439        0.00000000        0.00000001
H          -1.08338704        0.89025530        0.30274595
H          -1.08338705       -0.89025530       -0.30274602
H           1.08338699        0.89025533       -0.30274592
H           1.08338700       -0.89025531        0.30274600
6
MD Time 2840.00
C          -0.56724371       -0.00000000       -0.00000001
C           0.56724371        0.00000000        0.00000001
H          -1.09432169        0.88977895        0.30316212
H          -1.09432170       -0.88977895       -0.30316218
H           1.09432164        0.88977898       -0.30316209
H           1.09432166       -0.88977896        0.30316216
6
MD Time 2850.00
C          -0.57568818       -0.00000000       -0.00000001
C           0.57568819        0.00000000        0.00000001
H          -1.10577316        0.88972663        0.30266493
H          -1.10577318       -0.88972662       -0.30266499
H           1.10577311        0.88972666       -0.30266491
H           1.10577314       -0.88972663        0.30266498
6
MD Time 2860.00
C          -0.58512966       -0.00000000       -0.00000001
C           0.58512967        0.00000000        0.00000001
H          -1.11769197        0.89007697        0.30126701
H          -1.11769199       -0.89007696       -0.30126707
H           1.11769192        0.89007700       -0.30126700
H           1.11769195       -0.89007697        0.30126706
6
MD Time 2870.00
C          -0.59542616       -0.00000000       -0.00000001
C           0.59542617        0.00000000        0.00000001
H          -1.13003234        0.89080880        0.29898654
H          -1.13003236       -0.89080879       -0.29898659
H           1.13003229        0.89080882       -0.29898653
H           1.13003233       -0.89080880        0.29898660
6
MD Time 2880.00
C          -0.60643694       -0.00000000       -0.00000001
C           0.60643695        0.00000000        0.00000001
H          -1.14275198        0.89190087        0.29584662
H          -1.14275201       -0.89190085       -0.29584667
H           1.14275193        0.89190089       -0.29584662
H           1.14275198       -0.89190086        0.29584668
6
MD Time 2890.00
C          -0.61802651       -0.00000000       -0.00000001
C           0.61802652        0.00000000        0.00000001
H          -1.15581169        0.89333155        0.29187462
H          -1.15581172       -0.89333153       -0.29187467
H           1.15581164        0.89333157       -0.29187463
H           1.15581168       -0.89333153        0.29187468
6
MD Time 2900.00
C          -0.63006757       -0.00000001       -0.00000001
C           0.63006758        0.00000000        0.00000001
H          -1.16917485        0.89507852        0.28710149
H          -1.16917488       -0.89507850       -0.28710153
H           1.16917480        0.89507854       -0.28710149
H           1.16917485       -0.89507850        0.28710155
6
MD Time 2910.00
C          -0.64244287       -0.00000001       -0.00000001
C           0.64244288       -0.00000000        0.00000001
H          -1.18280696        0.89711845        0.28156104
H          -1.18280700       -0.89711843       -0.28156108
H           1.18280692        0.89711847       -0.28156105
H           1.18280697       -0.89711843        0.28156110
6
MD Time 2920.00
C          -0.65504630       -0.00000001       -0.00000001
C           0.65504631       -0.00000000        0.00000001
H          -1.19667506        0.89942668        0.27528933
H          -1.19667510       -0.89942665       -0.27528937
H           1.19667502        0.89942669       -0.27528935
H           1.19667508       -0.89942665        0.27528939
6
MD Time 2930.00
C          -0.66778321       -0.00000001       -0.00000001
C           0.66778321       -0.00000000        0.00000001
H          -1.21074726        0.90197696        0.26832401
H          -1.21074731       -0.90197693       -0.26832405
H           1.21074723        0.90197697       -0.26832404
H           1.21074729       -0.90197693        0.26832408
6
MD Time 2940.00
C          -0.68057025       -0.00000001       -0.00000001
C           0.68057025       -0.00000000        0.00000001
H          -1.22499225        0.90474125        0.26070380
H          -1.22499230       -0.90474121       -0.26070383
H           1.22499222        0.90474126       -0.26070382
H           1.22499228       -0.90474121        0.26070386
6
MD Time 2950.00
C          -0.69333487       -0.00000001       -0.00000001
C           0.69333488       -0.00000000        0.00000001
H          -1.23937891        0.90768958        0.25246796
H          -1.23937896       -0.90768954       -0.25246799
H           1.23937888        0.90768959       -0.25246799
H           1.23937895       -0.90768954        0.25246803
6
MD Time 2960.00
C          -0.70601457       -0.00000001       -0.00000001
C           0.70601457       -0.00000000        0.00000001
H          -1.25387602        0.91078999        0.24365596
H          -1.25387608       -0.91078995       -0.24365599
H           1.25387600        0.91079000       -0.24365600
H           1.25387607       -0.91078994        0.24365603
6
MD Time 2970.00
C          -0.71855600       -0.00000001       -0.00000001
C           0.71855601       -0.00000000        0.00000001
H          -1.26845200        0.91400857        0.23430710
H          -1.26845206       -0.91400853       -0.23430713
H           1.26845198        0.91400858       -0.23430714
H           1.26845205       -0.91400852        0.23430718
6
MD Time 2980.00
C          -0.73091409       -0.00000001       -0.00000001
C           0.73091410       -0.00000000        0.00000001
H          -1.28307478        0.91730958        0.22446031
H          -1.28307485       -0.91730954       -0.22446033
H           1.28307477        0.91730959       -0.22446035
H           1.28307484       -0.91730954        0.22446039
6
MD Time 2990.00
C          -0.74305109       -0.00000001       -0.00000001
C           0.74305109       -0.00000000        0.00000001
H          -1.29771174        0.92065570        0.21415393
H          -1.29771181       -0.92065566       -0.21415395
H           1.29771173        0.92065571       -0.21415398
H           1.29771181       -0.92065565        0.21415401
