6
MD Time 0.00
C          -1.00424993        0.00000000        0.00000000
C           1.00424993        0.00000000        0.00000000
H          -1.57974221        0.85087473        0.35244385
H          -1.57974221       -0.85087473       -0.35244385
H           1.57974221        0.85087473       -0.35244385
H           1.57974221       -0.85087473        0.35244385
6
MD Time 10.00
C          -1.00411190        0.00000000        0.00000000
C           1.00411190        0.00000000       -0.00000000
H          -1.57961852        0.85107659        0.35238714
H          -1.57961852       -0.85107659       -0.35238714
H           1.57961852        0.85107659       -0.35238714
H           1.57961852       -0.85107659        0.35238714
6
MD Time 20.00
C          -1.00369796        0.00000000        0.00000000
C           1.00369796        0.00000000       -0.00000000
H          -1.57924616        0.85167933        0.35221570
H          -1.57924616       -0.85167933       -0.35221570
H           1.57924616        0.85167933       -0.35221570
H           1.57924616       -0.85167933        0.35221570
6
MD Time 30.00
C          -1.00300845        0.00000000        0.00000000
C           1.00300845        0.00000000       -0.00000000
H          -1.57862125        0.85267447        0.35192561
H          -1.57862125       -0.85267447       -0.35192561
H           1.57862125        0.85267447       -0.35192561
H           1.57862125       -0.85267447        0.35192561
6
MD Time 40.00
C          -1.00204397        0.00000000        0.00000000
C           1.00204397        0.00000000       -0.00000000
H          -1.57773746        0.85404813        0.35151051
H          -1.57773746       -0.85404813       -0.35151051
H           1.57773746        0.85404813       -0.35151051
H           1.57773746       -0.85404813        0.35151051
6
MD Time 50.00
C          -1.00080529        0.00000000        0.00000000
C           1.00080529        0.00000000       -0.00000000
H          -1.57658628        0.85578135        0.35096168
H          -1.57658628       -0.85578135       -0.35096168
H           1.57658628        0.85578135       -0.35096168
H           1.57658628       -0.85578135        0.35096168
6
MD Time 60.00
C          -0.99929331        0.00000000        0.00000000
C           0.99929331       -0.00000000       -0.00000000
H          -1.57515723        0.85785056        0.35026833
H          -1.57515723       -0.85785056       -0.35026833
H           1.57515723        0.85785056       -0.35026833
H           1.57515723       -0.85785056        0.35026832
6
MD Time 70.00
C          -0.99750904        0.00000000        0.00000000
C           0.99750904       -0.00000000       -0.00000000
H          -1.57343825        0.86022813        0.34941784
H          -1.57343825       -0.86022813       -0.34941784
H           1.57343825        0.86022813       -0.34941784
H           1.57343825       -0.86022813        0.34941784
6
MD Time 80.00
C          -0.99545348        0.00000000        0.00000000
C           0.99545348       -0.00000000       -0.00000000
H          -1.57141609        0.86288301        0.34839611
H          -1.57141609       -0.86288301       -0.34839611
H           1.57141609        0.86288301       -0.34839610
H           1.57141609       -0.86288301        0.34839610
6
MD Time 90.00
C          -0.99312761        0.00000000        0.00000000
C           0.99312761       -0.00000000       -0.00000000
H          -1.56907672        0.86578144        0.34718782
H          -1.56907672       -0.86578144       -0.34718782
H           1.56907672        0.86578144       -0.34718782
H           1.56907672       -0.86578144        0.34718782
6
MD Time 100.00
C          -0.99053226        0.00000000        0.00000000
C           0.99053226       -0.00000000       -0.00000000
H          -1.56640577        0.86888760        0.34577686
H          -1.56640577       -0.86888760       -0.34577686
H           1.56640577        0.86888760       -0.34577686
H           1.56640577       -0.86888760        0.34577686
6
MD Time 110.00
C          -0.98766813        0.00000000        0.00000000
C           0.98766813       -0.00000000       -0.00000000
H          -1.56338892        0.87216441        0.34414661
H          -1.56338892       -0.87216441       -0.34414661
H           1.56338892        0.87216441       -0.34414661
H           1.56338892       -0.87216441        0.34414661
6
MD Time 120.00
C          -0.98453563        0.00000000        0.00000000
C           0.98453563       -0.00000000       -0.00000000
H          -1.56001239        0.87557421        0.34228030
H          -1.56001239       -0.87557421       -0.34228030
H           1.56001239        0.87557422       -0.34228030
H           1.56001239       -0.87557422        0.34228030
6
MD Time 130.00
C          -0.98113489        0.00000000        0.00000000
C           0.98113489       -0.00000000       -0.00000000
H          -1.55626325        0.87907946        0.34016132
H          -1.55626325       -0.87907946       -0.34016132
H           1.55626326        0.87907946       -0.34016132
H           1.55626325       -0.87907946        0.34016132
6
MD Time 140.00
C          -0.97746567        0.00000000        0.00000000
C           0.97746567       -0.00000000       -0.00000000
H          -1.55212984        0.88264335        0.33777352
H          -1.55212984       -0.88264335       -0.33777352
H           1.55212985        0.88264335       -0.33777352
H           1.55212984       -0.88264335        0.33777352
6
MD Time 150.00
C          -0.97352734        0.00000000        0.00000000
C           0.97352734       -0.00000000       -0.00000000
H          -1.54760205        0.88623046        0.33510146
H          -1.54760205       -0.88623046       -0.33510146
H           1.54760205        0.88623046       -0.33510145
H           1.54760205       -0.88623046        0.33510145
6
MD Time 160.00
C          -0.96931881        0.00000000        0.00000000
C           0.96931881       -0.00000000       -0.00000000
H          -1.54267158        0.88980723        0.33213062
H          -1.54267158       -0.88980723       -0.33213062
H           1.54267158        0.88980723       -0.33213062
H           1.54267158       -0.88980723        0.33213062
6
MD Time 170.00
C          -0.96483856        0.00000000        0.00000000
C           0.96483856       -0.00000000       -0.00000000
H          -1.53733221        0.89334246        0.32884765
H          -1.53733221       -0.89334246       -0.32884765
H           1.53733222        0.89334247       -0.32884765
H           1.53733221       -0.89334247        0.32884765
6
MD Time 180.00
C          -0.96008454        0.00000000        0.00000000
C           0.96008454       -0.00000000       -0.00000000
H          -1.53157997        0.89680773        0.32524045
H          -1.53157996       -0.89680773       -0.32524045
H           1.53157997        0.89680773       -0.32524045
H           1.53157997       -0.89680773        0.32524045
6
MD Time 190.00
C          -0.95505424        0.00000000        0.00000000
C           0.95505424       -0.00000000       -0.00000000
H          -1.52541322        0.90017766        0.32129833
H          -1.52541322       -0.90017766       -0.32129833
H           1.52541322        0.90017767       -0.32129833
H           1.52541322       -0.90017767        0.32129833
6
MD Time 200.00
C          -0.94974462        0.00000000        0.00000000
C           0.94974462       -0.00000000       -0.00000000
H          -1.51883283        0.90343029        0.31701208
H          -1.51883283       -0.90343029       -0.31701208
H           1.51883283        0.90343029       -0.31701207
H           1.51883283       -0.90343029        0.31701207
6
MD Time 210.00
C          -0.94415219        0.00000000        0.00000000
C           0.94415219       -0.00000000       -0.00000000
H          -1.51184215        0.90654715        0.31237402
H          -1.51184215       -0.90654715       -0.31237402
H           1.51184215        0.90654715       -0.31237402
H           1.51184215       -0.90654715        0.31237401
6
MD Time 220.00
C          -0.93827295        0.00000000        0.00000000
C           0.93827295       -0.00000000       -0.00000000
H          -1.50444708        0.90951349        0.30737803
H          -1.50444708       -0.90951349       -0.30737803
H           1.50444708        0.90951349       -0.30737802
H           1.50444708       -0.90951349        0.30737802
6
MD Time 230.00
C          -0.93210248        0.00000000        0.00000000
C           0.93210248       -0.00000000       -0.00000000
H          -1.49665600        0.91231830        0.30201951
H          -1.49665600       -0.91231830       -0.30201951
H           1.49665600        0.91231830       -0.30201950
H           1.49665600       -0.91231830        0.30201950
6
MD Time 240.00
C          -0.92563596        0.00000000        0.00000000
C           0.92563596       -0.00000000       -0.00000000
H          -1.48847973        0.91495430        0.29629539
H          -1.48847972       -0.91495430       -0.29629539
H           1.48847973        0.91495430       -0.29629538
H           1.48847972       -0.91495430        0.29629538
6
MD Time 250.00
C          -0.91886822        0.00000000        0.00000000
C           0.91886822       -0.00000000       -0.00000000
H          -1.47993141        0.91741791        0.29020402
H          -1.47993141       -0.91741791       -0.29020402
H           1.47993142        0.91741791       -0.29020402
H           1.47993141       -0.91741791        0.29020401
6
MD Time 260.00
C          -0.91179379        0.00000000        0.00000000
C           0.91179379       -0.00000000       -0.00000000
H          -1.47102643        0.91970910        0.28374514
H          -1.47102642       -0.91970910       -0.28374515
H           1.47102643        0.91970910       -0.28374514
H           1.47102642       -0.91970910        0.28374514
6
MD Time 270.00
C          -0.90440697        0.00000000        0.00000000
C           0.90440697       -0.00000000       -0.00000000
H          -1.46178217        0.92183120        0.27691977
H          -1.46178217       -0.92183120       -0.27691977
H           1.46178217        0.92183120       -0.27691976
H           1.46178217       -0.92183120        0.27691976
6
MD Time 280.00
C          -0.89670197        0.00000000        0.00000000
C           0.89670197       -0.00000000       -0.00000000
H          -1.45221791        0.92379065        0.26973006
H          -1.45221791       -0.92379065       -0.26973006
H           1.45221791        0.92379065       -0.26973005
H           1.45221791       -0.92379065        0.26973005
6
MD Time 290.00
C          -0.88867294        0.00000000        0.00000000
C           0.88867294       -0.00000000       -0.00000000
H          -1.44235455        0.92559668        0.26217925
H          -1.44235455       -0.92559668       -0.26217925
H           1.44235456        0.92559669       -0.26217924
H           1.44235455       -0.92559668        0.26217924
6
MD Time 300.00
C          -0.88031417        0.00000000        0.00000000
C           0.88031417       -0.00000000       -0.00000000
H          -1.43221440        0.92726094        0.25427149
H          -1.43221439       -0.92726094       -0.25427149
H           1.43221440        0.92726094       -0.25427149
H           1.43221439       -0.92726094        0.25427149
6
MD Time 310.00
C          -0.87162017        0.00000000        0.00000000
C           0.87162017       -0.00000000       -0.00000000
H          -1.42182086        0.92879704        0.24601176
H          -1.42182086       -0.92879704       -0.24601176
H           1.42182086        0.92879704       -0.24601176
H           1.42182086       -0.92879704        0.24601176
6
MD Time 320.00
C          -0.86258589        0.00000000        0.00000000
C           0.86258589       -0.00000000       -0.00000000
H          -1.41119820        0.93022008        0.23740571
H          -1.41119820       -0.93022008       -0.23740572
H           1.41119820        0.93022008       -0.23740571
H           1.41119820       -0.93022008        0.23740571
6
MD Time 330.00
C          -0.85320685        0.00000000        0.00000000
C           0.85320685       -0.00000000       -0.00000000
H          -1.40037120        0.93154609        0.22845961
H          -1.40037119       -0.93154609       -0.22845961
H           1.40037120        0.93154609       -0.22845960
H           1.40037119       -0.93154609        0.22845960
6
MD Time 340.00
C          -0.84347945        0.00000000        0.00000000
C           0.84347945       -0.00000000       -0.00000000
H          -1.38936482        0.93279149        0.21918019
H          -1.38936482       -0.93279149       -0.21918019
H           1.38936482        0.93279149       -0.21918019
H           1.38936482       -0.93279149        0.21918019
6
MD Time 350.00
C          -0.83340114        0.00000000        0.00000000
C           0.83340114       -0.00000000       -0.00000000
H          -1.37820392        0.93397244        0.20957465
H          -1.37820392       -0.93397244       -0.20957465
H           1.37820393        0.93397244       -0.20957464
H           1.37820392       -0.93397244        0.20957465
6
MD Time 360.00
C          -0.82297076        0.00000000        0.00000000
C           0.82297076       -0.00000000       -0.00000000
H          -1.36691288        0.93510426        0.19965056
H          -1.36691288       -0.93510426       -0.19965057
H           1.36691289        0.93510426       -0.19965056
H           1.36691288       -0.93510426        0.19965056
6
MD Time 370.00
C          -0.81218886        0.00000000        0.00000000
C           0.81218886       -0.00000000       -0.00000000
H          -1.35551530        0.93620081        0.18941590
H          -1.35551529       -0.93620081       -0.18941591
H           1.35551530        0.93620081       -0.18941590
H           1.35551529       -0.93620081        0.18941590
6
MD Time 380.00
C          -0.80105808        0.00000000        0.00000000
C           0.80105808       -0.00000000       -0.00000000
H          -1.34403367        0.93727391        0.17887905
H          -1.34403367       -0.93727391       -0.17887906
H           1.34403367        0.93727391       -0.17887905
H           1.34403367       -0.93727391        0.17887905
6
MD Time 390.00
C          -0.78958359        0.00000000        0.00000000
C           0.78958359       -0.00000000       -0.00000000
H          -1.33248913        0.93833281        0.16804890
H          -1.33248913       -0.93833281       -0.16804890
H           1.33248914        0.93833281       -0.16804889
H           1.33248913       -0.93833281        0.16804890
6
MD Time 400.00
C          -0.77777357        0.00000000        0.00000000
C           0.77777357       -0.00000000       -0.00000000
H          -1.32090121        0.93938373        0.15693491
H          -1.32090121       -0.93938373       -0.15693492
H           1.32090122        0.93938373       -0.15693491
H           1.32090121       -0.93938373        0.15693492
6
MD Time 410.00
C          -0.76563978        0.00000000        0.00000000
C           0.76563978       -0.00000000       -0.00000000
H          -1.30928763        0.94042949        0.14554735
H          -1.30928763       -0.94042949       -0.14554736
H           1.30928763        0.94042949       -0.14554734
H           1.30928763       -0.94042949        0.14554735
6
MD Time 420.00
C          -0.75319819        0.00000000        0.00000000
C           0.75319819       -0.00000000       -0.00000000
H          -1.29766419        0.94146924        0.13389738
H          -1.29766418       -0.94146924       -0.13389739
H           1.29766419        0.94146924       -0.13389738
H           1.29766418       -0.94146924        0.13389739
6
MD Time 430.00
C          -0.74046967        0.00000000        0.00000000
C           0.74046967       -0.00000000       -0.00000000
H          -1.28604468        0.94249835        0.12199737
H          -1.28604468       -0.94249834       -0.12199738
H           1.28604469        0.94249834       -0.12199736
H           1.28604468       -0.94249835        0.12199737
6
MD Time 440.00
C          -0.72748085        0.00000000        0.00000000
C           0.72748085       -0.00000000       -0.00000000
H          -1.27444097        0.94350842        0.10986104
H          -1.27444097       -0.94350842       -0.10986105
H           1.27444097        0.94350841       -0.10986104
H           1.27444097       -0.94350842        0.10986105
6
MD Time 450.00
C          -0.71426494        0.00000000        0.00000000
C           0.71426494       -0.00000000       -0.00000000
H          -1.26286305        0.94448744        0.09750381
H          -1.26286304       -0.94448744       -0.09750382
H           1.26286305        0.94448744       -0.09750380
H           1.26286304       -0.94448745        0.09750381
6
MD Time 460.00
C          -0.70086277        0.00000000        0.00000000
C           0.70086277       -0.00000000       -0.00000000
H          -1.25131926        0.94542015        0.08494294
H          -1.25131926       -0.94542015       -0.08494295
H           1.25131926        0.94542015       -0.08494293
H           1.25131926       -0.94542015        0.08494295
6
MD Time 470.00
C          -0.68732381        0.00000000        0.00000000
C           0.68732381        0.00000000       -0.00000000
H          -1.23981662        0.94628842        0.07219782
H          -1.23981662       -0.94628842       -0.07219784
H           1.23981662        0.94628842       -0.07219782
H           1.23981662       -0.94628842        0.07219783
6
MD Time 480.00
C          -0.67370731        0.00000000        0.00000000
C           0.67370731        0.00000000       -0.00000000
H          -1.22836121        0.94707194        0.05929013
H          -1.22836121       -0.94707194       -0.05929015
H           1.22836121        0.94707194       -0.05929013
H           1.22836121       -0.94707194        0.05929014
6
MD Time 490.00
C          -0.66008343        0.00000000        0.00000000
C           0.66008343        0.00000000       -0.00000000
H          -1.21695868        0.94774893        0.04624397
H          -1.21695867       -0.94774893       -0.04624398
H           1.21695868        0.94774893       -0.04624396
H           1.21695867       -0.94774893        0.04624398
6
MD Time 500.00
C          -0.64653429        0.00000000        0.00000000
C           0.64653429        0.00000000       -0.00000000
H          -1.20561485        0.94829696        0.03308590
H          -1.20561484       -0.94829696       -0.03308592
H           1.20561485        0.94829696       -0.03308590
H           1.20561484       -0.94829696        0.03308592
6
MD Time 510.00
C          -0.63315493        0.00000000        0.00000000
C           0.63315493        0.00000000       -0.00000000
H          -1.19433641        0.94869387        0.01984500
H          -1.19433641       -0.94869387       -0.01984502
H           1.19433641        0.94869387       -0.01984500
H           1.19433640       -0.94869387        0.01984502
6
MD Time 520.00
C          -0.62005394        0.00000000        0.00000000
C           0.62005394        0.00000000       -0.00000001
H          -1.18313169        0.94891879        0.00655270
H          -1.18313168       -0.94891880       -0.00655272
H           1.18313169        0.94891879       -0.00655269
H           1.18313168       -0.94891880        0.00655272
6
MD Time 530.00
C          -0.60735361        0.00000000        0.00000000
C           0.60735361        0.00000000       -0.00000001
H          -1.17201146        0.94895315       -0.00675738
H          -1.17201145       -0.94895315        0.00675736
H           1.17201146        0.94895315        0.00675739
H           1.17201145       -0.94895315       -0.00675736
6
MD Time 540.00
C          -0.59518944        0.00000000        0.00000000
C           0.59518944        0.00000000       -0.00000001
H          -1.16098981        0.94878170       -0.02004969
H          -1.16098980       -0.94878170        0.02004966
H           1.16098980        0.94878170        0.02004969
H           1.16098980       -0.94878170       -0.02004967
6
MD Time 550.00
C          -0.58370871        0.00000000        0.00000000
C           0.58370872        0.00000000       -0.00000001
H          -1.15008501        0.94839363       -0.03328711
H          -1.15008500       -0.94839363        0.03328709
H           1.15008501        0.94839363        0.03328712
H           1.15008500       -0.94839363       -0.03328709
6
MD Time 560.00
C          -0.57306792        0.00000000        0.00000000
C           0.57306792        0.00000000       -0.00000001
H          -1.13932036        0.94778355       -0.04643141
H          -1.13932035       -0.94778355        0.04643138
H           1.13932036        0.94778355        0.04643142
H           1.13932035       -0.94778355       -0.04643139
6
MD Time 570.00
C          -0.56342878        0.00000000        0.00000001
C           0.56342878        0.00000000       -0.00000001
H          -1.12872494        0.94695257       -0.05944372
H          -1.12872493       -0.94695257        0.05944369
H           1.12872494        0.94695256        0.05944373
H           1.12872493       -0.94695257       -0.05944369
6
MD Time 580.00
C          -0.55495293        0.00000000        0.00000001
C           0.55495293        0.00000000       -0.00000001
H          -1.11833427        0.94590922       -0.07228508
H          -1.11833426       -0.94590923        0.07228505
H           1.11833426        0.94590922        0.07228509
H           1.11833425       -0.94590923       -0.07228505
6
MD Time 590.00
C          -0.54779519        0.00000000        0.00000001
C           0.54779519        0.00000000       -0.00000001
H          -1.10819078        0.94467043       -0.08491705
H          -1.10819077       -0.94467043        0.08491702
H           1.10819078        0.94467043        0.08491706
H           1.10819077       -0.94467043       -0.08491702
6
MD Time 600.00
C          -0.54209587        0.00000000        0.00000001
C           0.54209587        0.00000000       -0.00000001
H          -1.09834412        0.94326224       -0.09730232
H          -1.09834411       -0.94326225        0.09730229
H           1.09834411        0.94326224        0.09730233
H           1.09834411       -0.94326225       -0.09730229
6
MD Time 610.00
C          -0.53797264        0.00000000        0.00000001
C           0.53797264        0.00000000       -0.00000001
H          -1.08885113        0.94172052       -0.10940536
H          -1.08885112       -0.94172052        0.10940532
H           1.08885112        0.94172051        0.10940537
H           1.08885111       -0.94172052       -0.10940532
6
MD Time 620.00
C          -0.53551295        0.00000000        0.00000001
C           0.53551295        0.00000000       -0.00000001
H          -1.07977555        0.94009125       -0.12119304
H          -1.07977554       -0.94009125        0.12119300
H           1.07977554        0.94009125        0.12119305
H           1.07977554       -0.94009125       -0.12119300
6
MD Time 630.00
C          -0.53476774        0.00000000        0.00000001
C           0.53476774        0.00000000       -0.00000001
H          -1.07118742        0.93843063       -0.13263532
H          -1.07118741       -0.93843063        0.13263528
H           1.07118741        0.93843063        0.13263533
H           1.07118740       -0.93843064       -0.13263528
6
MD Time 640.00
C          -0.53574753        0.00000000        0.00000001
C           0.53574753        0.00000000       -0.00000001
H          -1.06316202        0.93680460       -0.14370580
H          -1.06316201       -0.93680461        0.14370576
H           1.06316201        0.93680460        0.14370581
H           1.06316201       -0.93680461       -0.14370576
6
MD Time 650.00
C          -0.53842141        0.00000000        0.00000001
C           0.53842141        0.00000000       -0.00000001
H          -1.05577855        0.93528789       -0.15438226
H          -1.05577854       -0.93528790        0.15438222
H           1.05577854        0.93528790        0.15438227
H           1.05577854       -0.93528790       -0.15438221
6
MD Time 660.00
C          -0.54271910        0.00000000        0.00000001
C           0.54271910        0.00000000       -0.00000001
H          -1.04911838        0.93396240       -0.16464701
H          -1.04911838       -0.93396241        0.16464697
H           1.04911838        0.93396240        0.16464702
H           1.04911837       -0.93396241       -0.16464697
6
MD Time 670.00
C          -0.54853584        0.00000000        0.00000001
C           0.54853584        0.00000000       -0.00000001
H          -1.04326303        0.93291492       -0.17448718
H          -1.04326302       -0.93291493        0.17448714
H           1.04326302        0.93291492        0.17448719
H           1.04326301       -0.93291493       -0.17448713
6
MD Time 680.00
C          -0.55573927        0.00000000        0.00000001
C           0.55573927        0.00000000       -0.00000001
H          -1.03829185        0.93223420       -0.18389462
H          -1.03829184       -0.93223421        0.18389457
H           1.03829184        0.93223421        0.18389463
H           1.03829184       -0.93223421       -0.18389457
6
MD Time 690.00
C          -0.56417754        0.00000000        0.00000001
C           0.56417755        0.00000000       -0.00000001
H          -1.03427967        0.93200749       -0.19286563
H          -1.03427966       -0.93200750        0.19286559
H           1.03427966        0.93200749        0.19286564
H           1.03427966       -0.93200750       -0.19286558
6
MD Time 700.00
C          -0.57368752        0.00000000        0.00000001
C           0.57368752        0.00000000       -0.00000001
H          -1.03129437        0.93231655       -0.20140041
H          -1.03129436       -0.93231656        0.20140037
H           1.03129436        0.93231656        0.20140043
H           1.03129436       -0.93231657       -0.20140036
6
MD Time 710.00
C          -0.58410245        0.00000000        0.00000001
C           0.58410245        0.00000000       -0.00000001
H          -1.02939458        0.93323358       -0.20950216
H          -1.02939458       -0.93323359        0.20950211
H           1.02939458        0.93323358        0.20950217
H           1.02939457       -0.93323359       -0.20950210
6
MD Time 720.00
C          -0.59525841        0.00000000        0.00000001
C           0.59525841        0.00000000       -0.00000001
H          -1.02862777        0.93481709       -0.21717599
H          -1.02862776       -0.93481711        0.21717594
H           1.02862776        0.93481710        0.21717600
H           1.02862776       -0.93481711       -0.21717593
6
MD Time 730.00
C          -0.60699941        0.00000000        0.00000001
C           0.60699941        0.00000000       -0.00000001
H          -1.02902867        0.93710829       -0.22442771
H          -1.02902866       -0.93710830        0.22442767
H           1.02902866        0.93710829        0.22442773
H           1.02902866       -0.93710831       -0.22442766
6
MD Time 740.00
C          -0.61918089        0.00000000        0.00000001
C           0.61918089        0.00000000       -0.00000001
H          -1.03061834        0.94012799       -0.23126261
H          -1.03061833       -0.94012801        0.23126256
H           1.03061833        0.94012800        0.23126262
H           1.03061833       -0.94012801       -0.23126255
6
MD Time 750.00
C          -0.63167196        0.00000000        0.00000001
C           0.63167196        0.00000000       -0.00000001
H          -1.03340377        0.94387461       -0.23768422
H          -1.03340377       -0.94387462        0.23768417
H           1.03340376        0.94387461        0.23768424
H           1.03340377       -0.94387463       -0.23768416
6
MD Time 760.00
C          -0.64435640        0.00000000        0.00000000
C           0.64435640        0.00000000       -0.00000001
H          -1.03737817        0.94832318       -0.24369348
H          -1.03737817       -0.94832319        0.24369343
H           1.03737816        0.94832318        0.24369350
H           1.03737816       -0.94832320       -0.24369342
6
MD Time 770.00
C          -0.65713277        0.00000000        0.00000000
C           0.65713277        0.00000000       -0.00000001
H          -1.04252170        0.95342565       -0.24928802
H          -1.04252170       -0.95342567        0.24928797
H           1.04252169        0.95342566        0.24928804
H           1.04252169       -0.95342567       -0.24928796
6
MD Time 780.00
C          -0.66991386        0.00000000        0.00000000
C           0.66991386        0.00000000       -0.00000001
H          -1.04880275        0.95911232       -0.25446189
H          -1.04880274       -0.95911233        0.25446184
H           1.04880274        0.95911232        0.25446191
H           1.04880274       -0.95911234       -0.25446183
6
MD Time 790.00
C          -0.68262573        0.00000000        0.00000000
C           0.68262574        0.00000000       -0.00000001
H          -1.05617945        0.96529420       -0.25920560
H          -1.05617945       -0.96529422        0.25920554
H           1.05617945        0.96529420        0.25920562
H           1.05617945       -0.96529422       -0.25920554
6
MD Time 800.00
C          -0.69520642        0.00000000        0.00000000
C           0.69520642        0.00000000       -0.00000001
H          -1.06460142        0.97186627       -0.26350645
H          -1.06460142       -0.97186629        0.26350639
H           1.06460142        0.97186628        0.26350647
H           1.06460142       -0.97186630       -0.26350639
6
MD Time 810.00
C          -0.70760460        0.00000000        0.00000000
C           0.70760460        0.00000000       -0.00000001
H          -1.07401147        0.97871112       -0.26734912
H          -1.07401146       -0.97871114        0.26734906
H           1.07401146        0.97871112        0.26734914
H           1.07401146       -0.97871114       -0.26734906
6
MD Time 820.00
C          -0.71977826        0.00000000        0.00000000
C           0.71977826        0.00000000       -0.00000001
H          -1.08434727        0.98570280       -0.27071642
H          -1.08434726       -0.98570282        0.27071637
H           1.08434726        0.98570280        0.27071645
H           1.08434726       -0.98570282       -0.27071636
6
MD Time 830.00
C          -0.73169339        0.00000000        0.00000000
C           0.73169339        0.00000000       -0.00000001
H          -1.09554291        0.99271069       -0.27359012
H          -1.09554291       -0.99271071        0.27359006
H           1.09554291        0.99271070        0.27359014
H           1.09554291       -0.99271072       -0.27359006
6
MD Time 840.00
C          -0.74332280        0.00000000        0.00000000
C           0.74332280        0.00000000       -0.00000001
H          -1.10753023        0.99960310       -0.27595171
H          -1.10753023       -0.99960312        0.27595165
H           1.10753022        0.99960310        0.27595174
H           1.10753023       -0.99960312       -0.27595166
6
MD Time 850.00
C          -0.75464507        0.00000000        0.00000000
C           0.75464508        0.00000000       -0.00000001
H          -1.12023988        1.00625041       -0.27778329
H          -1.12023988       -1.00625043        0.27778323
H           1.12023987        1.00625041        0.27778332
H           1.12023988       -1.00625043       -0.27778324
6
MD Time 860.00
C          -0.76564364        0.00000000        0.00000000
C           0.76564364        0.00000000       -0.00000001
H          -1.13360232        1.01252789       -0.27906818
H          -1.13360232       -1.01252791        0.27906812
H           1.13360231        1.01252789        0.27906822
H           1.13360232       -1.01252791       -0.27906813
6
MD Time 870.00
C          -0.77630598        0.00000000        0.00000000
C           0.77630598        0.00000000       -0.00000001
H          -1.14754847        1.01831792       -0.27979155
H          -1.14754847       -1.01831794        0.27979149
H           1.14754846        1.01831792        0.27979158
H           1.14754847       -1.01831794       -0.27979149
6
MD Time 880.00
C          -0.78662291        0.00000000        0.00000000
C           0.78662291        0.00000000       -0.00000001
H          -1.16201033        1.02351183       -0.27994089
H          -1.16201032       -1.02351185        0.27994082
H           1.16201032        1.02351183        0.27994092
H           1.16201032       -1.02351185       -0.27994083
6
MD Time 890.00
C          -0.79658806        0.00000000        0.00000000
C           0.79658806        0.00000000       -0.00000000
H          -1.17692135        1.02801125       -0.27950638
H          -1.17692134       -1.02801127        0.27950632
H           1.17692134        1.02801124        0.27950642
H           1.17692134       -1.02801127       -0.27950633
6
MD Time 900.00
C          -0.80619732        0.00000000        0.00000000
C           0.80619732        0.00000000       -0.00000000
H          -1.19221680        1.03172912       -0.27848119
H          -1.19221679       -1.03172914        0.27848112
H           1.19221679        1.03172912        0.27848123
H           1.19221679       -1.03172914       -0.27848114
6
MD Time 910.00
C          -0.81544845        0.00000000        0.00000000
C           0.81544845        0.00000000       -0.00000000
H          -1.20783399        1.03459045       -0.27686161
H          -1.20783398       -1.03459047        0.27686155
H           1.20783398        1.03459044        0.27686166
H           1.20783399       -1.03459046       -0.27686156
6
MD Time 920.00
C          -0.82434069        0.00000000        0.00000000
C           0.82434070        0.00000000       -0.00000000
H          -1.22371247        1.03653271       -0.27464721
H          -1.22371246       -1.03653273        0.27464714
H           1.22371246        1.03653270        0.27464726
H           1.22371246       -1.03653272       -0.27464716
6
MD Time 930.00
C          -0.83287451        0.00000000        0.00000000
C           0.83287451        0.00000000       -0.00000000
H          -1.23979416        1.03750620       -0.27184085
H          -1.23979416       -1.03750622        0.27184078
H           1.23979416        1.03750619        0.27184090
H           1.23979416       -1.03750621       -0.27184080
6
MD Time 940.00
C          -0.84105126        0.00000000        0.00000000
C           0.84105127        0.00000000       -0.00000000
H          -1.25602355        1.03747417       -0.26844869
H          -1.25602354       -1.03747419        0.26844862
H           1.25602354        1.03747416        0.26844875
H           1.25602354       -1.03747418       -0.26844865
6
MD Time 950.00
C          -0.84887303        0.00000000        0.00000000
C           0.84887303        0.00000000       -0.00000000
H          -1.27234774        1.03641292       -0.26448017
H          -1.27234773       -1.03641294        0.26448009
H           1.27234773        1.03641291        0.26448022
H           1.27234774       -1.03641293       -0.26448012
6
MD Time 960.00
C          -0.85634235       -0.00000000        0.00000000
C           0.85634235        0.00000000       -0.00000000
H          -1.28871668        1.03431178       -0.25994788
H          -1.28871667       -1.03431180        0.25994780
H           1.28871667        1.03431177        0.25994793
H           1.28871668       -1.03431178       -0.25994784
6
MD Time 970.00
C          -0.86346209       -0.00000000        0.00000000
C           0.86346209        0.00000000       -0.00000000
H          -1.30508327        1.03117309       -0.25486751
H          -1.30508326       -1.03117310        0.25486743
H           1.30508326        1.03117307        0.25486757
H           1.30508327       -1.03117309       -0.25486747
6
MD Time 980.00
C          -0.87023524       -0.00000000       -0.00000000
C           0.87023524        0.00000000       -0.00000000
H          -1.32140354        1.02701213       -0.24925768
H          -1.32140354       -1.02701215        0.24925761
H           1.32140353        1.02701212        0.24925775
H           1.32140354       -1.02701214       -0.24925765
6
MD Time 990.00
C          -0.87666480       -0.00000000       -0.00000000
C           0.87666480        0.00000000       -0.00000000
H          -1.33763685        1.02185705       -0.24313980
H          -1.33763684       -1.02185706        0.24313973
H           1.33763684        1.02185703        0.24313987
H           1.33763684       -1.02185705       -0.24313977
6
MD Time 1000.00
C          -0.88275361       -0.00000000       -0.00000000
C           0.88275361        0.00000000       -0.00000000
H          -1.35374605        1.01574864       -0.23653787
H          -1.35374605       -1.01574866        0.23653780
H           1.35374605        1.01574863        0.23653794
H           1.35374605       -1.01574864       -0.23653784
6
MD Time 1010.00
C          -0.88850425       -0.00000000       -0.00000000
C           0.88850425        0.00000000       -0.00000000
H          -1.36969775        1.00874020       -0.22947824
H          -1.36969775       -1.00874022        0.22947817
H           1.36969775        1.00874019        0.22947832
H           1.36969775       -1.00874020       -0.22947822
6
MD Time 1020.00
C          -0.89391892       -0.00000000       -0.00000000
C           0.89391892        0.00000000       -0.00000000
H          -1.38546244        1.00089719       -0.22198939
H          -1.38546243       -1.00089721        0.22198931
H           1.38546243        1.00089718        0.22198947
H           1.38546243       -1.00089719       -0.22198937
6
MD Time 1030.00
C          -0.89899938       -0.00000000       -0.00000000
C           0.89899938        0.00000000        0.00000000
H          -1.40101467        0.99229680       -0.21410158
H          -1.40101466       -0.99229681        0.21410151
H           1.40101466        0.99229678        0.21410166
H           1.40101467       -0.99229679       -0.21410156
6
MD Time 1040.00
C          -0.90374683       -0.00000000       -0.00000000
C           0.90374683        0.00000000        0.00000000
H          -1.41633321        0.98302732       -0.20584656
H          -1.41633320       -0.98302734        0.20584648
H           1.41633320        0.98302731        0.20584664
H           1.41633320       -0.98302732       -0.20584654
6
MD Time 1050.00
C          -0.90816189       -0.00000000       -0.00000000
C           0.90816189        0.00000000        0.00000000
H          -1.43140101        0.97318739       -0.19725713
H          -1.43140100       -0.97318741        0.19725705
H           1.43140100        0.97318738        0.19725721
H           1.43140100       -0.97318739       -0.19725711
6
MD Time 1060.00
C          -0.91224456       -0.00000000       -0.00000000
C           0.91224456        0.00000000        0.00000000
H          -1.44620516        0.96288487       -0.18836671
H          -1.44620515       -0.96288489        0.18836663
H           1.44620515        0.96288486        0.18836680
H           1.44620516       -0.96288487       -0.18836670
6
MD Time 1070.00
C          -0.91599425       -0.00000000       -0.00000000
C           0.91599425        0.00000000        0.00000000
H          -1.46073666        0.95223550       -0.17920887
H          -1.46073665       -0.95223552        0.17920879
H           1.46073665        0.95223549        0.17920896
H           1.46073665       -0.95223549       -0.17920886
6
MD Time 1080.00
C          -0.91940980       -0.00000000       -0.00000000
C           0.91940980        0.00000000        0.00000000
H          -1.47498997        0.94136122       -0.16981678
H          -1.47498996       -0.94136123        0.16981671
H           1.47498997        0.94136120        0.16981688
H           1.47498997       -0.94136121       -0.16981678
6
MD Time 1090.00
C          -0.92248960       -0.00000000       -0.00000000
C           0.92248960        0.00000000        0.00000000
H          -1.48896244        0.93038815       -0.16022268
H          -1.48896243       -0.93038817        0.16022260
H           1.48896244        0.93038814        0.16022277
H           1.48896244       -0.93038814       -0.16022268
6
MD Time 1100.00
C          -0.92523168       -0.00000000       -0.00000001
C           0.92523168        0.00000000        0.00000000
H          -1.50265339        0.91944432       -0.15045730
H          -1.50265338       -0.91944434        0.15045722
H           1.50265338        0.91944431        0.15045740
H           1.50265338       -0.91944431       -0.15045730
6
MD Time 1110.00
C          -0.92763392       -0.00000000       -0.00000001
C           0.92763392        0.00000000        0.00000000
H          -1.51606304        0.90865705       -0.14054937
H          -1.51606303       -0.90865707        0.14054929
H           1.51606304        0.90865704        0.14054947
H           1.51606304       -0.90865704       -0.14054938
6
MD Time 1120.00
C          -0.92969426       -0.00000000       -0.00000001
C           0.92969426        0.00000000        0.00000000
H          -1.52919123        0.89815022       -0.13052512
H          -1.52919122       -0.89815023        0.13052505
H           1.52919123        0.89815020        0.13052523
H           1.52919123       -0.89815021       -0.13052514
6
MD Time 1130.00
C          -0.93141094       -0.00000000       -0.00000001
C           0.93141094        0.00000000        0.00000001
H          -1.54203591        0.88804142       -0.12040792
H          -1.54203590       -0.88804143        0.12040785
H           1.54203591        0.88804140        0.12040803
H           1.54203590       -0.88804140       -0.12040794
6
MD Time 1140.00
C          -0.93278275       -0.00000000       -0.00000001
C           0.93278275        0.00000000        0.00000001
H          -1.55459155        0.87843923       -0.11021800
H          -1.55459154       -0.87843924        0.11021792
H           1.55459155        0.87843922        0.11021811
H           1.55459155       -0.87843922       -0.11021802
6
MD Time 1150.00
C          -0.93380933       -0.00000000       -0.00000001
C           0.93380933        0.00000000        0.00000001
H          -1.56684764        0.86944068       -0.09997231
H          -1.56684763       -0.86944070        0.09997224
H           1.56684764        0.86944067        0.09997243
H           1.56684764       -0.86944067       -0.09997234
6
MD Time 1160.00
C          -0.93449137       -0.00000000       -0.00000001
C           0.93449137        0.00000000        0.00000001
H          -1.57878719        0.86112910       -0.08968463
H          -1.57878718       -0.86112912        0.08968455
H           1.57878720        0.86112909        0.08968475
H           1.57878720       -0.86112909       -0.08968466
6
MD Time 1170.00
C          -0.93483086       -0.00000000       -0.00000001
C           0.93483086        0.00000000        0.00000001
H          -1.59038560        0.85357246       -0.07936568
H          -1.59038559       -0.85357248        0.07936560
H           1.59038560        0.85357245        0.07936580
H           1.59038560       -0.85357245       -0.07936572
6
MD Time 1180.00
C          -0.93483121       -0.00000000       -0.00000001
C           0.93483121        0.00000000        0.00000001
H          -1.60160976        0.84682232       -0.06902355
H          -1.60160975       -0.84682234        0.06902348
H           1.60160976        0.84682231        0.06902368
H           1.60160976       -0.84682231       -0.06902359
6
MD Time 1190.00
C          -0.93449731       -0.00000000       -0.00000001
C           0.93449730        0.00000000        0.00000001
H          -1.61241770        0.84091344       -0.05866413
H          -1.61241769       -0.84091345        0.05866406
H           1.61241771        0.84091343        0.05866426
H           1.61241771       -0.84091343       -0.05866418
6
MD Time 1200.00
C          -0.93383554       -0.00000000       -0.00000001
C           0.93383553        0.00000000        0.00000001
H          -1.62275870        0.83586397       -0.04829167
H          -1.62275869       -0.83586399        0.04829160
H           1.62275870        0.83586396        0.04829180
H           1.62275870       -0.83586396       -0.04829172
6
MD Time 1210.00
C          -0.93285367       -0.00000000       -0.00000001
C           0.93285367        0.00000000        0.00000001
H          -1.63257382        0.83167630       -0.03790937
H          -1.63257381       -0.83167631        0.03790930
H           1.63257383        0.83167629        0.03790951
H           1.63257383       -0.83167629       -0.03790943
6
MD Time 1220.00
C          -0.93156070       -0.00000000       -0.00000001
C           0.93156070        0.00000000        0.00000001
H          -1.64179703        0.82833829       -0.02752001
H          -1.64179702       -0.82833830        0.02751994
H           1.64179704        0.82833828        0.02752015
H           1.64179704       -0.82833828       -0.02752008
6
MD Time 1230.00
C          -0.92996664       -0.00000000       -0.00000001
C           0.92996663        0.00000000        0.00000001
H          -1.65035653        0.82582493       -0.01712646
H          -1.65035651       -0.82582494        0.01712640
H           1.65035653        0.82582492        0.01712661
H           1.65035653       -0.82582492       -0.01712654
6
MD Time 1240.00
C          -0.92808220       -0.00000000       -0.00000001
C           0.92808220        0.00000000        0.00000001
H          -1.65817644        0.82410019       -0.00673223
H          -1.65817643       -0.82410020        0.00673216
H           1.65817645        0.82410019        0.00673238
H           1.65817645       -0.82410018       -0.00673231
6
MD Time 1250.00
C          -0.92591857       -0.00000000       -0.00000001
C           0.92591857        0.00000000        0.00000001
H          -1.66517868        0.82311898        0.00365821
H          -1.66517866       -0.82311899       -0.00365827
H           1.66517869        0.82311898       -0.00365805
H           1.66517869       -0.82311897        0.00365812
6
MD Time 1260.00
C          -0.92348706       -0.00000000       -0.00000001
C           0.92348706        0.00000000        0.00000001
H          -1.67128470        0.82282909        0.01403902
H          -1.67128469       -0.82282910       -0.01403908
H           1.67128471        0.82282909       -0.01403886
H           1.67128471       -0.82282908        0.01403892
6
MD Time 1270.00
C          -0.92079885       -0.00000000       -0.00000001
C           0.92079885        0.00000000        0.00000001
H          -1.67641739        0.82317304        0.02440288
H          -1.67641738       -0.82317305       -0.02440294
H           1.67641741        0.82317303       -0.02440271
H           1.67641741       -0.82317303        0.02440278
6
MD Time 1280.00
C          -0.91786473       -0.00000000       -0.00000001
C           0.91786472        0.00000000        0.00000001
H          -1.68050265        0.82408976        0.03474080
H          -1.68050264       -0.82408978       -0.03474086
H           1.68050266        0.82408976       -0.03474063
H           1.68050266       -0.82408975        0.03474069
6
MD Time 1290.00
C          -0.91469485       -0.00000000       -0.00000002
C           0.91469485        0.00000000        0.00000002
H          -1.68347086        0.82551615        0.04504214
H          -1.68347085       -0.82551616       -0.04504221
H           1.68347088        0.82551615       -0.04504197
H           1.68347088       -0.82551614        0.04504203
6
MD Time 1300.00
C          -0.91129857       -0.00000000       -0.00000002
C           0.91129857        0.00000000        0.00000002
H          -1.68525814        0.82738833        0.05529462
H          -1.68525813       -0.82738834       -0.05529468
H           1.68525815        0.82738833       -0.05529444
H           1.68525815       -0.82738832        0.05529450
6
MD Time 1310.00
C          -0.90768428       -0.00000000       -0.00000002
C           0.90768427        0.00000000        0.00000002
H          -1.68580733        0.82964278        0.06548439
H          -1.68580732       -0.82964280       -0.06548445
H           1.68580735        0.82964279       -0.06548421
H           1.68580735       -0.82964278        0.06548427
6
MD Time 1320.00
C          -0.90385927       -0.00000000       -0.00000002
C           0.90385927        0.00000000        0.00000002
H          -1.68506883        0.83221731        0.07559619
H          -1.68506882       -0.83221733       -0.07559625
H           1.68506885        0.83221732       -0.07559601
H           1.68506885       -0.83221731        0.07559607
6
MD Time 1330.00
C          -0.89982972       -0.00000000       -0.00000002
C           0.89982971        0.00000000        0.00000002
H          -1.68300114        0.83505181        0.08561351
H          -1.68300112       -0.83505182       -0.08561358
H           1.68300115        0.83505181       -0.08561334
H           1.68300115       -0.83505180        0.08561339
6
MD Time 1340.00
C          -0.89560056       -0.00000000       -0.00000002
C           0.89560055        0.00000000        0.00000002
H          -1.67957132        0.83808890        0.09551877
H          -1.67957131       -0.83808891       -0.09551883
H           1.67957134        0.83808891       -0.09551859
H           1.67957134       -0.83808890        0.09551864
6
MD Time 1350.00
C          -0.89117551       -0.00000000       -0.00000002
C           0.89117550        0.00000000        0.00000002
H          -1.67475529        0.84127453        0.10529348
H          -1.67475528       -0.84127454       -0.10529354
H           1.67475531        0.84127453       -0.10529330
H           1.67475531       -0.84127452        0.10529335
6
MD Time 1360.00
C          -0.88655705       -0.00000000       -0.00000002
C           0.88655704        0.00000000        0.00000002
H          -1.66853797        0.84455840        0.11491851
H          -1.66853795       -0.84455841       -0.11491857
H           1.66853798        0.84455841       -0.11491833
H           1.66853798       -0.84455840        0.11491838
6
MD Time 1370.00
C          -0.88174644       -0.00000000       -0.00000002
C           0.88174643        0.00000000        0.00000002
H          -1.66091337        0.84789445        0.12437424
H          -1.66091335       -0.84789446       -0.12437430
H           1.66091339        0.84789446       -0.12437406
H           1.66091338       -0.84789445        0.12437411
6
MD Time 1380.00
C          -0.87674373       -0.00000000       -0.00000002
C           0.87674373        0.00000000        0.00000002
H          -1.65188463        0.85124114        0.13364082
H          -1.65188462       -0.85124115       -0.13364088
H           1.65188465        0.85124115       -0.13364064
H           1.65188465       -0.85124114        0.13364069
6
MD Time 1390.00
C          -0.87154782       -0.00000000       -0.00000002
C           0.87154782        0.00000000        0.00000002
H          -1.64146400        0.85456189        0.14269833
H          -1.64146399       -0.85456190       -0.14269839
H           1.64146402        0.85456191       -0.14269816
H           1.64146402       -0.85456190        0.14269821
6
MD Time 1400.00
C          -0.86615649       -0.00000000       -0.00000002
C           0.86615649        0.00000000        0.00000002
H          -1.62967274        0.85782537        0.15152705
H          -1.62967273       -0.85782538       -0.15152712
H           1.62967277        0.85782539       -0.15152689
H           1.62967276       -0.85782538        0.15152693
6
MD Time 1410.00
C          -0.86056646       -0.00000000       -0.00000002
C           0.86056646        0.00000000        0.00000002
H          -1.61654106        0.86100581        0.16010763
H          -1.61654104       -0.86100582       -0.16010769
H           1.61654108        0.86100583       -0.16010746
H           1.61654108       -0.86100581        0.16010751
6
MD Time 1420.00
C          -0.85477346       -0.00000000       -0.00000002
C           0.85477345        0.00000000        0.00000002
H          -1.60210798        0.86408330        0.16842126
H          -1.60210797       -0.86408331       -0.16842132
H           1.60210801        0.86408332       -0.16842110
H           1.60210800       -0.86408331        0.16842115
6
MD Time 1430.00
C          -0.84877230       -0.00000000       -0.00000002
C           0.84877229        0.00000000        0.00000002
H          -1.58642120        0.86704412        0.17644995
H          -1.58642118       -0.86704413       -0.17645001
H           1.58642123        0.86704414       -0.17644979
H           1.58642122       -0.86704413        0.17644984
6
MD Time 1440.00
C          -0.84255698       -0.00000000       -0.00000002
C           0.84255697        0.00000000        0.00000002
H          -1.56953689        0.86988091        0.18417662
H          -1.56953687       -0.86988092       -0.18417669
H           1.56953692        0.86988094       -0.18417647
H           1.56953691       -0.86988092        0.18417652
6
MD Time 1450.00
C          -0.83612080       -0.00000000       -0.00000002
C           0.83612080        0.00000000        0.00000002
H          -1.55151946        0.87259297        0.19158535
H          -1.55151944       -0.87259298       -0.19158542
H           1.55151948        0.87259300       -0.19158521
H           1.55151947       -0.87259298        0.19158526
6
MD Time 1460.00
C          -0.82945649       -0.00000000       -0.00000002
C           0.82945648        0.00000000        0.00000002
H          -1.53244123        0.87518632        0.19866146
H          -1.53244121       -0.87518633       -0.19866152
H           1.53244125        0.87518635       -0.19866132
H           1.53244124       -0.87518633        0.19866137
6
MD Time 1470.00
C          -0.82255635       -0.00000000       -0.00000002
C           0.82255635        0.00000000        0.00000002
H          -1.51238207        0.87767381        0.20539165
H          -1.51238205       -0.87767382       -0.20539171
H           1.51238209        0.87767384       -0.20539152
H           1.51238209       -0.87767382        0.20539156
6
MD Time 1480.00
C          -0.81541250       -0.00000000       -0.00000002
C           0.81541250        0.00000000        0.00000002
H          -1.49142889        0.88007504        0.21176410
H          -1.49142887       -0.88007505       -0.21176417
H           1.49142891        0.88007507       -0.21176398
H           1.49142891       -0.88007505        0.21176403
6
MD Time 1490.00
C          -0.80801706       -0.00000000       -0.00000002
C           0.80801705        0.00000000        0.00000002
H          -1.46967503        0.88241613        0.21776851
H          -1.46967501       -0.88241614       -0.21776858
H           1.46967505        0.88241616       -0.21776840
H           1.46967504       -0.88241615        0.21776845
6
MD Time 1500.00
C          -0.80036243       -0.00000000       -0.00000002
C           0.80036243        0.00000000        0.00000002
H          -1.44721950        0.88472937        0.22339604
H          -1.44721948       -0.88472938       -0.22339611
H           1.44721952        0.88472940       -0.22339594
H           1.44721951       -0.88472939        0.22339599
6
MD Time 1510.00
C          -0.79244166       -0.00000000       -0.00000002
C           0.79244165        0.00000000        0.00000002
H          -1.42416613        0.88705256        0.22863928
H          -1.42416611       -0.88705257       -0.22863935
H           1.42416615        0.88705259       -0.22863918
H           1.42416614       -0.88705258        0.22863923
6
MD Time 1520.00
C          -0.78424874       -0.00000000       -0.00000002
C           0.78424874        0.00000000        0.00000002
H          -1.40062254        0.88942820        0.23349206
H          -1.40062252       -0.88942821       -0.23349213
H           1.40062256        0.88942823       -0.23349196
H           1.40062255       -0.88942822        0.23349202
6
MD Time 1530.00
C          -0.77577911       -0.00000000       -0.00000002
C           0.77577910        0.00000000        0.00000002
H          -1.37669900        0.89190239        0.23794924
H          -1.37669897       -0.89190240       -0.23794931
H           1.37669901        0.89190242       -0.23794915
H           1.37669900       -0.89190241        0.23794921
6
MD Time 1540.00
C          -0.76703004       -0.00000000       -0.00000002
C           0.76703004        0.00000000        0.00000002
H          -1.35250715        0.89452348        0.24200642
H          -1.35250712       -0.89452350       -0.24200650
H           1.35250715        0.89452352       -0.24200635
H           1.35250715       -0.89452351        0.24200641
6
MD Time 1550.00
C          -0.75800124       -0.00000000       -0.00000002
C           0.75800124        0.00000000        0.00000002
H          -1.32815873        0.89734052        0.24565959
H          -1.32815871       -0.89734053       -0.24565966
H           1.32815874        0.89734056       -0.24565952
H           1.32815873       -0.89734055        0.24565958
6
MD Time 1560.00
C          -0.74869537       -0.00000000       -0.00000002
C           0.74869536        0.00000000        0.00000002
H          -1.30376422        0.90040146        0.24890466
H          -1.30376420       -0.90040147       -0.24890474
H           1.30376423        0.90040149       -0.24890460
H           1.30376422       -0.90040148        0.24890467
6
MD Time 1570.00
C          -0.73911864       -0.00000000       -0.00000002
C           0.73911864        0.00000000        0.00000002
H          -1.27943153        0.90375129        0.25173709
H          -1.27943151       -0.90375130       -0.25173717
H           1.27943153        0.90375132       -0.25173704
H           1.27943153       -0.90375131        0.25173711
6
MD Time 1580.00
C          -0.72928150       -0.00000000       -0.00000002
C           0.72928150        0.00000000        0.00000002
H          -1.25526478        0.90743012        0.25415142
H          -1.25526476       -0.90743013       -0.25415150
H           1.25526478        0.90743015       -0.25415137
H           1.25526477       -0.90743014        0.25415145
6
MD Time 1590.00
C          -0.71919924       -0.00000000       -0.00000002
C           0.71919924        0.00000000        0.00000002
H          -1.23136322        0.91147130        0.25614088
H          -1.23136319       -0.91147132       -0.25614096
H           1.23136321        0.91147134       -0.25614085
H           1.23136320       -0.91147133        0.25614092
6
MD Time 1600.00
C          -0.70889269       -0.00000000       -0.00000002
C           0.70889269        0.00000000        0.00000002
H          -1.20782036        0.91589977        0.25769710
H          -1.20782033       -0.91589978       -0.25769718
H           1.20782035        0.91589980       -0.25769707
H           1.20782034       -0.91589979        0.25769715
6
MD Time 1610.00
C          -0.69838892       -0.00000000       -0.00000002
C           0.69838892        0.00000000        0.00000002
H          -1.18472334        0.92073057        0.25880985
H          -1.18472331       -0.92073059       -0.25880994
H           1.18472332        0.92073060       -0.25880984
H           1.18472331       -0.92073060        0.25880991
6
MD Time 1620.00
C          -0.68772188       -0.00000000       -0.00000002
C           0.68772188        0.00000000        0.00000002
H          -1.16215251        0.92596785        0.25946704
H          -1.16215248       -0.92596787       -0.25946713
H           1.16215249        0.92596788       -0.25946703
H           1.16215249       -0.92596787        0.25946712
6
MD Time 1630.00
C          -0.67693308       -0.00000000       -0.00000002
C           0.67693308        0.00000000        0.00000002
H          -1.14018137        0.93160421        0.25965476
H          -1.14018134       -0.93160422       -0.25965485
H           1.14018135        0.93160423       -0.25965476
H           1.14018134       -0.93160423        0.25965485
6
MD Time 1640.00
C          -0.66607222       -0.00000000       -0.00000002
C           0.66607222        0.00000000        0.00000002
H          -1.11887668        0.93762053        0.25935757
H          -1.11887665       -0.93762055       -0.25935765
H           1.11887665        0.93762055       -0.25935757
H           1.11887665       -0.93762055        0.25935766
6
MD Time 1650.00
C          -0.65519771       -0.00000000       -0.00000002
C           0.65519771        0.00000000        0.00000002
H          -1.09829885        0.94398630        0.25855887
H          -1.09829882       -0.94398632       -0.25855896
H           1.09829882        0.94398632       -0.25855889
H           1.09829881       -0.94398632        0.25855898
6
MD Time 1660.00
C          -0.64437716       -0.00000000       -0.00000002
C           0.64437716        0.00000000        0.00000002
H          -1.07850254        0.95066033        0.25724151
H          -1.07850251       -0.95066034       -0.25724160
H           1.07850251        0.95066035       -0.25724153
H           1.07850250       -0.95066034        0.25724163
6
MD Time 1670.00
C          -0.63368762       -0.00000000       -0.00000002
C           0.63368762        0.00000000        0.00000002
H          -1.05953737        0.95759185        0.25538836
H          -1.05953734       -0.95759186       -0.25538845
H           1.05953734        0.95759186       -0.25538839
H           1.05953733       -0.95759186        0.25538849
6
MD Time 1680.00
C          -0.62321563       -0.00000000       -0.00000002
C           0.62321564        0.00000000        0.00000002
H          -1.04144876        0.96472193        0.25298305
H          -1.04144873       -0.96472194       -0.25298315
H           1.04144872        0.96472194       -0.25298309
H           1.04144871       -0.96472194        0.25298319
6
MD Time 1690.00
C          -0.61305693       -0.00000000       -0.00000002
C           0.61305693        0.00000000        0.00000002
H          -1.02427873        0.97198510        0.25001068
H          -1.02427870       -0.97198511       -0.25001078
H           1.02427869        0.97198511       -0.25001073
H           1.02427868       -0.97198510        0.25001083
6
MD Time 1700.00
C          -0.60331567       -0.00000000       -0.00000002
C           0.60331567        0.00000000        0.00000002
H          -1.00806681        0.97931108        0.24645847
H          -1.00806678       -0.97931109       -0.24645857
H           1.00806677        0.97931108       -0.24645852
H           1.00806676       -0.97931108        0.24645863
6
MD Time 1710.00
C          -0.59410313       -0.00000000       -0.00000002
C           0.59410313        0.00000000        0.00000002
H          -0.99285070        0.98662656        0.24231639
H          -0.99285067       -0.98662657       -0.24231649
H           0.99285065        0.98662656       -0.24231645
H           0.99285064       -0.98662655        0.24231656
6
MD Time 1720.00
C          -0.58553575       -0.00000000       -0.00000002
C           0.58553575        0.00000000        0.00000002
H          -0.97866690        0.99385699        0.23757769
H          -0.97866687       -0.99385700       -0.23757779
H           0.97866685        0.99385700       -0.23757776
H           0.97866684       -0.99385699        0.23757787
6
MD Time 1730.00
C          -0.57773242       -0.00000000       -0.00000002
C           0.57773243        0.00000000        0.00000002
H          -0.96555120        1.00092827        0.23223923
H          -0.96555117       -1.00092828       -0.23223934
H           0.96555115        1.00092827       -0.23223931
H           0.96555114       -1.00092826        0.23223942
6
MD Time 1740.00
C          -0.57081105       -0.00000000       -0.00000002
C           0.57081106        0.00000000        0.00000002
H          -0.95353888        1.00776830        0.22630181
H          -0.95353885       -1.00776831       -0.22630192
H           0.95353882        1.00776830       -0.22630190
H           0.95353881       -1.00776828        0.22630201
6
MD Time 1750.00
C          -0.56488446       -0.00000000       -0.00000002
C           0.56488446        0.00000000        0.00000002
H          -0.94266479        1.01430845        0.21977024
H          -0.94266476       -1.01430845       -0.21977034
H           0.94266473        1.01430845       -0.21977033
H           0.94266472       -1.01430843        0.21977045
6
MD Time 1760.00
C          -0.56005580       -0.00000000       -0.00000002
C           0.56005581        0.00000000        0.00000002
H          -0.93296322        1.02048483        0.21265335
H          -0.93296319       -1.02048483       -0.21265346
H           0.93296316        1.02048482       -0.21265345
H           0.93296315       -1.02048481        0.21265357
6
MD Time 1770.00
C          -0.55641385       -0.00000000       -0.00000002
C           0.55641386        0.00000000        0.00000002
H          -0.92446757        1.02623939        0.20496392
H          -0.92446754       -1.02623940       -0.20496403
H           0.92446751        1.02623939       -0.20496403
H           0.92446750       -1.02623937        0.20496415
6
MD Time 1780.00
C          -0.55402843       -0.00000000       -0.00000002
C           0.55402844        0.00000000        0.00000002
H          -0.91720990        1.03152088        0.19671844
H          -0.91720986       -1.03152089       -0.19671855
H           0.91720983        1.03152088       -0.19671855
H           0.91720982       -1.03152086        0.19671868
6
MD Time 1790.00
C          -0.55294662       -0.00000000       -0.00000002
C           0.55294663        0.00000000        0.00000002
H          -0.91122032        1.03628556        0.18793685
H          -0.91122029       -1.03628556       -0.18793696
H           0.91122026        1.03628555       -0.18793697
H           0.91122025       -1.03628553        0.18793711
6
MD Time 1800.00
C          -0.55318993       -0.00000000       -0.00000002
C           0.55318994        0.00000000        0.00000002
H          -0.90652644        1.04049776        0.17864223
H          -0.90652641       -1.04049777       -0.17864235
H           0.90652638        1.04049776       -0.17864236
H           0.90652636       -1.04049773        0.17864250
6
MD Time 1810.00
C          -0.55475304       -0.00000001       -0.00000002
C           0.55475304        0.00000000        0.00000002
H          -0.90315263        1.04413028        0.16886044
H          -0.90315260       -1.04413028       -0.16886056
H           0.90315257        1.04413027       -0.16886057
H           0.90315256       -1.04413024        0.16886071
6
MD Time 1820.00
C          -0.55760400       -0.00000001       -0.00000002
C           0.55760401        0.00000000        0.00000002
H          -0.90111948        1.04716449        0.15861974
H          -0.90111944       -1.04716449       -0.15861986
H           0.90111941        1.04716449       -0.15861988
H           0.90111940       -1.04716446        0.15862003
6
MD Time 1830.00
C          -0.56168611       -0.00000001       -0.00000002
C           0.56168612        0.00000000        0.00000002
H          -0.90044320        1.04959042        0.14795043
H          -0.90044317       -1.04959042       -0.14795056
H           0.90044314        1.04959041       -0.14795058
H           0.90044313       -1.04959038        0.14795073
6
MD Time 1840.00
C          -0.56692105       -0.00000001       -0.00000003
C           0.56692105        0.00000000        0.00000002
H          -0.90113525        1.05140647        0.13688450
H          -0.90113521       -1.05140647       -0.13688463
H           0.90113519        1.05140647       -0.13688466
H           0.90113517       -1.05140644        0.13688481
6
MD Time 1850.00
C          -0.57321296       -0.00000001       -0.00000003
C           0.57321297        0.00000000        0.00000002
H          -0.90320195        1.05261917        0.12545524
H          -0.90320192       -1.05261917       -0.12545537
H           0.90320189        1.05261917       -0.12545540
H           0.90320188       -1.05261914        0.12545556
6
MD Time 1860.00
C          -0.58045317       -0.00000001       -0.00000003
C           0.58045318        0.00000000        0.00000002
H          -0.90664437        1.05324261        0.11369691
H          -0.90664434       -1.05324261       -0.11369705
H           0.90664431        1.05324261       -0.11369708
H           0.90664430       -1.05324258        0.11369724
6
MD Time 1870.00
C          -0.58852482       -0.00000001       -0.00000003
C           0.58852483        0.00000000        0.00000003
H          -0.91145822        1.05329788        0.10164444
H          -0.91145819       -1.05329789       -0.10164458
H           0.91145817        1.05329789       -0.10164462
H           0.91145816       -1.05329786        0.10164478
6
MD Time 1880.00
C          -0.59730736       -0.00000001       -0.00000003
C           0.59730737        0.00000000        0.00000003
H          -0.91763396        1.05281229        0.08933308
H          -0.91763393       -1.05281230       -0.08933322
H           0.91763390        1.05281230       -0.08933327
H           0.91763389       -1.05281227        0.08933344
6
MD Time 1890.00
C          -0.60668042       -0.00000001       -0.00000003
C           0.60668042        0.00000000        0.00000003
H          -0.92515691        1.05181852        0.07679812
H          -0.92515688       -1.05181853       -0.07679826
H           0.92515685        1.05181853       -0.07679831
H           0.92515685       -1.05181850        0.07679848
6
MD Time 1900.00
C          -0.61652696       -0.00000001       -0.00000003
C           0.61652697        0.00000000        0.00000003
H          -0.93400752        1.05035361        0.06407456
H          -0.93400749       -1.05035362       -0.06407471
H           0.93400747        1.05035363       -0.06407475
H           0.93400746       -1.05035360        0.06407493
6
MD Time 1910.00
C          -0.62673575       -0.00000001       -0.00000003
C           0.62673575        0.00000000        0.00000003
H          -0.94416162        1.04845792        0.05119688
H          -0.94416159       -1.04845793       -0.05119703
H           0.94416157        1.04845793       -0.05119708
H           0.94416156       -1.04845791        0.05119726
6
MD Time 1920.00
C          -0.63720304       -0.00000001       -0.00000003
C           0.63720305        0.00000000        0.00000003
H          -0.95559070        1.04617386        0.03819875
H          -0.95559068       -1.04617387       -0.03819890
H           0.95559066        1.04617388       -0.03819896
H           0.95559065       -1.04617386        0.03819914
6
MD Time 1930.00
C          -0.64783368       -0.00000001       -0.00000003
C           0.64783368        0.00000001        0.00000003
H          -0.96826217        1.04354468        0.02511280
H          -0.96826214       -1.04354469       -0.02511296
H           0.96826213        1.04354470       -0.02511301
H           0.96826212       -1.04354468        0.02511320
6
MD Time 1940.00
C          -0.65854162       -0.00000001       -0.00000004
C           0.65854162        0.00000001        0.00000003
H          -0.98213950        1.04061307        0.01197044
H          -0.98213948       -1.04061309       -0.01197060
H           0.98213946        1.04061309       -0.01197066
H           0.98213946       -1.04061307        0.01197085
6
MD Time 1950.00
C          -0.66925008       -0.00000001       -0.00000004
C           0.66925008        0.00000001        0.00000003
H          -0.99718239        1.03741981       -0.00119827
H          -0.99718237       -1.03741983        0.00119811
H           0.99718236        1.03741984        0.00119806
H           0.99718236       -1.03741982       -0.00119786
6
MD Time 1960.00
C          -0.67989139       -0.00000001       -0.00000004
C           0.67989139        0.00000001        0.00000003
H          -1.01334672        1.03400238       -0.01436474
H          -1.01334670       -1.03400240        0.01436457
H           1.01334668        1.03400241        0.01436452
H           1.01334669       -1.03400240       -0.01436431
6
MD Time 1970.00
C          -0.69040662       -0.00000001       -0.00000004
C           0.69040663        0.00000001        0.00000004
H          -1.03058445        1.03039370       -0.02750178
H          -1.03058443       -1.03039373        0.02750160
H           1.03058442        1.03039374        0.02750155
H           1.03058442       -1.03039373       -0.02750134
6
MD Time 1980.00
C          -0.70074512       -0.00000001       -0.00000004
C           0.70074512        0.00000001        0.00000004
H          -1.04884345        1.02662094       -0.04058358
H          -1.04884342       -1.02662097        0.04058341
H           1.04884342        1.02662098        0.04058336
H           1.04884342       -1.02662097       -0.04058314
6
MD Time 1990.00
C          -0.71086390       -0.00000001       -0.00000004
C           0.71086390        0.00000001        0.00000004
H          -1.06806715        1.02270455       -0.05358559
H          -1.06806713       -1.02270458        0.05358541
H           1.06806712        1.02270459        0.05358536
H           1.06806713       -1.02270459       -0.05358514
6
MD Time 2000.00
C          -0.72072714       -0.00000001       -0.00000004
C           0.72072714        0.00000001        0.00000004
H          -1.08819426        1.01865757       -0.06648424
H          -1.08819424       -1.01865759        0.06648405
H           1.08819424        1.01865761        0.06648401
H           1.08819425       -1.01865760       -0.06648378
6
MD Time 2010.00
C          -0.73030554       -0.00000001       -0.00000004
C           0.73030554        0.00000001        0.00000004
H          -1.10915845        1.01448517       -0.07925676
H          -1.10915843       -1.01448520        0.07925658
H           1.10915843        1.01448522        0.07925653
H           1.10915844       -1.01448521       -0.07925631
6
MD Time 2020.00
C          -0.73957580       -0.00000001       -0.00000004
C           0.73957580        0.00000001        0.00000004
H          -1.13088800        1.01018465       -0.09188092
H          -1.13088798       -1.01018468        0.09188073
H           1.13088798        1.01018470        0.09188069
H           1.13088800       -1.01018470       -0.09188046
6
MD Time 2030.00
C          -0.74852005       -0.00000001       -0.00000004
C           0.74852005        0.00000001        0.00000004
H          -1.15330572        1.00574563       -0.10433470
H          -1.15330570       -1.00574567        0.10433451
H           1.15330571        1.00574568        0.10433447
H           1.15330572       -1.00574569       -0.10433424
6
MD Time 2040.00
C          -0.75712535       -0.00000001       -0.00000005
C           0.75712535        0.00000001        0.00000004
H          -1.17632888        1.00115075       -0.11659614
H          -1.17632886       -1.00115078        0.11659594
H           1.17632887        1.00115080        0.11659591
H           1.17632888       -1.00115080       -0.11659567
6
MD Time 2050.00
C          -0.76538319       -0.00000001       -0.00000005
C           0.76538319        0.00000001        0.00000004
H          -1.19986932        0.99637651       -0.12864310
H          -1.19986930       -0.99637655        0.12864290
H           1.19986931        0.99637656        0.12864287
H           1.19986933       -0.99637657       -0.12864263
6
MD Time 2060.00
C          -0.77328903       -0.00000001       -0.00000005
C           0.77328902        0.00000001        0.00000004
H          -1.22383382        0.99139453       -0.14045318
H          -1.22383381       -0.99139457        0.14045297
H           1.22383382        0.99139459        0.14045296
H           1.22383384       -0.99139459       -0.14045271
6
MD Time 2070.00
C          -0.78084179       -0.00000001       -0.00000005
C           0.78084178        0.00000001        0.00000004
H          -1.24812460        0.98617290       -0.15200368
H          -1.24812458       -0.98617294        0.15200347
H           1.24812460        0.98617296        0.15200346
H           1.24812462       -0.98617296       -0.15200321
6
MD Time 2080.00
C          -0.78804344       -0.00000001       -0.00000005
C           0.78804344        0.00000001        0.00000005
H          -1.27263991        0.98067768       -0.16327166
H          -1.27263989       -0.98067772        0.16327144
H           1.27263991        0.98067773        0.16327144
H           1.27263993       -0.98067774       -0.16327118
6
MD Time 2090.00
C          -0.79489857       -0.00000001       -0.00000005
C           0.79489857        0.00000001        0.00000005
H          -1.29727490        0.97487446       -0.17423404
H          -1.29727488       -0.97487451        0.17423382
H           1.29727490        0.97487452        0.17423382
H           1.29727492       -0.97487453       -0.17423356
6
MD Time 2100.00
C          -0.80141395       -0.00000001       -0.00000005
C           0.80141395        0.00000001        0.00000005
H          -1.32192246        0.96872994       -0.18486784
H          -1.32192244       -0.96872998        0.18486762
H           1.32192246        0.96873000        0.18486763
H           1.32192249       -0.96873001       -0.18486737
6
MD Time 2110.00
C          -0.80759813       -0.00000001       -0.00000005
C           0.80759813        0.00000001        0.00000005
H          -1.34647420        0.96221329       -0.19515041
H          -1.34647419       -0.96221333        0.19515018
H           1.34647421        0.96221335        0.19515021
H           1.34647423       -0.96221336       -0.19514994
6
MD Time 2120.00
C          -0.81346108       -0.00000001       -0.00000005
C           0.81346107        0.00000001        0.00000005
H          -1.37082143        0.95529756       -0.20505972
H          -1.37082141       -0.95529760        0.20505948
H           1.37082144        0.95529762        0.20505952
H           1.37082146       -0.95529763       -0.20505925
6
MD Time 2130.00
C          -0.81901382       -0.00000001       -0.00000005
C           0.81901381        0.00000001        0.00000005
H          -1.39485612        0.94796077       -0.21457467
H          -1.39485611       -0.94796082        0.21457443
H           1.39485613        0.94796083        0.21457448
H           1.39485616       -0.94796084       -0.21457420
6
MD Time 2140.00
C          -0.82426811       -0.00000001       -0.00000005
C           0.82426810        0.00000001        0.00000005
H          -1.41847191        0.94018690       -0.22367545
H          -1.41847189       -0.94018695        0.22367522
H           1.41847192        0.94018696        0.22367527
H           1.41847194       -0.94018697       -0.22367499
6
MD Time 2150.00
C          -0.82923614       -0.00000001       -0.00000005
C           0.82923613        0.00000001        0.00000005
H          -1.44156496        0.93196662       -0.23234384
H          -1.44156494       -0.93196667        0.23234360
H           1.44156497        0.93196668        0.23234366
H           1.44156499       -0.93196668       -0.23234339
6
MD Time 2160.00
C          -0.83393027       -0.00000001       -0.00000005
C           0.83393027        0.00000001        0.00000005
H          -1.46403483        0.92329785       -0.24056350
H          -1.46403482       -0.92329790        0.24056326
H           1.46403485        0.92329790        0.24056333
H           1.46403487       -0.92329791       -0.24056305
6
MD Time 2170.00
C          -0.83836283       -0.00000001       -0.00000006
C           0.83836282        0.00000001        0.00000005
H          -1.48578527        0.91418615       -0.24832028
H          -1.48578525       -0.91418620        0.24832004
H           1.48578528        0.91418620        0.24832013
H           1.48578531       -0.91418621       -0.24831985
6
MD Time 2180.00
C          -0.84254585       -0.00000001       -0.00000006
C           0.84254584        0.00000001        0.00000005
H          -1.50672484        0.90464491       -0.25560249
H          -1.50672483       -0.90464496        0.25560224
H           1.50672486        0.90464496        0.25560234
H           1.50672488       -0.90464497       -0.25560206
6
MD Time 2190.00
C          -0.84649093       -0.00000001       -0.00000006
C           0.84649093        0.00000001        0.00000005
H          -1.52676761        0.89469543       -0.26240106
H          -1.52676760       -0.89469549        0.26240082
H           1.52676763        0.89469549        0.26240093
H           1.52676765       -0.89469549       -0.26240065
6
MD Time 2200.00
C          -0.85020911       -0.00000001       -0.00000006
C           0.85020910        0.00000001        0.00000005
H          -1.54583365        0.88436687       -0.26870984
H          -1.54583364       -0.88436692        0.26870960
H           1.54583367        0.88436692        0.26870972
H           1.54583369       -0.88436692       -0.26870944
6
MD Time 2210.00
C          -0.85371067       -0.00000001       -0.00000006
C           0.85371067        0.00000001        0.00000005
H          -1.56384953        0.87369606       -0.27452569
H          -1.56384951       -0.87369612        0.27452544
H           1.56384954        0.87369611        0.27452558
H           1.56384956       -0.87369612       -0.27452530
6
MD Time 2220.00
C          -0.85700510       -0.00000001       -0.00000006
C           0.85700510        0.00000001        0.00000006
H          -1.58074872        0.86272736       -0.27984864
H          -1.58074871       -0.86272741        0.27984839
H           1.58074874        0.86272740        0.27984854
H           1.58074876       -0.86272741       -0.27984826
6
MD Time 2230.00
C          -0.86010094       -0.00000001       -0.00000006
C           0.86010094        0.00000001        0.00000006
H          -1.59647203        0.85151228       -0.28468202
H          -1.59647202       -0.85151234        0.28468177
H           1.59647204        0.85151233        0.28468193
H           1.59647207       -0.85151233       -0.28468165
6
MD Time 2240.00
C          -0.86300573       -0.00000001       -0.00000006
C           0.86300572        0.00000001        0.00000006
H          -1.61096789        0.84010927       -0.28903254
H          -1.61096787       -0.84010933        0.28903229
H           1.61096790        0.84010931        0.28903247
H           1.61096792       -0.84010932       -0.28903219
6
MD Time 2250.00
C          -0.86572591       -0.00000001       -0.00000006
C           0.86572590        0.00000001        0.00000006
H          -1.62419269        0.82858327       -0.29291035
H          -1.62419268       -0.82858333        0.29291010
H           1.62419270        0.82858331        0.29291030
H           1.62419272       -0.82858331       -0.29291002
6
MD Time 2260.00
C          -0.86826678       -0.00000001       -0.00000006
C           0.86826677        0.00000001        0.00000006
H          -1.63611111        0.81700538       -0.29632909
H          -1.63611110       -0.81700544        0.29632884
H           1.63611112        0.81700542        0.29632905
H           1.63611114       -0.81700542       -0.29632877
6
MD Time 2270.00
C          -0.87063241       -0.00000001       -0.00000006
C           0.87063241        0.00000001        0.00000006
H          -1.64669636        0.80545243       -0.29930586
H          -1.64669635       -0.80545249        0.29930561
H           1.64669637        0.80545246        0.29930583
H           1.64669639       -0.80545246       -0.29930556
6
MD Time 2280.00
C          -0.87282562       -0.00000001       -0.00000006
C           0.87282561        0.00000001        0.00000006
H          -1.65593043        0.79400651       -0.30186123
H          -1.65593042       -0.79400657        0.30186098
H           1.65593043        0.79400654        0.30186121
H           1.65593045       -0.79400654       -0.30186095
6
MD Time 2290.00
C          -0.87484786       -0.00000001       -0.00000006
C           0.87484786        0.00000001        0.00000006
H          -1.66380432        0.78275452       -0.30401913
H          -1.66380431       -0.78275459        0.30401889
H           1.66380433        0.78275455        0.30401914
H           1.66380435       -0.78275455       -0.30401887
6
MD Time 2300.00
C          -0.87669926       -0.00000001       -0.00000006
C           0.87669925        0.00000001        0.00000006
H          -1.67031824        0.77178763       -0.30580678
H          -1.67031823       -0.77178769        0.30580653
H           1.67031824        0.77178765        0.30580680
H           1.67031826       -0.77178765       -0.30580653
6
MD Time 2310.00
C          -0.87837850       -0.00000001       -0.00000006
C           0.87837850        0.00000001        0.00000006
H          -1.67548167        0.76120064       -0.30725441
H          -1.67548166       -0.76120071        0.30725417
H           1.67548167        0.76120066        0.30725445
H           1.67548169       -0.76120066       -0.30725419
6
MD Time 2320.00
C          -0.87988286       -0.00000001       -0.00000006
C           0.87988286        0.00000001        0.00000006
H          -1.67931343        0.75109135       -0.30839511
H          -1.67931342       -0.75109141        0.30839487
H           1.67931342        0.75109136        0.30839517
H           1.67931344       -0.75109136       -0.30839491
6
MD Time 2330.00
C          -0.88120820       -0.00000001       -0.00000006
C           0.88120820        0.00000001        0.00000006
H          -1.68184156        0.74155973       -0.30926439
H          -1.68184155       -0.74155980        0.30926415
H           1.68184155        0.74155974        0.30926447
H           1.68184157       -0.74155974       -0.30926422
6
MD Time 2340.00
C          -0.88234896       -0.00000001       -0.00000006
C           0.88234896        0.00000001        0.00000006
H          -1.68310311        0.73270709       -0.30989982
H          -1.68310310       -0.73270716        0.30989958
H           1.68310310        0.73270710        0.30989991
H           1.68310311       -0.73270710       -0.30989966
6
MD Time 2350.00
C          -0.88329823       -0.00000001       -0.00000006
C           0.88329824        0.00000001        0.00000006
H          -1.68314367        0.72463499       -0.31034041
H          -1.68314366       -0.72463505        0.31034018
H           1.68314366        0.72463499        0.31034053
H           1.68314368       -0.72463499       -0.31034028
6
MD Time 2360.00
C          -0.88404787       -0.00000001       -0.00000006
C           0.88404787        0.00000001        0.00000006
H          -1.68201677        0.71744407       -0.31062603
H          -1.68201676       -0.71744414        0.31062580
H           1.68201675        0.71744407        0.31062616
H           1.68201676       -0.71744407       -0.31062592
6
MD Time 2370.00
C          -0.88458857       -0.00000001       -0.00000006
C           0.88458857        0.00000001        0.00000006
H          -1.67978289        0.71123273       -0.31079657
H          -1.67978288       -0.71123280        0.31079634
H           1.67978287        0.71123272        0.31079671
H           1.67978288       -0.71123272       -0.31079648
6
MD Time 2380.00
C          -0.88491011       -0.00000001       -0.00000006
C           0.88491012        0.00000001        0.00000006
H          -1.67650834        0.70609554       -0.31089108
H          -1.67650833       -0.70609561        0.31089085
H           1.67650831        0.70609553        0.31089125
H           1.67650833       -0.70609553       -0.31089102
6
MD Time 2390.00
C          -0.88500156       -0.00000001       -0.00000006
C           0.88500156        0.00000001        0.00000006
H          -1.67226372        0.70212160       -0.31094681
H          -1.67226371       -0.70212167        0.31094658
H           1.67226369        0.70212158        0.31094700
H           1.67226371       -0.70212158       -0.31094677
6
MD Time 2400.00
C          -0.88485153       -0.00000001       -0.00000006
C           0.88485153        0.00000001        0.00000006
H          -1.66712217        0.69939261       -0.31099810
H          -1.66712216       -0.69939268        0.31099788
H           1.66712213        0.69939258        0.31099831
H           1.66712215       -0.69939258       -0.31099809
6
MD Time 2410.00
C          -0.88444855       -0.00000001       -0.00000006
C           0.88444856        0.00000001        0.00000006
H          -1.66115733        0.69798095       -0.31107530
H          -1.66115732       -0.69798102        0.31107508
H           1.66115729        0.69798092        0.31107552
H           1.66115731       -0.69798092       -0.31107531
6
MD Time 2420.00
C          -0.88378142       -0.00000001       -0.00000006
C           0.88378142        0.00000001        0.00000006
H          -1.65444118        0.69794761       -0.31120362
H          -1.65444117       -0.69794769        0.31120341
H           1.65444114        0.69794758        0.31120387
H           1.65444115       -0.69794758       -0.31120366
6
MD Time 2430.00
C          -0.88283953       -0.00000001       -0.00000006
C           0.88283953        0.00000001        0.00000006
H          -1.64704177        0.69934012       -0.31140211
H          -1.64704176       -0.69934019        0.31140190
H           1.64704172        0.69934007        0.31140238
H           1.64704174       -0.69934007       -0.31140218
6
MD Time 2440.00
C          -0.88161329       -0.00000001       -0.00000006
C           0.88161329        0.00000001        0.00000006
H          -1.63902100        0.70219058       -0.31168264
H          -1.63902099       -0.70219065        0.31168243
H           1.63902095        0.70219053        0.31168292
H           1.63902097       -0.70219053       -0.31168273
6
MD Time 2450.00
C          -0.88009443       -0.00000001       -0.00000006
C           0.88009444        0.00000001        0.00000007
H          -1.63043268        0.70651395       -0.31204912
H          -1.63043267       -0.70651402        0.31204892
H           1.63043263        0.70651389        0.31204943
H           1.63043264       -0.70651390       -0.31204924
6
MD Time 2460.00
C          -0.87827630       -0.00000001       -0.00000006
C           0.87827631        0.00000001        0.00000007
H          -1.62132085        0.71230655       -0.31249699
H          -1.62132084       -0.71230662        0.31249678
H           1.62132080        0.71230649        0.31249732
H           1.62132081       -0.71230649       -0.31249713
6
MD Time 2470.00
C          -0.87615406       -0.00000001       -0.00000006
C           0.87615407        0.00000001        0.00000007
H          -1.61171869        0.71954503       -0.31301287
H          -1.61171868       -0.71954510        0.31301267
H           1.61171863        0.71954496        0.31301322
H           1.61171864       -0.71954496       -0.31301303
6
MD Time 2480.00
C          -0.87372477       -0.00000001       -0.00000006
C           0.87372478        0.00000001        0.00000006
H          -1.60164798        0.72818586       -0.31357466
H          -1.60164796       -0.72818592        0.31357446
H           1.60164791        0.72818577        0.31357503
H           1.60164792       -0.72818578       -0.31357485
6
MD Time 2490.00
C          -0.87098743       -0.00000001       -0.00000006
C           0.87098744        0.00000001        0.00000006
H          -1.59111921        0.73816535       -0.31415191
H          -1.59111919       -0.73816542        0.31415172
H           1.59111914        0.73816526        0.31415230
H           1.59111915       -0.73816526       -0.31415213
6
MD Time 2500.00
C          -0.86794283       -0.00000001       -0.00000006
C           0.86794284        0.00000001        0.00000006
H          -1.58013240        0.74940037       -0.31470654
H          -1.58013238       -0.74940044        0.31470634
H           1.58013233        0.74940028        0.31470695
H           1.58013234       -0.74940028       -0.31470678
6
MD Time 2510.00
C          -0.86459340       -0.00000001       -0.00000006
C           0.86459341        0.00000001        0.00000006
H          -1.56867844        0.76178962       -0.31519382
H          -1.56867842       -0.76178968        0.31519363
H           1.56867837        0.76178951        0.31519425
H           1.56867838       -0.76178951       -0.31519409
6
MD Time 2520.00
C          -0.86094289       -0.00000001       -0.00000006
C           0.86094290        0.00000001        0.00000006
H          -1.55674091        0.77521543       -0.31556369
H          -1.55674088       -0.77521549        0.31556350
H           1.55674083        0.77521532        0.31556414
H           1.55674084       -0.77521531       -0.31556398
6
MD Time 2530.00
C          -0.85699607       -0.00000001       -0.00000006
C           0.85699608        0.00000001        0.00000006
H          -1.54429822        0.78954614       -0.31576212
H          -1.54429819       -0.78954620        0.31576193
H           1.54429814        0.78954603        0.31576259
H           1.54429815       -0.78954602       -0.31576243
6
MD Time 2540.00
C          -0.85275841       -0.00000001       -0.00000006
C           0.85275842        0.00000001        0.00000006
H          -1.53132592        0.80463875       -0.31573262
H          -1.53132589       -0.80463881        0.31573243
H           1.53132584        0.80463863        0.31573310
H           1.53132585       -0.80463862       -0.31573295
6
MD Time 2550.00
C          -0.84823570       -0.00000001       -0.00000006
C           0.84823571        0.00000001        0.00000006
H          -1.51779893        0.82034180       -0.31541778
H          -1.51779890       -0.82034186        0.31541760
H           1.51779886        0.82034167        0.31541829
H           1.51779886       -0.82034167       -0.31541814
6
MD Time 2560.00
C          -0.84343381       -0.00000001       -0.00000006
C           0.84343382        0.00000001        0.00000006
H          -1.50369366        0.83649837       -0.31476071
H          -1.50369363       -0.83649843        0.31476053
H           1.50369359        0.83649823        0.31476123
H           1.50369359       -0.83649822       -0.31476109
6
MD Time 2570.00
C          -0.83835840       -0.00000001       -0.00000006
C           0.83835841        0.00000001        0.00000006
H          -1.48898983        0.85294896       -0.31370631
H          -1.48898979       -0.85294901        0.31370613
H           1.48898975        0.85294882        0.31370685
H           1.48898975       -0.85294880       -0.31370671
6
MD Time 2580.00
C          -0.83301472       -0.00000001       -0.00000006
C           0.83301473        0.00000001        0.00000006
H          -1.47367195        0.86953427       -0.31220246
H          -1.47367192       -0.86953432        0.31220228
H           1.47367188        0.86953412        0.31220302
H           1.47367188       -0.86953411       -0.31220288
6
MD Time 2590.00
C          -0.82740754       -0.00000001       -0.00000006
C           0.82740755        0.00000001        0.00000006
H          -1.45773054        0.88609769       -0.31020092
H          -1.45773051       -0.88609775        0.31020074
H           1.45773047        0.88609755        0.31020149
H           1.45773046       -0.88609753       -0.31020135
6
MD Time 2600.00
C          -0.82154106       -0.00000001       -0.00000006
C           0.82154107        0.00000001        0.00000006
H          -1.44116285        0.90248751       -0.30765808
H          -1.44116281       -0.90248756        0.30765790
H           1.44116278        0.90248735        0.30765867
H           1.44116277       -0.90248734       -0.30765853
6
MD Time 2610.00
C          -0.81541892       -0.00000001       -0.00000006
C           0.81541892        0.00000001        0.00000006
H          -1.42397339        0.91855872       -0.30453550
H          -1.42397335       -0.91855877        0.30453533
H           1.42397332        0.91855856        0.30453611
H           1.42397331       -0.91855854       -0.30453597
6
MD Time 2620.00
C          -0.80904428       -0.00000001       -0.00000005
C           0.80904429        0.00000001        0.00000006
H          -1.40617415        0.93417461       -0.30080029
H          -1.40617411       -0.93417466        0.30080012
H           1.40617408        0.93417445        0.30080090
H           1.40617407       -0.93417444       -0.30080077
6
MD Time 2630.00
C          -0.80241994       -0.00000001       -0.00000005
C           0.80241995        0.00000001        0.00000006
H          -1.38778460        0.94920796       -0.29642524
H          -1.38778456       -0.94920801        0.29642507
H           1.38778454        0.94920781        0.29642586
H           1.38778453       -0.94920779       -0.29642573
6
MD Time 2640.00
C          -0.79554850       -0.00000001       -0.00000005
C           0.79554851        0.00000001        0.00000006
H          -1.36883158        0.96354200       -0.29138896
H          -1.36883153       -0.96354204        0.29138879
H           1.36883151        0.96354184        0.29138959
H           1.36883150       -0.96354182       -0.29138946
6
MD Time 2650.00
C          -0.78843252       -0.00000001       -0.00000005
C           0.78843252        0.00000001        0.00000005
H          -1.34934898        0.97707107       -0.28567584
H          -1.34934894       -0.97707111        0.28567567
H           1.34934892        0.97707091        0.28567647
H           1.34934891       -0.97707089       -0.28567635
6
MD Time 2660.00
C          -0.78107479       -0.00000001       -0.00000005
C           0.78107479        0.00000001        0.00000005
H          -1.32937754        0.98970121       -0.27927588
H          -1.32937749       -0.98970126        0.27927572
H           1.32937748        0.98970106        0.27927652
H           1.32937747       -0.98970104       -0.27927640
6
MD Time 2670.00
C          -0.77347857       -0.00000001       -0.00000005
C           0.77347857        0.00000001        0.00000005
H          -1.30896441        1.00135053       -0.27218461
H          -1.30896437       -1.00135057        0.27218445
H           1.30896436        1.00135037        0.27218526
H           1.30896434       -1.00135036       -0.27218514
6
MD Time 2680.00
C          -0.76564786       -0.00000001       -0.00000005
C           0.76564787        0.00000001        0.00000005
H          -1.28816288        1.01194944       -0.26440282
H          -1.28816284       -1.01194948        0.26440266
H           1.28816283        1.01194929        0.26440347
H           1.28816282       -1.01194927       -0.26440335
6
MD Time 2690.00
C          -0.75758772       -0.00000001       -0.00000005
C           0.75758772        0.00000001        0.00000005
H          -1.26703204        1.02144090       -0.25593635
H          -1.26703199       -1.02144094        0.25593619
H           1.26703200        1.02144076        0.25593700
H           1.26703198       -1.02144074       -0.25593687
6
MD Time 2700.00
C          -0.74930457       -0.00000001       -0.00000004
C           0.74930457        0.00000001        0.00000005
H          -1.24563647        1.02978061       -0.24679584
H          -1.24563642       -1.02978065        0.24679569
H           1.24563643        1.02978047        0.24679649
H           1.24563641       -1.02978045       -0.24679636
6
MD Time 2710.00
C          -0.74080657       -0.00000001       -0.00000004
C           0.74080657        0.00000001        0.00000005
H          -1.22404598        1.03693709       -0.23699648
H          -1.22404594       -1.03693713        0.23699633
H           1.22404595        1.03693696        0.23699712
H           1.22404593       -1.03693694       -0.23699700
6
MD Time 2720.00
C          -0.73210397       -0.00000001       -0.00000004
C           0.73210397        0.00000001        0.00000004
H          -1.20233542        1.04289191       -0.22655775
H          -1.20233537       -1.04289195        0.22655759
H           1.20233539        1.04289178        0.22655838
H           1.20233537       -1.04289177       -0.22655826
6
MD Time 2730.00
C          -0.72320955       -0.00000001       -0.00000004
C           0.72320955        0.00000001        0.00000004
H          -1.18058440        1.04763980       -0.21550310
H          -1.18058435       -1.04763984        0.21550295
H           1.18058437        1.04763968        0.21550373
H           1.18058435       -1.04763967       -0.21550360
6
MD Time 2740.00
C          -0.71413902       -0.00000001       -0.00000004
C           0.71413902        0.00000001        0.00000004
H          -1.15887713        1.05118881       -0.20385974
H          -1.15887709       -1.05118884        0.20385959
H           1.15887711        1.05118869        0.20386036
H           1.15887710       -1.05118868       -0.20386023
6
MD Time 2750.00
C          -0.70491149       -0.00000001       -0.00000004
C           0.70491149        0.00000001        0.00000004
H          -1.13730227        1.05356045       -0.19165828
H          -1.13730223       -1.05356048        0.19165813
H           1.13730226        1.05356034        0.19165888
H           1.13730224       -1.05356033       -0.19165876
6
MD Time 2760.00
C          -0.69554995       -0.00000001       -0.00000004
C           0.69554995        0.00000001        0.00000004
H          -1.11595271        1.05478984       -0.17893244
H          -1.11595266       -1.05478988        0.17893230
H           1.11595270        1.05478974        0.17893303
H           1.11595268       -1.05478974       -0.17893291
6
MD Time 2770.00
C          -0.68608176       -0.00000001       -0.00000003
C           0.68608176        0.00000001        0.00000004
H          -1.09492536        1.05492576       -0.16571871
H          -1.09492532       -1.05492579        0.16571857
H           1.09492536        1.05492567        0.16571929
H           1.09492535       -1.05492567       -0.16571917
6
MD Time 2780.00
C          -0.67653916       -0.00000001       -0.00000003
C           0.67653916        0.00000001        0.00000003
H          -1.07432100        1.05403062       -0.15205598
H          -1.07432096       -1.05403065        0.15205584
H           1.07432100        1.05403054        0.15205654
H           1.07432099       -1.05403054       -0.15205641
6
MD Time 2790.00
C          -0.66695976       -0.00000000       -0.00000003
C           0.66695976        0.00000001        0.00000003
H          -1.05424392        1.05218030       -0.13798510
H          -1.05424388       -1.05218033        0.13798496
H           1.05424393        1.05218023        0.13798565
H           1.05424392       -1.05218023       -0.13798552
6
MD Time 2800.00
C          -0.65738701       -0.00000000       -0.00000003
C           0.65738701        0.00000001        0.00000003
H          -1.03480165        1.04946381       -0.12354849
H          -1.03480160       -1.04946384        0.12354835
H           1.03480166        1.04946375        0.12354901
H           1.03480165       -1.04946375       -0.12354888
6
MD Time 2810.00
C          -0.64787058       -0.00000000       -0.00000003
C           0.64787058        0.00000001        0.00000003
H          -1.01610444        1.04598263       -0.10878957
H          -1.01610440       -1.04598266        0.10878944
H           1.01610445        1.04598258        0.10879008
H           1.01610445       -1.04598259       -0.10878995
6
MD Time 2820.00
C          -0.63846666       -0.00000000       -0.00000003
C           0.63846666        0.00000001        0.00000003
H          -0.99826472        1.04184978       -0.09375231
H          -0.99826468       -1.04184981        0.09375218
H           0.99826474        1.04184975        0.09375279
H           0.99826474       -1.04184975       -0.09375266
6
MD Time 2830.00
C          -0.62923810       -0.00000000       -0.00000003
C           0.62923809        0.00000001        0.00000003
H          -0.98139629        1.03718847       -0.07848058
H          -0.98139625       -1.03718850        0.07848045
H           0.98139632        1.03718845        0.07848104
H           0.98139631       -1.03718845       -0.07848091
6
MD Time 2840.00
C          -0.62025435       -0.00000000       -0.00000002
C           0.62025435        0.00000001        0.00000002
H          -0.96561329        1.03213023       -0.06301762
H          -0.96561325       -1.03213026        0.06301749
H           0.96561332        1.03213022        0.06301805
H           0.96561331       -1.03213023       -0.06301792
6
MD Time 2850.00
C          -0.61159111       -0.00000000       -0.00000002
C           0.61159111        0.00000001        0.00000002
H          -0.95102893        1.02681264       -0.04740545
H          -0.95102890       -1.02681267        0.04740532
H           0.95102896        1.02681265        0.04740585
H           0.95102896       -1.02681266       -0.04740572
6
MD Time 2860.00
C          -0.60332965       -0.00000000       -0.00000002
C           0.60332964        0.00000001        0.00000002
H          -0.93775395        1.02137644       -0.03168434
H          -0.93775392       -1.02137647        0.03168422
H           0.93775399        1.02137645        0.03168472
H           0.93775399       -1.02137646       -0.03168458
6
MD Time 2870.00
C          -0.59555571       -0.00000000       -0.00000002
C           0.59555570        0.00000001        0.00000002
H          -0.92589477        1.01596217       -0.01589245
H          -0.92589474       -1.01596219        0.01589233
H           0.92589481        1.01596219        0.01589280
H           0.92589481       -1.01596220       -0.01589266
6
MD Time 2880.00
C          -0.58835799       -0.00000000       -0.00000002
C           0.58835798        0.00000001        0.00000002
H          -0.91555142        1.01070645       -0.00006549
H          -0.91555139       -1.01070648        0.00006537
H           0.91555146        1.01070649        0.00006582
H           0.91555146       -1.01070650       -0.00006567
6
MD Time 2890.00
C          -0.58182616       -0.00000000       -0.00000002
C           0.58182615        0.00000001        0.00000001
H          -0.90681533        1.00573797        0.01576330
H          -0.90681530       -1.00573800       -0.01576342
H           0.90681537        1.00573801       -0.01576300
H           0.90681537       -1.00573802        0.01576315
6
MD Time 2900.00
C          -0.57604838       -0.00000000       -0.00000002
C           0.57604837        0.00000001        0.00000001
H          -0.89976701        1.00117334        0.03156300
H          -0.89976698       -1.00117337       -0.03156312
H           0.89976705        1.00117339       -0.03156273
H           0.89976705       -1.00117340        0.03156288
6
MD Time 2910.00
C          -0.57110855       -0.00000000       -0.00000001
C           0.57110854        0.00000001        0.00000001
H          -0.89447380        0.99711323        0.04730465
H          -0.89447377       -0.99711325       -0.04730477
H           0.89447384        0.99711329       -0.04730441
H           0.89447384       -0.99711329        0.04730456
6
MD Time 2920.00
C          -0.56708324       -0.00000000       -0.00000001
C           0.56708323        0.00000001        0.00000001
H          -0.89098785        0.99363886        0.06296060
H          -0.89098782       -0.99363888       -0.06296071
H           0.89098789        0.99363893       -0.06296039
H           0.89098789       -0.99363893        0.06296054
6
MD Time 2930.00
C          -0.56403857       -0.00000000       -0.00000001
C           0.56403856        0.00000001        0.00000001
H          -0.88934442        0.99080923        0.07850377
H          -0.88934440       -0.99080925       -0.07850389
H           0.88934446        0.99080930       -0.07850359
H           0.88934446       -0.99080930        0.07850375
6
MD Time 2940.00
C          -0.56202734       -0.00000000       -0.00000001
C           0.56202733        0.00000001        0.00000001
H          -0.88956067        0.98865922        0.09390678
H          -0.88956065       -0.98865923       -0.09390689
H           0.88956071        0.98865929       -0.09390663
H           0.88956071       -0.98865928        0.09390679
6
MD Time 2950.00
C          -0.56108655       -0.00000000       -0.00000001
C           0.56108654        0.00000000        0.00000001
H          -0.89163503        0.98719874        0.10914107
H          -0.89163500       -0.98719875       -0.10914119
H           0.89163506        0.98719881       -0.10914096
H           0.89163506       -0.98719880        0.10914112
6
MD Time 2960.00
C          -0.56123556       -0.00000000       -0.00000001
C           0.56123556        0.00000000        0.00000000
H          -0.89554718        0.98641300        0.12417619
H          -0.89554716       -0.98641301       -0.12417631
H           0.89554721        0.98641307       -0.12417610
H           0.89554721       -0.98641305        0.12417627
6
MD Time 2970.00
C          -0.56247519       -0.00000001       -0.00000001
C           0.56247518        0.00000000        0.00000000
H          -0.90125878        0.98626379        0.13897914
H          -0.90125876       -0.98626380       -0.13897925
H           0.90125880        0.98626386       -0.13897908
H           0.90125880       -0.98626384        0.13897925
6
MD Time 2980.00
C          -0.56478767       -0.00000001       -0.00000001
C           0.56478767        0.00000000        0.00000000
H          -0.90871460        0.98669170        0.15351410
H          -0.90871458       -0.98669170       -0.15351421
H           0.90871461        0.98669176       -0.15351407
H           0.90871461       -0.98669174        0.15351424
6
MD Time 2990.00
C          -0.56813767       -0.00000001       -0.00000001
C           0.56813767        0.00000000        0.00000000
H          -0.91784430        0.98761902        0.16774234
H          -0.91784428       -0.98761902       -0.16774245
H           0.91784431        0.98761908       -0.16774234
H           0.91784431       -0.98761905        0.16774251
