6
MD Time 0.00
C          -1.00424993        0.00000000        0.00000000
C           1.00424993        0.00000000        0.00000000
H          -1.57974221        0.85087473        0.35244385
H          -1.57974221       -0.85087473       -0.35244385
H           1.57974221        0.85087473       -0.35244385
H           1.57974221       -0.85087473        0.35244385
6
MD Time 10.00
C          -1.00411166        0.00000000       -0.00000000
C           1.00411166        0.00000000        0.00000000
H          -1.57961981        0.85107739        0.35238913
H          -1.57961981       -0.85107739       -0.35238913
H           1.57961981        0.85107739       -0.35238913
H           1.57961981       -0.85107739        0.35238913
6
MD Time 20.00
C          -1.00369697        0.00000000       -0.00000000
C           1.00369697        0.00000000        0.00000000
H          -1.57925131        0.85168241        0.35222367
H          -1.57925131       -0.85168241       -0.35222367
H           1.57925131        0.85168241       -0.35222367
H           1.57925131       -0.85168241        0.35222367
6
MD Time 30.00
C          -1.00300629        0.00000000       -0.00000000
C           1.00300629        0.00000000        0.00000000
H          -1.57863274        0.85268098        0.35194357
H          -1.57863274       -0.85268098       -0.35194357
H           1.57863274        0.85268098       -0.35194357
H           1.57863274       -0.85268098        0.35194357
6
MD Time 40.00
C          -1.00204024        0.00000000       -0.00000000
C           1.00204024        0.00000000        0.00000000
H          -1.57775772        0.85405865        0.35154246
H          -1.57775772       -0.85405865       -0.35154246
H           1.57775772        0.85405865       -0.35154246
H           1.57775772       -0.85405865        0.35154246
6
MD Time 50.00
C          -1.00079967        0.00000000       -0.00000000
C           1.00079967        0.00000000        0.00000000
H          -1.57661757        0.85579571        0.35101166
H          -1.57661757       -0.85579571       -0.35101166
H           1.57661757        0.85579571       -0.35101166
H           1.57661757       -0.85579571        0.35101166
6
MD Time 60.00
C          -0.99928560        0.00000000        0.00000000
C           0.99928560        0.00000000        0.00000000
H          -1.57520168        0.85786769        0.35034041
H          -1.57520168       -0.85786769       -0.35034041
H           1.57520168        0.85786769       -0.35034041
H           1.57520168       -0.85786769        0.35034041
6
MD Time 70.00
C          -0.99749913        0.00000000        0.00000000
C           0.99749913        0.00000000        0.00000000
H          -1.57349786        0.86024590        0.34951616
H          -1.57349786       -0.86024590       -0.34951616
H           1.57349786        0.86024590       -0.34951616
H           1.57349786       -0.86024590        0.34951616
6
MD Time 80.00
C          -0.99544139        0.00000000        0.00000000
C           0.99544139        0.00000000        0.00000000
H          -1.57149271        0.86289816        0.34852484
H          -1.57149271       -0.86289816       -0.34852484
H           1.57149271        0.86289816       -0.34852484
H           1.57149271       -0.86289816        0.34852484
6
MD Time 90.00
C          -0.99311348        0.00000000        0.00000000
C           0.99311348        0.00000000        0.00000000
H          -1.56917209        0.86578948        0.34735126
H          -1.56917209       -0.86578948       -0.34735125
H           1.56917209        0.86578948       -0.34735125
H           1.56917209       -0.86578948        0.34735125
6
MD Time 100.00
C          -0.99051637        0.00000000        0.00000000
C           0.99051637        0.00000000        0.00000000
H          -1.56652154        0.86888286        0.34597936
H          -1.56652154       -0.86888286       -0.34597936
H           1.56652154        0.86888286       -0.34597936
H           1.56652154       -0.86888286        0.34597936
6
MD Time 110.00
C          -0.98765088        0.00000000        0.00000000
C           0.98765088        0.00000000        0.00000000
H          -1.56352673        0.87214001        0.34439268
H          -1.56352673       -0.87214001       -0.34439268
H           1.56352673        0.87214001       -0.34439268
H           1.56352673       -0.87214001        0.34439268
6
MD Time 120.00
C          -0.98451754        0.00000000        0.00000000
C           0.98451754        0.00000000       -0.00000000
H          -1.56017389        0.87552214        0.34257456
H          -1.56017389       -0.87552214       -0.34257456
H           1.56017389        0.87552214       -0.34257456
H           1.56017389       -0.87552214        0.34257456
6
MD Time 130.00
C          -0.98111660        0.00000000        0.00000000
C           0.98111660        0.00000000       -0.00000000
H          -1.55645023        0.87899068        0.34050857
H          -1.55645023       -0.87899068       -0.34050857
H           1.55645023        0.87899069       -0.34050857
H           1.55645023       -0.87899069        0.34050857
6
MD Time 140.00
C          -0.97744791        0.00000000        0.00000000
C           0.97744791       -0.00000000       -0.00000000
H          -1.55234426        0.88250796        0.33817873
H          -1.55234426       -0.88250796       -0.33817873
H           1.55234426        0.88250796       -0.33817873
H           1.55234426       -0.88250796        0.33817873
6
MD Time 150.00
C          -0.97351090        0.00000000        0.00000000
C           0.97351090       -0.00000000       -0.00000000
H          -1.54784615        0.88603780        0.33556978
H          -1.54784615       -0.88603780       -0.33556978
H           1.54784615        0.88603780       -0.33556977
H           1.54784615       -0.88603780        0.33556977
6
MD Time 160.00
C          -0.96930457        0.00000000        0.00000000
C           0.96930457       -0.00000000       -0.00000000
H          -1.54294796        0.88954613        0.33266741
H          -1.54294796       -0.88954613       -0.33266741
H           1.54294796        0.88954614       -0.33266741
H           1.54294796       -0.88954614        0.33266741
6
MD Time 170.00
C          -0.96482739        0.00000000        0.00000000
C           0.96482739       -0.00000000       -0.00000000
H          -1.53764395        0.89300144        0.32945846
H          -1.53764395       -0.89300144       -0.32945846
H           1.53764395        0.89300144       -0.32945846
H           1.53764395       -0.89300144        0.32945846
6
MD Time 180.00
C          -0.96007733       -0.00000000        0.00000000
C           0.96007733       -0.00000000       -0.00000000
H          -1.53193067        0.89637518        0.32593104
H          -1.53193066       -0.89637518       -0.32593104
H           1.53193067        0.89637518       -0.32593104
H           1.53193066       -0.89637518        0.32593104
6
MD Time 190.00
C          -0.95505183       -0.00000000        0.00000000
C           0.95505183       -0.00000000       -0.00000000
H          -1.52580713        0.89964217        0.32207466
H          -1.52580713       -0.89964217       -0.32207466
H           1.52580713        0.89964217       -0.32207466
H           1.52580713       -0.89964217        0.32207466
6
MD Time 200.00
C          -0.94974781       -0.00000000        0.00000000
C           0.94974781       -0.00000000       -0.00000000
H          -1.51927490        0.90278080        0.31788028
H          -1.51927490       -0.90278080       -0.31788028
H           1.51927490        0.90278080       -0.31788028
H           1.51927490       -0.90278080        0.31788028
6
MD Time 210.00
C          -0.94416165       -0.00000000        0.00000000
C           0.94416165       -0.00000000       -0.00000000
H          -1.51233814        0.90577329        0.31334040
H          -1.51233814       -0.90577329       -0.31334040
H           1.51233814        0.90577329       -0.31334040
H           1.51233814       -0.90577329        0.31334040
6
MD Time 220.00
C          -0.93828924       -0.00000000        0.00000000
C           0.93828924       -0.00000000       -0.00000000
H          -1.50500356        0.90860576        0.30844901
H          -1.50500356       -0.90860576       -0.30844902
H           1.50500356        0.90860576       -0.30844901
H           1.50500356       -0.90860576        0.30844901
6
MD Time 230.00
C          -0.93212598       -0.00000000        0.00000000
C           0.93212598       -0.00000000       -0.00000000
H          -1.49728043        0.91126833        0.30320164
H          -1.49728043       -0.91126833       -0.30320164
H           1.49728043        0.91126833       -0.30320164
H           1.49728043       -0.91126833        0.30320164
6
MD Time 240.00
C          -0.92566684       -0.00000000        0.00000000
C           0.92566684       -0.00000000       -0.00000000
H          -1.48918047        0.91375509        0.29759525
H          -1.48918047       -0.91375509       -0.29759526
H           1.48918047        0.91375509       -0.29759525
H           1.48918047       -0.91375509        0.29759526
6
MD Time 250.00
C          -0.91890640       -0.00000000        0.00000000
C           0.91890640       -0.00000000       -0.00000000
H          -1.48071774        0.91606401        0.29162821
H          -1.48071774       -0.91606401       -0.29162821
H           1.48071774        0.91606401       -0.29162821
H           1.48071774       -0.91606401        0.29162821
6
MD Time 260.00
C          -0.91183892       -0.00000000        0.00000000
C           0.91183892       -0.00000000       -0.00000000
H          -1.47190849        0.91819680        0.28530018
H          -1.47190849       -0.91819680       -0.28530019
H           1.47190849        0.91819680       -0.28530018
H           1.47190849       -0.91819680        0.28530019
6
MD Time 270.00
C          -0.90445840       -0.00000000        0.00000000
C           0.90445840       -0.00000000       -0.00000000
H          -1.46277095        0.92015869        0.27861205
H          -1.46277095       -0.92015869       -0.27861205
H           1.46277095        0.92015869       -0.27861205
H           1.46277095       -0.92015869        0.27861205
6
MD Time 280.00
C          -0.89675870       -0.00000000        0.00000000
C           0.89675870       -0.00000000       -0.00000000
H          -1.45332514        0.92195812        0.27156577
H          -1.45332514       -0.92195812       -0.27156578
H           1.45332514        0.92195812       -0.27156577
H           1.45332514       -0.92195812        0.27156578
6
MD Time 290.00
C          -0.88873365       -0.00000000        0.00000000
C           0.88873365       -0.00000000       -0.00000000
H          -1.44359260        0.92360640        0.26416429
H          -1.44359260       -0.92360640       -0.26416430
H           1.44359260        0.92360640       -0.26416429
H           1.44359260       -0.92360640        0.26416430
6
MD Time 300.00
C          -0.88037714       -0.00000000        0.00000000
C           0.88037714       -0.00000000       -0.00000000
H          -1.43359611        0.92511728        0.25641138
H          -1.43359611       -0.92511728       -0.25641139
H           1.43359611        0.92511728       -0.25641139
H           1.43359611       -0.92511728        0.25641139
6
MD Time 310.00
C          -0.87168335       -0.00000000        0.00000000
C           0.87168335       -0.00000000       -0.00000000
H          -1.42335940        0.92650645        0.24831155
H          -1.42335940       -0.92650645       -0.24831156
H           1.42335940        0.92650646       -0.24831155
H           1.42335939       -0.92650645        0.24831156
6
MD Time 320.00
C          -0.86264684       -0.00000000        0.00000000
C           0.86264684       -0.00000000       -0.00000000
H          -1.41290679        0.92779103        0.23986989
H          -1.41290679       -0.92779103       -0.23986990
H           1.41290679        0.92779103       -0.23986989
H           1.41290679       -0.92779103        0.23986991
6
MD Time 330.00
C          -0.85326281       -0.00000000        0.00000000
C           0.85326281       -0.00000000       -0.00000000
H          -1.40226289        0.92898893        0.23109201
H          -1.40226289       -0.92898893       -0.23109202
H           1.40226289        0.92898893       -0.23109201
H           1.40226288       -0.92898893        0.23109203
6
MD Time 340.00
C          -0.84352734       -0.00000000        0.00000000
C           0.84352734       -0.00000000       -0.00000000
H          -1.39145220        0.93011826        0.22198392
H          -1.39145219       -0.93011825       -0.22198394
H           1.39145220        0.93011826       -0.22198393
H           1.39145219       -0.93011825        0.22198394
6
MD Time 350.00
C          -0.83343763       -0.00000000        0.00000000
C           0.83343763       -0.00000000       -0.00000000
H          -1.38049877        0.93119664        0.21255201
H          -1.38049877       -0.93119664       -0.21255203
H           1.38049877        0.93119664       -0.21255202
H           1.38049876       -0.93119664        0.21255203
6
MD Time 360.00
C          -0.82299231       -0.00000000        0.00000000
C           0.82299231       -0.00000000       -0.00000000
H          -1.36942585        0.93224058        0.20280298
H          -1.36942585       -0.93224057       -0.20280300
H           1.36942585        0.93224058       -0.20280299
H           1.36942584       -0.93224057        0.20280300
6
MD Time 370.00
C          -0.81219183       -0.00000000        0.00000000
C           0.81219184       -0.00000000       -0.00000000
H          -1.35825554        0.93326479        0.19274387
H          -1.35825553       -0.93326479       -0.19274388
H           1.35825554        0.93326479       -0.19274387
H           1.35825553       -0.93326478        0.19274389
6
MD Time 380.00
C          -0.80103881       -0.00000000        0.00000000
C           0.80103881       -0.00000000       -0.00000000
H          -1.34700847        0.93428160        0.18238209
H          -1.34700846       -0.93428160       -0.18238211
H           1.34700846        0.93428160       -0.18238210
H           1.34700846       -0.93428160        0.18238212
6
MD Time 390.00
C          -0.78953850       -0.00000000        0.00000000
C           0.78953850       -0.00000000       -0.00000000
H          -1.33570354        0.93530041        0.17172554
H          -1.33570353       -0.93530040       -0.17172556
H           1.33570354        0.93530041       -0.17172555
H           1.33570353       -0.93530040        0.17172557
6
MD Time 400.00
C          -0.77769929       -0.00000000        0.00000000
C           0.77769929       -0.00000000       -0.00000000
H          -1.32435770        0.93632718        0.16078269
H          -1.32435769       -0.93632717       -0.16078272
H           1.32435769        0.93632718       -0.16078270
H           1.32435769       -0.93632717        0.16078273
6
MD Time 410.00
C          -0.76553329       -0.00000000        0.00000000
C           0.76553329       -0.00000000       -0.00000000
H          -1.31298576        0.93736412        0.14956278
H          -1.31298575       -0.93736412       -0.14956281
H           1.31298576        0.93736412       -0.14956279
H           1.31298575       -0.93736412        0.14956282
6
MD Time 420.00
C          -0.75305696       -0.00000000        0.00000000
C           0.75305696       -0.00000000       -0.00000000
H          -1.30160035        0.93840943        0.13807598
H          -1.30160034       -0.93840943       -0.13807601
H           1.30160035        0.93840944       -0.13807599
H           1.30160034       -0.93840943        0.13807603
6
MD Time 430.00
C          -0.74029180       -0.00000000        0.00000000
C           0.74029180       -0.00000000       -0.00000000
H          -1.29021189        0.93945723        0.12633367
H          -1.29021188       -0.93945723       -0.12633370
H           1.29021188        0.93945723       -0.12633367
H           1.29021188       -0.93945722        0.12633371
6
MD Time 440.00
C          -0.72726520       -0.00000000        0.00000000
C           0.72726520       -0.00000000       -0.00000000
H          -1.27882867        0.94049757        0.11434860
H          -1.27882866       -0.94049757       -0.11434863
H           1.27882866        0.94049758       -0.11434861
H           1.27882866       -0.94049757        0.11434865
6
MD Time 450.00
C          -0.71401128       -0.00000000        0.00000000
C           0.71401128       -0.00000000       -0.00000000
H          -1.26745709        0.94151675        0.10213521
H          -1.26745708       -0.94151675       -0.10213525
H           1.26745708        0.94151675       -0.10213522
H           1.26745708       -0.94151674        0.10213527
6
MD Time 460.00
C          -0.70057186       -0.00000000        0.00000000
C           0.70057186       -0.00000000       -0.00000000
H          -1.25610192        0.94249760        0.08970983
H          -1.25610191       -0.94249760       -0.08970987
H           1.25610192        0.94249760       -0.08970984
H           1.25610191       -0.94249760        0.08970989
6
MD Time 470.00
C          -0.68699749       -0.00000000        0.00000000
C           0.68699749       -0.00000000       -0.00000000
H          -1.24476672        0.94342012        0.07709088
H          -1.24476671       -0.94342012       -0.07709092
H           1.24476671        0.94342012       -0.07709089
H           1.24476671       -0.94342012        0.07709094
6
MD Time 480.00
C          -0.67334858       -0.00000000        0.00000000
C           0.67334858       -0.00000000       -0.00000000
H          -1.23345433        0.94426209        0.06429908
H          -1.23345432       -0.94426209       -0.06429913
H           1.23345432        0.94426209       -0.06429909
H           1.23345432       -0.94426208        0.06429915
6
MD Time 490.00
C          -0.65969643       -0.00000000        0.00000000
C           0.65969644       -0.00000000       -0.00000000
H          -1.22216748        0.94499991        0.05135758
H          -1.22216748       -0.94499991       -0.05135762
H           1.22216748        0.94499991       -0.05135759
H           1.22216747       -0.94499991        0.05135765
6
MD Time 500.00
C          -0.64612431       -0.00000000        0.00000000
C           0.64612431        0.00000000       -0.00000000
H          -1.21090950        0.94560952        0.03829199
H          -1.21090949       -0.94560952       -0.03829204
H           1.21090949        0.94560952       -0.03829200
H           1.21090949       -0.94560952        0.03829206
6
MD Time 510.00
C          -0.63272831       -0.00000000        0.00000000
C           0.63272832        0.00000000       -0.00000000
H          -1.19968502        0.94606736        0.02513044
H          -1.19968501       -0.94606736       -0.02513049
H           1.19968501        0.94606736       -0.02513045
H           1.19968501       -0.94606736        0.02513052
6
MD Time 520.00
C          -0.61961799       -0.00000000        0.00000000
C           0.61961799        0.00000000       -0.00000000
H          -1.18850088        0.94635145        0.01190349
H          -1.18850087       -0.94635146       -0.01190354
H           1.18850087        0.94635146       -0.01190350
H           1.18850087       -0.94635145        0.01190357
6
MD Time 530.00
C          -0.60691644       -0.00000000        0.00000000
C           0.60691644        0.00000000       -0.00000000
H          -1.17736692        0.94644245       -0.00135607
H          -1.17736692       -0.94644245        0.00135601
H           1.17736691        0.94644245        0.00135606
H           1.17736691       -0.94644245       -0.00135598
6
MD Time 540.00
C          -0.59475979       -0.00000000        0.00000000
C           0.59475979        0.00000000       -0.00000000
H          -1.16629690        0.94632475       -0.01461338
H          -1.16629689       -0.94632475        0.01461332
H           1.16629689        0.94632475        0.01461337
H           1.16629689       -0.94632475       -0.01461329
6
MD Time 550.00
C          -0.58329572       -0.00000000        0.00000000
C           0.58329572        0.00000000       -0.00000000
H          -1.15530931        0.94598756       -0.02783191
H          -1.15530930       -0.94598757        0.02783185
H           1.15530930        0.94598757        0.02783190
H           1.15530930       -0.94598757       -0.02783182
6
MD Time 560.00
C          -0.57268086       -0.00000000        0.00000000
C           0.57268087        0.00000000       -0.00000000
H          -1.14442822        0.94542600       -0.04097382
H          -1.14442821       -0.94542600        0.04097376
H           1.14442821        0.94542600        0.04097381
H           1.14442821       -0.94542600       -0.04097373
6
MD Time 570.00
C          -0.56307682       -0.00000000        0.00000000
C           0.56307682        0.00000000       -0.00000000
H          -1.13368399        0.94464206       -0.05400046
H          -1.13368398       -0.94464206        0.05400039
H           1.13368398        0.94464206        0.05400045
H           1.13368398       -0.94464206       -0.05400036
6
MD Time 580.00
C          -0.55464477       -0.00000000        0.00000000
C           0.55464477        0.00000000       -0.00000000
H          -1.12311385        0.94364561       -0.06687290
H          -1.12311384       -0.94364561        0.06687283
H           1.12311384        0.94364561        0.06687289
H           1.12311384       -0.94364561       -0.06687280
6
MD Time 590.00
C          -0.54753874       -0.00000000       -0.00000000
C           0.54753874        0.00000000       -0.00000000
H          -1.11276234        0.94245526       -0.07955256
H          -1.11276233       -0.94245527        0.07955249
H           1.11276233        0.94245526        0.07955255
H           1.11276233       -0.94245527       -0.07955246
6
MD Time 600.00
C          -0.54189793       -0.00000000       -0.00000000
C           0.54189793        0.00000000       -0.00000000
H          -1.10268153        0.94109911       -0.09200184
H          -1.10268152       -0.94109911        0.09200177
H           1.10268152        0.94109911        0.09200183
H           1.10268152       -0.94109911       -0.09200174
6
MD Time 610.00
C          -0.53783857       -0.00000000       -0.00000000
C           0.53783857        0.00000000       -0.00000000
H          -1.09293097        0.93961528       -0.10418483
H          -1.09293096       -0.93961529        0.10418476
H           1.09293096        0.93961529        0.10418482
H           1.09293096       -0.93961529       -0.10418473
6
MD Time 620.00
C          -0.53544635       -0.00000000       -0.00000000
C           0.53544635        0.00000000       -0.00000000
H          -1.08357734        0.93805226       -0.11606798
H          -1.08357733       -0.93805227        0.11606790
H           1.08357733        0.93805227        0.11606797
H           1.08357733       -0.93805228       -0.11606787
6
MD Time 630.00
C          -0.53477026       -0.00000000       -0.00000000
C           0.53477026        0.00000000       -0.00000000
H          -1.07469377        0.93646881       -0.12762077
H          -1.07469377       -0.93646882        0.12762069
H           1.07469376        0.93646882        0.12762076
H           1.07469377       -0.93646883       -0.12762066
6
MD Time 640.00
C          -0.53581879       -0.00000000       -0.00000000
C           0.53581879        0.00000000       -0.00000000
H          -1.06635880        0.93493346       -0.13881638
H          -1.06635879       -0.93493347        0.13881630
H           1.06635879        0.93493346        0.13881637
H           1.06635879       -0.93493347       -0.13881626
6
MD Time 650.00
C          -0.53855901       -0.00000000       -0.00000000
C           0.53855901        0.00000000        0.00000000
H          -1.05865491        0.93352341       -0.14963219
H          -1.05865490       -0.93352342        0.14963211
H           1.05865490        0.93352341        0.14963218
H           1.05865491       -0.93352342       -0.14963208
6
MD Time 660.00
C          -0.54291878       -0.00000000       -0.00000000
C           0.54291878        0.00000000        0.00000000
H          -1.05166675        0.93232286       -0.16005021
H          -1.05166675       -0.93232287        0.16005013
H           1.05166674        0.93232287        0.16005020
H           1.05166675       -0.93232288       -0.16005010
6
MD Time 670.00
C          -0.54879178       -0.00000000       -0.00000000
C           0.54879178        0.00000000        0.00000000
H          -1.04547901        0.93142059       -0.17005727
H          -1.04547900       -0.93142061        0.17005719
H           1.04547900        0.93142060        0.17005726
H           1.04547900       -0.93142061       -0.17005715
6
MD Time 680.00
C          -0.55604442       -0.00000000       -0.00000000
C           0.55604442        0.00000000        0.00000000
H          -1.04017401        0.93090694       -0.17964496
H          -1.04017400       -0.93090696        0.17964488
H           1.04017400        0.93090695        0.17964495
H           1.04017401       -0.93090696       -0.17964485
6
MD Time 690.00
C          -0.56452403       -0.00000000       -0.00000000
C           0.56452403        0.00000000        0.00000000
H          -1.03582925        0.93087013       -0.18880937
H          -1.03582925       -0.93087015        0.18880928
H           1.03582924        0.93087015        0.18880936
H           1.03582925       -0.93087016       -0.18880925
6
MD Time 700.00
C          -0.57406705       -0.00000000       -0.00000000
C           0.57406705        0.00000000        0.00000000
H          -1.03251486        0.93139229       -0.19755039
H          -1.03251486       -0.93139231        0.19755030
H           1.03251485        0.93139230        0.19755038
H           1.03251486       -0.93139231       -0.19755027
6
MD Time 710.00
C          -0.58450668       -0.00000000       -0.00000000
C           0.58450668        0.00000000        0.00000000
H          -1.03029128        0.93254513       -0.20587088
H          -1.03029127       -0.93254515        0.20587079
H           1.03029127        0.93254514        0.20587087
H           1.03029128       -0.93254515       -0.20587076
6
MD Time 720.00
C          -0.59567924       -0.00000000       -0.00000001
C           0.59567924        0.00000000        0.00000000
H          -1.02920724        0.93438584       -0.21377550
H          -1.02920723       -0.93438586        0.21377541
H           1.02920723        0.93438585        0.21377549
H           1.02920724       -0.93438587       -0.21377538
6
MD Time 730.00
C          -0.60742923       -0.00000000       -0.00000001
C           0.60742923        0.00000000        0.00000000
H          -1.02929826        0.93695334       -0.22126947
H          -1.02929825       -0.93695337        0.22126938
H           1.02929825        0.93695336        0.22126947
H           1.02929826       -0.93695337       -0.22126935
6
MD Time 740.00
C          -0.61961274       -0.00000000       -0.00000001
C           0.61961274        0.00000000        0.00000000
H          -1.03058570        0.94026528       -0.22835731
H          -1.03058570       -0.94026531        0.22835722
H           1.03058569        0.94026530        0.22835730
H           1.03058570       -0.94026531       -0.22835719
6
MD Time 750.00
C          -0.63209964       -0.00000000       -0.00000001
C           0.63209964        0.00000000        0.00000001
H          -1.03307648        0.94431605       -0.23504163
H          -1.03307648       -0.94431608        0.23504154
H           1.03307648        0.94431607        0.23504163
H           1.03307648       -0.94431608       -0.23504151
6
MD Time 760.00
C          -0.64477450       -0.00000000       -0.00000001
C           0.64477450        0.00000000        0.00000001
H          -1.03676343        0.94907600       -0.24132227
H          -1.03676342       -0.94907603        0.24132218
H           1.03676342        0.94907602        0.24132227
H           1.03676343       -0.94907603       -0.24132215
6
MD Time 770.00
C          -0.65753667       -0.00000000       -0.00000001
C           0.65753667        0.00000000        0.00000001
H          -1.04162617        0.95449191       -0.24719559
H          -1.04162617       -0.95449193        0.24719550
H           1.04162617        0.95449192        0.24719559
H           1.04162617       -0.95449193       -0.24719547
6
MD Time 780.00
C          -0.67029970       -0.00000000       -0.00000001
C           0.67029970        0.00000000        0.00000001
H          -1.04763252        0.96048861       -0.25265427
H          -1.04763252       -0.96048863        0.25265417
H           1.04763251        0.96048862        0.25265427
H           1.04763252       -0.96048864       -0.25265415
6
MD Time 790.00
C          -0.68299028       -0.00000000       -0.00000001
C           0.68299028        0.00000000        0.00000001
H          -1.05474009        0.96697170       -0.25768734
H          -1.05474008       -0.96697172        0.25768725
H           1.05474008        0.96697171        0.25768734
H           1.05474009       -0.96697173       -0.25768722
6
MD Time 800.00
C          -0.69554702       -0.00000000       -0.00000001
C           0.69554702        0.00000000        0.00000001
H          -1.06289809        0.97383092       -0.26228059
H          -1.06289809       -0.97383095        0.26228050
H           1.06289808        0.97383093        0.26228060
H           1.06289809       -0.97383095       -0.26228048
6
MD Time 810.00
C          -0.70791908       -0.00000000       -0.00000001
C           0.70791908        0.00000000        0.00000001
H          -1.07204916        0.98094403       -0.26641719
H          -1.07204916       -0.98094406        0.26641709
H           1.07204916        0.98094404        0.26641720
H           1.07204916       -0.98094406       -0.26641707
6
MD Time 820.00
C          -0.72006482       -0.00000000       -0.00000001
C           0.72006482        0.00000000        0.00000001
H          -1.08213103        0.98818083       -0.27007844
H          -1.08213102       -0.98818086        0.27007834
H           1.08213102        0.98818084        0.27007845
H           1.08213103       -0.98818086       -0.27007833
6
MD Time 830.00
C          -0.73195049       -0.00000000       -0.00000001
C           0.73195049        0.00000000        0.00000001
H          -1.09307806        0.99540709       -0.27324466
H          -1.09307805       -0.99540711        0.27324456
H           1.09307805        0.99540710        0.27324467
H           1.09307806       -0.99540711       -0.27324455
6
MD Time 840.00
C          -0.74354909       -0.00000000       -0.00000001
C           0.74354909        0.00000000        0.00000001
H          -1.10482256        1.00248815       -0.27589600
H          -1.10482255       -1.00248818        0.27589590
H           1.10482255        1.00248816        0.27589601
H           1.10482256       -1.00248818       -0.27589589
6
MD Time 850.00
C          -0.75483932       -0.00000000       -0.00000001
C           0.75483932        0.00000000        0.00000001
H          -1.11729589        1.00929219       -0.27801327
H          -1.11729588       -1.00929221        0.27801317
H           1.11729588        1.00929219        0.27801328
H           1.11729589       -1.00929221       -0.27801316
6
MD Time 860.00
C          -0.76580464       -0.00000000       -0.00000001
C           0.76580464        0.00000000        0.00000001
H          -1.13042932        1.01569287       -0.27957863
H          -1.13042931       -1.01569290        0.27957853
H           1.13042931        1.01569288        0.27957865
H           1.13042932       -1.01569289       -0.27957852
6
MD Time 870.00
C          -0.77643254       -0.00000000       -0.00000002
C           0.77643254        0.00000001        0.00000001
H          -1.14415473        1.02157163       -0.28057619
H          -1.14415472       -1.02157165        0.28057609
H           1.14415472        1.02157163        0.28057621
H           1.14415473       -1.02157165       -0.28057608
6
MD Time 880.00
C          -0.78671380       -0.00000000       -0.00000002
C           0.78671380        0.00000001        0.00000001
H          -1.15840510        1.02681934       -0.28099250
H          -1.15840510       -1.02681937        0.28099240
H           1.15840509        1.02681935        0.28099253
H           1.15840510       -1.02681936       -0.28099240
6
MD Time 890.00
C          -0.79664195       -0.00000000       -0.00000002
C           0.79664195        0.00000001        0.00000001
H          -1.17311495        1.03133769       -0.28081693
H          -1.17311495       -1.03133772        0.28081682
H           1.17311495        1.03133769        0.28081696
H           1.17311496       -1.03133771       -0.28081683
6
MD Time 900.00
C          -0.80621280       -0.00000000       -0.00000002
C           0.80621280        0.00000001        0.00000002
H          -1.18822060        1.03504006       -0.28004191
H          -1.18822059       -1.03504009        0.28004181
H           1.18822059        1.03504006        0.28004195
H           1.18822060       -1.03504008       -0.28004182
6
MD Time 910.00
C          -0.81542400       -0.00000000       -0.00000002
C           0.81542400        0.00000001        0.00000002
H          -1.20366036        1.03785224       -0.27866317
H          -1.20366035       -1.03785226        0.27866306
H           1.20366035        1.03785224        0.27866320
H           1.20366036       -1.03785225       -0.27866308
6
MD Time 920.00
C          -0.82427468       -0.00000000       -0.00000002
C           0.82427468        0.00000001        0.00000002
H          -1.21937476        1.03971280       -0.27667979
H          -1.21937476       -1.03971282        0.27667968
H           1.21937475        1.03971280        0.27667983
H           1.21937476       -1.03971281       -0.27667970
6
MD Time 930.00
C          -0.83276519       -0.00000000       -0.00000002
C           0.83276519        0.00000001        0.00000002
H          -1.23530667        1.04057338       -0.27409429
H          -1.23530667       -1.04057341        0.27409418
H           1.23530666        1.04057338        0.27409433
H           1.23530667       -1.04057339       -0.27409420
6
MD Time 940.00
C          -0.84089677       -0.00000000       -0.00000002
C           0.84089677        0.00000001        0.00000002
H          -1.25140142        1.04039883       -0.27091262
H          -1.25140141       -1.04039885        0.27091251
H           1.25140141        1.04039883        0.27091267
H           1.25140142       -1.04039884       -0.27091254
6
MD Time 950.00
C          -0.84867139       -0.00000000       -0.00000002
C           0.84867139        0.00000001        0.00000002
H          -1.26760694        1.03916724       -0.26714413
H          -1.26760693       -1.03916727        0.26714402
H           1.26760693        1.03916724        0.26714417
H           1.26760693       -1.03916725       -0.26714405
6
MD Time 960.00
C          -0.85609150       -0.00000000       -0.00000002
C           0.85609150        0.00000001        0.00000002
H          -1.28387391        1.03686998       -0.26280145
H          -1.28387390       -1.03687001        0.26280134
H           1.28387391        1.03686998        0.26280151
H           1.28387391       -1.03686999       -0.26280138
6
MD Time 970.00
C          -0.86315984       -0.00000000       -0.00000002
C           0.86315984        0.00000001        0.00000002
H          -1.30015596        1.03351164       -0.25790047
H          -1.30015595       -1.03351166        0.25790036
H           1.30015595        1.03351163        0.25790052
H           1.30015595       -1.03351164       -0.25790040
6
MD Time 980.00
C          -0.86987931       -0.00000000       -0.00000002
C           0.86987931        0.00000001        0.00000002
H          -1.31640976        1.02910998       -0.25246010
H          -1.31640975       -1.02911000        0.25245999
H           1.31640975        1.02910997        0.25246016
H           1.31640976       -1.02910998       -0.25246004
6
MD Time 990.00
C          -0.87625281       -0.00000000       -0.00000002
C           0.87625281        0.00000001        0.00000002
H          -1.33259533        1.02369584       -0.24650221
H          -1.33259532       -1.02369587        0.24650210
H           1.33259533        1.02369584        0.24650228
H           1.33259533       -1.02369584       -0.24650215
6
MD Time 1000.00
C          -0.88228308       -0.00000000       -0.00000002
C           0.88228308        0.00000001        0.00000002
H          -1.34867619        1.01731303       -0.24005136
H          -1.34867618       -1.01731305        0.24005125
H           1.34867618        1.01731302        0.24005143
H           1.34867618       -1.01731302       -0.24005131
6
MD Time 1010.00
C          -0.88797258       -0.00000000       -0.00000002
C           0.88797258        0.00000001        0.00000002
H          -1.36461956        1.01001805       -0.23313461
H          -1.36461955       -1.01001807        0.23313449
H           1.36461955        1.01001804        0.23313468
H           1.36461956       -1.01001805       -0.23313455
6
MD Time 1020.00
C          -0.89332340       -0.00000000       -0.00000002
C           0.89332340        0.00000000        0.00000002
H          -1.38039664        1.00187987       -0.22578121
H          -1.38039663       -1.00187989        0.22578110
H           1.38039663        1.00187986        0.22578129
H           1.38039664       -1.00187986       -0.22578116
6
MD Time 1030.00
C          -0.89833716       -0.00000000       -0.00000002
C           0.89833716        0.00000000        0.00000002
H          -1.39598272        0.99297942       -0.21802235
H          -1.39598271       -0.99297944        0.21802224
H           1.39598271        0.99297941        0.21802243
H           1.39598271       -0.99297941       -0.21802231
6
MD Time 1040.00
C          -0.90301491       -0.00000000       -0.00000002
C           0.90301491        0.00000000        0.00000002
H          -1.41135731        0.98340898       -0.20989073
H          -1.41135730       -0.98340901        0.20989062
H           1.41135731        0.98340897        0.20989082
H           1.41135731       -0.98340897       -0.20989069
6
MD Time 1050.00
C          -0.90735710       -0.00000000       -0.00000003
C           0.90735710        0.00000000        0.00000002
H          -1.42650421        0.97327135       -0.20142017
H          -1.42650420       -0.97327137        0.20142006
H           1.42650420        0.97327134        0.20142026
H           1.42650421       -0.97327134       -0.20142013
6
MD Time 1060.00
C          -0.91136355       -0.00000000       -0.00000003
C           0.91136355        0.00000000        0.00000003
H          -1.44141135        0.96267867       -0.19264513
H          -1.44141134       -0.96267869        0.19264501
H           1.44141134        0.96267866        0.19264522
H           1.44141135       -0.96267865       -0.19264510
6
MD Time 1070.00
C          -0.91503349       -0.00000000       -0.00000003
C           0.91503349        0.00000000        0.00000003
H          -1.45607058        0.95175097       -0.18360019
H          -1.45607057       -0.95175099        0.18360008
H           1.45607057        0.95175096        0.18360029
H           1.45607058       -0.95175096       -0.18360017
6
MD Time 1080.00
C          -0.91836555       -0.00000000       -0.00000003
C           0.91836555        0.00000000        0.00000003
H          -1.47047720        0.94061443       -0.17431950
H          -1.47047719       -0.94061445        0.17431939
H           1.47047719        0.94061442        0.17431960
H           1.47047719       -0.94061441       -0.17431948
6
MD Time 1090.00
C          -0.92135792       -0.00000000       -0.00000003
C           0.92135792        0.00000000        0.00000003
H          -1.48462925        0.92939915       -0.16483619
H          -1.48462924       -0.92939917        0.16483608
H           1.48462924        0.92939914        0.16483629
H           1.48462924       -0.92939913       -0.16483617
6
MD Time 1100.00
C          -0.92400847       -0.00000000       -0.00000003
C           0.92400847        0.00000000        0.00000003
H          -1.49852659        0.91823676       -0.15518176
H          -1.49852657       -0.91823678        0.15518165
H           1.49852658        0.91823675        0.15518187
H           1.49852658       -0.91823674       -0.15518175
6
MD Time 1110.00
C          -0.92631493       -0.00000000       -0.00000003
C           0.92631493        0.00000000        0.00000003
H          -1.51216969        0.90725762       -0.14538558
H          -1.51216968       -0.90725764        0.14538547
H           1.51216969        0.90725761        0.14538569
H           1.51216969       -0.90725760       -0.14538557
6
MD Time 1120.00
C          -0.92827515       -0.00000000       -0.00000003
C           0.92827515        0.00000000        0.00000003
H          -1.52555825        0.89658791       -0.13547435
H          -1.52555824       -0.89658793        0.13547423
H           1.52555825        0.89658790        0.13547446
H           1.52555825       -0.89658789       -0.13547435
6
MD Time 1130.00
C          -0.92988736       -0.00000000       -0.00000003
C           0.92988736        0.00000000        0.00000003
H          -1.53868956        0.88634669       -0.12547172
H          -1.53868955       -0.88634671        0.12547161
H           1.53868956        0.88634668        0.12547184
H           1.53868956       -0.88634667       -0.12547173
6
MD Time 1140.00
C          -0.93115043       -0.00000000       -0.00000003
C           0.93115043        0.00000000        0.00000003
H          -1.55155687        0.87664298       -0.11539807
H          -1.55155686       -0.87664300        0.11539796
H           1.55155687        0.87664297        0.11539819
H           1.55155687       -0.87664296       -0.11539808
6
MD Time 1150.00
C          -0.93206417       -0.00000000       -0.00000003
C           0.93206417        0.00000000        0.00000003
H          -1.56414772        0.86757321       -0.10527035
H          -1.56414771       -0.86757323        0.10527024
H           1.56414771        0.86757320        0.10527048
H           1.56414772       -0.86757319       -0.10527037
6
MD Time 1160.00
C          -0.93262959       -0.00000000       -0.00000003
C           0.93262959        0.00000000        0.00000003
H          -1.57644247        0.85921904       -0.09510220
H          -1.57644246       -0.85921906        0.09510209
H           1.57644247        0.85921903        0.09510233
H           1.57644247       -0.85921902       -0.09510222
6
MD Time 1170.00
C          -0.93284908       -0.00000000       -0.00000003
C           0.93284908        0.00000000        0.00000003
H          -1.58841312        0.85164578       -0.08490417
H          -1.58841311       -0.85164580        0.08490405
H           1.58841312        0.85164577        0.08490430
H           1.58841313       -0.85164576       -0.08490419
6
MD Time 1180.00
C          -0.93272656       -0.00000000       -0.00000003
C           0.93272656        0.00000000        0.00000003
H          -1.60002249        0.84490144       -0.07468409
H          -1.60002248       -0.84490147        0.07468398
H           1.60002249        0.84490144        0.07468423
H           1.60002250       -0.84490143       -0.07468412
6
MD Time 1190.00
C          -0.93226756       -0.00000000       -0.00000003
C           0.93226756        0.00000000        0.00000003
H          -1.61122394        0.83901655       -0.06444764
H          -1.61122393       -0.83901657        0.06444753
H           1.61122394        0.83901655        0.06444779
H           1.61122395       -0.83901654       -0.06444768
6
MD Time 1200.00
C          -0.93147913       -0.00000000       -0.00000003
C           0.93147913        0.00000000        0.00000003
H          -1.62196159        0.83400453       -0.05419889
H          -1.62196158       -0.83400456        0.05419877
H           1.62196159        0.83400453        0.05419904
H           1.62196160       -0.83400452       -0.05419893
6
MD Time 1210.00
C          -0.93036980       -0.00000000       -0.00000003
C           0.93036980        0.00000000        0.00000003
H          -1.63217107        0.82986279       -0.04394090
H          -1.63217106       -0.82986281        0.04394079
H           1.63217107        0.82986279        0.04394106
H           1.63217108       -0.82986278       -0.04394095
6
MD Time 1220.00
C          -0.92894932       -0.00000000       -0.00000003
C           0.92894932        0.00000000        0.00000003
H          -1.64178075        0.82657420       -0.03367641
H          -1.64178074       -0.82657422        0.03367629
H           1.64178075        0.82657420        0.03367657
H           1.64178076       -0.82657419       -0.03367646
6
MD Time 1230.00
C          -0.92722844       -0.00000000       -0.00000003
C           0.92722844        0.00000000        0.00000003
H          -1.65071330        0.82410897       -0.02340830
H          -1.65071329       -0.82410899        0.02340818
H           1.65071331        0.82410897        0.02340846
H           1.65071331       -0.82410896       -0.02340836
6
MD Time 1240.00
C          -0.92521860       -0.00000000       -0.00000003
C           0.92521860        0.00000000        0.00000003
H          -1.65888754        0.82242668       -0.01314012
H          -1.65888753       -0.82242670        0.01314000
H           1.65888755        0.82242668        0.01314029
H           1.65888755       -0.82242667       -0.01314018
6
MD Time 1250.00
C          -0.92293165       -0.00000000       -0.00000003
C           0.92293165        0.00000000        0.00000003
H          -1.66622037        0.82147836       -0.00287645
H          -1.66622036       -0.82147838        0.00287633
H           1.66622037        0.82147837        0.00287663
H           1.66622038       -0.82147835       -0.00287652
6
MD Time 1260.00
C          -0.92037948       -0.00000000       -0.00000003
C           0.92037948        0.00000000        0.00000003
H          -1.67262873        0.82120860        0.00737682
H          -1.67262872       -0.82120862       -0.00737694
H           1.67262874        0.82120860       -0.00737664
H           1.67262875       -0.82120859        0.00737675
6
MD Time 1270.00
C          -0.91757379       -0.00000000       -0.00000003
C           0.91757379        0.00000000        0.00000003
H          -1.67803151        0.82155736        0.01761233
H          -1.67803150       -0.82155738       -0.01761244
H           1.67803151        0.82155736       -0.01761214
H           1.67803152       -0.82155735        0.01761225
6
MD Time 1280.00
C          -0.91452579       -0.00000000       -0.00000003
C           0.91452578        0.00000000        0.00000003
H          -1.68235115        0.82246177        0.02782114
H          -1.68235114       -0.82246179       -0.02782126
H           1.68235116        0.82246177       -0.02782095
H           1.68235117       -0.82246176        0.02782105
6
MD Time 1290.00
C          -0.91124597       -0.00000000       -0.00000003
C           0.91124596        0.00000000        0.00000003
H          -1.68551522        0.82385758        0.03799275
H          -1.68551521       -0.82385760       -0.03799287
H           1.68551523        0.82385759       -0.03799256
H           1.68551524       -0.82385757        0.03799266
6
MD Time 1300.00
C          -0.90774394       -0.00000000       -0.00000003
C           0.90774393        0.00000000        0.00000003
H          -1.68745758        0.82568045        0.04811515
H          -1.68745757       -0.82568047       -0.04811526
H           1.68745759        0.82568046       -0.04811495
H           1.68745760       -0.82568045        0.04811505
6
MD Time 1310.00
C          -0.90402826       -0.00000000       -0.00000003
C           0.90402825        0.00000000        0.00000003
H          -1.68811941        0.82786704        0.05817488
H          -1.68811940       -0.82786705       -0.05817499
H           1.68811942        0.82786705       -0.05817468
H           1.68811943       -0.82786703        0.05817478
6
MD Time 1320.00
C          -0.90010634       -0.00000000       -0.00000003
C           0.90010633        0.00000000        0.00000003
H          -1.68744999        0.83035584        0.06815722
H          -1.68744998       -0.83035586       -0.06815734
H           1.68745000        0.83035585       -0.06815702
H           1.68745001       -0.83035583        0.06815712
6
MD Time 1330.00
C          -0.89598437       -0.00000000       -0.00000003
C           0.89598437        0.00000000        0.00000003
H          -1.68540724        0.83308795        0.07804635
H          -1.68540722       -0.83308797       -0.07804647
H           1.68540725        0.83308797       -0.07804615
H           1.68540726       -0.83308795        0.07804625
6
MD Time 1340.00
C          -0.89166728       -0.00000000       -0.00000003
C           0.89166728        0.00000000        0.00000003
H          -1.68195815        0.83600766        0.08782548
H          -1.68195814       -0.83600767       -0.08782560
H           1.68195816        0.83600767       -0.08782528
H           1.68195817       -0.83600765        0.08782538
6
MD Time 1350.00
C          -0.88715871       -0.00000000       -0.00000003
C           0.88715870        0.00000000        0.00000003
H          -1.67707905        0.83906291        0.09747708
H          -1.67707903       -0.83906293       -0.09747719
H           1.67707906        0.83906293       -0.09747687
H           1.67707907       -0.83906291        0.09747697
6
MD Time 1360.00
C          -0.88246100       -0.00000000       -0.00000003
C           0.88246099        0.00000000        0.00000003
H          -1.67075573        0.84220580        0.10698303
H          -1.67075571       -0.84220582       -0.10698314
H           1.67075574        0.84220582       -0.10698282
H           1.67075575       -0.84220580        0.10698292
6
MD Time 1370.00
C          -0.87757524       -0.00000000       -0.00000003
C           0.87757523        0.00000000        0.00000003
H          -1.66298355        0.84539289        0.11632487
H          -1.66298354       -0.84539290       -0.11632498
H           1.66298357        0.84539291       -0.11632466
H           1.66298357       -0.84539289        0.11632476
6
MD Time 1380.00
C          -0.87250126       -0.00000000       -0.00000003
C           0.87250126        0.00000000        0.00000003
H          -1.65376745        0.84858557        0.12548395
H          -1.65376743       -0.84858558       -0.12548407
H           1.65376747        0.84858559       -0.12548375
H           1.65376747       -0.84858557        0.12548385
6
MD Time 1390.00
C          -0.86723770       -0.00000000       -0.00000003
C           0.86723770        0.00000000        0.00000003
H          -1.64312189        0.85175041        0.13444164
H          -1.64312187       -0.85175042       -0.13444176
H           1.64312191        0.85175043       -0.13444144
H           1.64312191       -0.85175041        0.13444154
6
MD Time 1400.00
C          -0.86178202       -0.00000000       -0.00000003
C           0.86178202        0.00000000        0.00000003
H          -1.63107083        0.85485943        0.14317952
H          -1.63107081       -0.85485945       -0.14317964
H           1.63107085        0.85485946       -0.14317932
H           1.63107085       -0.85485944        0.14317942
6
MD Time 1410.00
C          -0.85613060       -0.00000000       -0.00000003
C           0.85613059        0.00000000        0.00000003
H          -1.61764760        0.85789045        0.15167958
H          -1.61764758       -0.85789046       -0.15167970
H           1.61764762        0.85789048       -0.15167939
H           1.61764762       -0.85789045        0.15167949
6
MD Time 1420.00
C          -0.85027877       -0.00000000       -0.00000003
C           0.85027877        0.00000000        0.00000003
H          -1.60289479        0.86082732        0.15992438
H          -1.60289477       -0.86082733       -0.15992450
H           1.60289481        0.86082735       -0.15992419
H           1.60289481       -0.86082733        0.15992429
6
MD Time 1430.00
C          -0.84422093       -0.00000000       -0.00000003
C           0.84422092        0.00000000        0.00000003
H          -1.58686411        0.86366024        0.16789726
H          -1.58686409       -0.86366025       -0.16789738
H           1.58686413        0.86366028       -0.16789708
H           1.58686413       -0.86366025        0.16789718
6
MD Time 1440.00
C          -0.83795061       -0.00000000       -0.00000003
C           0.83795061        0.00000000        0.00000003
H          -1.56961612        0.86638598        0.17558248
H          -1.56961610       -0.86638599       -0.17558259
H           1.56961615        0.86638602       -0.17558230
H           1.56961615       -0.86638599        0.17558240
6
MD Time 1450.00
C          -0.83146063       -0.00000000       -0.00000003
C           0.83146063        0.00000000        0.00000003
H          -1.55122003        0.86900805        0.18296538
H          -1.55122001       -0.86900806       -0.18296550
H           1.55122006        0.86900808       -0.18296521
H           1.55122005       -0.86900806        0.18296531
6
MD Time 1460.00
C          -0.82474322       -0.00000000       -0.00000003
C           0.82474321        0.00000000        0.00000003
H          -1.53175327        0.87153680        0.19003253
H          -1.53175325       -0.87153681       -0.19003265
H           1.53175329        0.87153684       -0.19003237
H           1.53175329       -0.87153681        0.19003247
6
MD Time 1470.00
C          -0.81779019       -0.00000000       -0.00000003
C           0.81779018        0.00000000        0.00000003
H          -1.51130106        0.87398946        0.19677179
H          -1.51130104       -0.87398947       -0.19677190
H           1.51130109        0.87398950       -0.19677163
H           1.51130108       -0.87398947        0.19677173
6
MD Time 1480.00
C          -0.81059317       -0.00000000       -0.00000003
C           0.81059317        0.00000000        0.00000003
H          -1.48995582        0.87638995        0.20317239
H          -1.48995580       -0.87638996       -0.20317251
H           1.48995585        0.87638999       -0.20317224
H           1.48995584       -0.87638996        0.20317235
6
MD Time 1490.00
C          -0.80314388       -0.00000000       -0.00000003
C           0.80314388        0.00000000        0.00000003
H          -1.46781643        0.87876858        0.20922496
H          -1.46781641       -0.87876859       -0.20922507
H           1.46781645        0.87876862       -0.20922482
H           1.46781645       -0.87876859        0.20922492
6
MD Time 1500.00
C          -0.79543439       -0.00000000       -0.00000003
C           0.79543438        0.00000000        0.00000003
H          -1.44498734        0.88116152        0.21492142
H          -1.44498731       -0.88116153       -0.21492154
H           1.44498736        0.88116156       -0.21492129
H           1.44498735       -0.88116153        0.21492139
6
MD Time 1510.00
C          -0.78745751       -0.00000000       -0.00000003
C           0.78745751        0.00000000        0.00000003
H          -1.42157752        0.88361003        0.22025493
H          -1.42157750       -0.88361004       -0.22025504
H           1.42157754        0.88361007       -0.22025480
H           1.42157754       -0.88361005        0.22025491
6
MD Time 1520.00
C          -0.77920722       -0.00000000       -0.00000003
C           0.77920722        0.00000000        0.00000003
H          -1.39769931        0.88615943        0.22521963
H          -1.39769929       -0.88615944       -0.22521975
H           1.39769933        0.88615947       -0.22521952
H           1.39769932       -0.88615945        0.22521962
6
MD Time 1530.00
C          -0.77067912       -0.00000000       -0.00000003
C           0.77067912        0.00000000        0.00000003
H          -1.37346702        0.88885777        0.22981042
H          -1.37346700       -0.88885778       -0.22981053
H           1.37346704        0.88885781       -0.22981031
H           1.37346703       -0.88885779        0.22981042
6
MD Time 1540.00
C          -0.76187096       -0.00000000       -0.00000003
C           0.76187096        0.00000000        0.00000003
H          -1.34899557        0.89175429        0.23402256
H          -1.34899554       -0.89175430       -0.23402267
H           1.34899558        0.89175434       -0.23402246
H           1.34899557       -0.89175431        0.23402257
6
MD Time 1550.00
C          -0.75278323       -0.00000000       -0.00000003
C           0.75278322        0.00000000        0.00000003
H          -1.32439896        0.89489764        0.23785130
H          -1.32439893       -0.89489765       -0.23785141
H           1.32439897        0.89489768       -0.23785121
H           1.32439897       -0.89489766        0.23785132
6
MD Time 1560.00
C          -0.74341974       -0.00000000       -0.00000003
C           0.74341974        0.00000000        0.00000003
H          -1.29978888        0.89833389        0.24129139
H          -1.29978885       -0.89833390       -0.24129151
H           1.29978889        0.89833393       -0.24129131
H           1.29978888       -0.89833391        0.24129142
6
MD Time 1570.00
C          -0.73378834       -0.00000000       -0.00000003
C           0.73378833        0.00000000        0.00000003
H          -1.27527326        0.90210452        0.24433666
H          -1.27527324       -0.90210453       -0.24433677
H           1.27527327        0.90210456       -0.24433659
H           1.27527326       -0.90210454        0.24433670
6
MD Time 1580.00
C          -0.72390152       -0.00000000       -0.00000003
C           0.72390152        0.00000000        0.00000003
H          -1.25095510        0.90624446        0.24697950
H          -1.25095507       -0.90624447       -0.24697962
H           1.25095510        0.90624450       -0.24697944
H           1.25095509       -0.90624448        0.24697956
6
MD Time 1590.00
C          -0.71377717       -0.00000000       -0.00000003
C           0.71377717        0.00000000        0.00000003
H          -1.22693137        0.91078014        0.24921058
H          -1.22693134       -0.91078016       -0.24921069
H           1.22693136        0.91078018       -0.24921053
H           1.22693136       -0.91078016        0.24921064
6
MD Time 1600.00
C          -0.70343923       -0.00000000       -0.00000003
C           0.70343923        0.00000000        0.00000003
H          -1.20329232        0.91572801        0.25101846
H          -1.20329229       -0.91572802       -0.25101857
H           1.20329231        0.91572804       -0.25101842
H           1.20329231       -0.91572803        0.25101853
6
MD Time 1610.00
C          -0.69291836       -0.00000000       -0.00000003
C           0.69291836        0.00000000        0.00000003
H          -1.18012098        0.92109320        0.25238952
H          -1.18012095       -0.92109322       -0.25238963
H           1.18012097        0.92109324       -0.25238949
H           1.18012096       -0.92109322        0.25238961
6
MD Time 1620.00
C          -0.68225267       -0.00000000       -0.00000003
C           0.68225267        0.00000000        0.00000002
H          -1.15749299        0.92686886        0.25330797
H          -1.15749296       -0.92686887       -0.25330808
H           1.15749297        0.92686889       -0.25330794
H           1.15749297       -0.92686887        0.25330806
6
MD Time 1630.00
C          -0.67148823       -0.00000000       -0.00000002
C           0.67148823        0.00000000        0.00000002
H          -1.13547677        0.93303579        0.25375600
H          -1.13547673       -0.93303580       -0.25375611
H           1.13547674        0.93303582       -0.25375599
H           1.13547674       -0.93303580        0.25375611
6
MD Time 1640.00
C          -0.66067973       -0.00000000       -0.00000002
C           0.66067973        0.00000000        0.00000002
H          -1.11413390        0.93956276        0.25371423
H          -1.11413387       -0.93956278       -0.25371434
H           1.11413388        0.93956279       -0.25371423
H           1.11413387       -0.93956277        0.25371435
6
MD Time 1650.00
C          -0.64989085       -0.00000000       -0.00000002
C           0.64989085        0.00000000        0.00000002
H          -1.09351986        0.94640722        0.25316217
H          -1.09351982       -0.94640723       -0.25316228
H           1.09351983        0.94640724       -0.25316217
H           1.09351982       -0.94640722        0.25316230
6
MD Time 1660.00
C          -0.63919460       -0.00000000       -0.00000002
C           0.63919460        0.00000000        0.00000002
H          -1.07368476        0.95351642        0.25207892
H          -1.07368473       -0.95351644       -0.25207903
H           1.07368472        0.95351644       -0.25207893
H           1.07368472       -0.95351643        0.25207906
6
MD Time 1670.00
C          -0.62867339       -0.00000000       -0.00000002
C           0.62867339        0.00000000        0.00000002
H          -1.05467439        0.96082901        0.25044392
H          -1.05467436       -0.96082902       -0.25044403
H           1.05467435        0.96082903       -0.25044395
H           1.05467435       -0.96082902        0.25044407
6
MD Time 1680.00
C          -0.61841883       -0.00000000       -0.00000002
C           0.61841883        0.00000000        0.00000002
H          -1.03653118        0.96827671        0.24823775
H          -1.03653115       -0.96827672       -0.24823786
H           1.03653114        0.96827673       -0.24823778
H           1.03653113       -0.96827671        0.24823791
6
MD Time 1690.00
C          -0.60853114       -0.00000000       -0.00000002
C           0.60853115        0.00000000        0.00000002
H          -1.01929520        0.97578627        0.24544290
H          -1.01929516       -0.97578628       -0.24544301
H           1.01929515        0.97578628       -0.24544294
H           1.01929514       -0.97578626        0.24544307
6
MD Time 1700.00
C          -0.59911806       -0.00000000       -0.00000002
C           0.59911807        0.00000000        0.00000002
H          -1.00300504        0.98328141        0.24204454
H          -1.00300500       -0.98328142       -0.24204465
H           1.00300499        0.98328142       -0.24204459
H           1.00300498       -0.98328141        0.24204472
6
MD Time 1710.00
C          -0.59029314       -0.00000000       -0.00000002
C           0.59029314        0.00000000        0.00000002
H          -0.98769862        0.99068480        0.23803119
H          -0.98769858       -0.99068481       -0.23803130
H           0.98769856        0.99068481       -0.23803124
H           0.98769855       -0.99068479        0.23803138
6
MD Time 1720.00
C          -0.58217340       -0.00000000       -0.00000002
C           0.58217340        0.00000000        0.00000002
H          -0.97341373        0.99791988        0.23339522
H          -0.97341369       -0.99791989       -0.23339533
H           0.97341368        0.99791988       -0.23339528
H           0.97341366       -0.99791987        0.23339542
6
MD Time 1730.00
C          -0.57487627       -0.00000000       -0.00000002
C           0.57487628        0.00000000        0.00000002
H          -0.96018844        1.00491258        0.22813330
H          -0.96018840       -1.00491258       -0.22813341
H           0.96018838        1.00491258       -0.22813338
H           0.96018837       -1.00491256        0.22813352
6
MD Time 1740.00
C          -0.56851586       -0.00000000       -0.00000002
C           0.56851587        0.00000000        0.00000002
H          -0.94806121        1.01159288        0.22224665
H          -0.94806117       -1.01159288       -0.22224676
H           0.94806115        1.01159288       -0.22224673
H           0.94806114       -1.01159286        0.22224687
6
MD Time 1750.00
C          -0.56319863       -0.00000000       -0.00000002
C           0.56319864        0.00000000        0.00000002
H          -0.93707082        1.01789616        0.21574112
H          -0.93707078       -1.01789617       -0.21574123
H           0.93707075        1.01789616       -0.21574121
H           0.93707074       -1.01789614        0.21574135
6
MD Time 1760.00
C          -0.55901889       -0.00000000       -0.00000002
C           0.55901890        0.00000000        0.00000002
H          -0.92725606        1.02376437        0.20862720
H          -0.92725602       -1.02376438       -0.20862731
H           0.92725600        1.02376437       -0.20862730
H           0.92725598       -1.02376435        0.20862744
6
MD Time 1770.00
C          -0.55605420       -0.00000000       -0.00000002
C           0.55605421        0.00000000        0.00000002
H          -0.91865527        1.02914698        0.20091982
H          -0.91865523       -1.02914698       -0.20091993
H           0.91865521        1.02914698       -0.20091993
H           0.91865519       -1.02914695        0.20092007
6
MD Time 1780.00
C          -0.55436135       -0.00000000       -0.00000002
C           0.55436136        0.00000000        0.00000002
H          -0.91130570        1.03400173        0.19263816
H          -0.91130566       -1.03400174       -0.19263827
H           0.91130564        1.03400173       -0.19263827
H           0.91130562       -1.03400170        0.19263842
6
MD Time 1790.00
C          -0.55397309       -0.00000000       -0.00000002
C           0.55397310        0.00000000        0.00000002
H          -0.90524278        1.03829522        0.18380523
H          -0.90524274       -1.03829523       -0.18380534
H           0.90524272        1.03829522       -0.18380535
H           0.90524270       -1.03829520        0.18380550
6
MD Time 1800.00
C          -0.55489623       -0.00000000       -0.00000002
C           0.55489624        0.00000000        0.00000002
H          -0.90049937        1.04200325        0.17444753
H          -0.90049933       -1.04200325       -0.17444764
H           0.90049930        1.04200325       -0.17444765
H           0.90049928       -1.04200322        0.17444780
6
MD Time 1810.00
C          -0.55711114       -0.00000000       -0.00000002
C           0.55711114        0.00000000        0.00000002
H          -0.89710497        1.04511096        0.16459457
H          -0.89710493       -1.04511096       -0.16459468
H           0.89710491        1.04511096       -0.16459470
H           0.89710489       -1.04511093        0.16459485
6
MD Time 1820.00
C          -0.56057281       -0.00000001       -0.00000002
C           0.56057282        0.00000000        0.00000002
H          -0.89508506        1.04761283        0.15427842
H          -0.89508502       -1.04761284       -0.15427853
H           0.89508499        1.04761283       -0.15427856
H           0.89508497       -1.04761281        0.15427872
6
MD Time 1830.00
C          -0.56521339       -0.00000001       -0.00000002
C           0.56521340        0.00000000        0.00000002
H          -0.89446041        1.04951243        0.14353322
H          -0.89446037       -1.04951244       -0.14353334
H           0.89446035        1.04951244       -0.14353337
H           0.89446033       -1.04951241        0.14353352
6
MD Time 1840.00
C          -0.57094571       -0.00000001       -0.00000002
C           0.57094572        0.00000000        0.00000002
H          -0.89524664        1.05082198        0.13239469
H          -0.89524659       -1.05082199       -0.13239481
H           0.89524657        1.05082199       -0.13239485
H           0.89524655       -1.05082196        0.13239500
6
MD Time 1850.00
C          -0.57766768       -0.00000001       -0.00000002
C           0.57766769        0.00000000        0.00000002
H          -0.89745377        1.05156177        0.12089966
H          -0.89745373       -1.05156178       -0.12089977
H           0.89745371        1.05156178       -0.12089982
H           0.89745369       -1.05156175        0.12089997
6
MD Time 1860.00
C          -0.58526684       -0.00000001       -0.00000002
C           0.58526685        0.00000000        0.00000002
H          -0.90108606        1.05175932        0.10908556
H          -0.90108602       -1.05175932       -0.10908568
H           0.90108600        1.05175933       -0.10908573
H           0.90108598       -1.05175930        0.10908589
6
MD Time 1870.00
C          -0.59362493       -0.00000001       -0.00000002
C           0.59362494        0.00000000        0.00000002
H          -0.90614182        1.05144844        0.09699005
H          -0.90614178       -1.05144845       -0.09699017
H           0.90614176        1.05144845       -0.09699023
H           0.90614174       -1.05144843        0.09699039
6
MD Time 1880.00
C          -0.60262194       -0.00000001       -0.00000002
C           0.60262195        0.00000000        0.00000002
H          -0.91261346        1.05066812        0.08465050
H          -0.91261342       -1.05066813       -0.08465062
H           0.91261340        1.05066813       -0.08465069
H           0.91261338       -1.05066811        0.08465084
6
MD Time 1890.00
C          -0.61213963       -0.00000001       -0.00000002
C           0.61213963        0.00000000        0.00000002
H          -0.92048757        1.04946122        0.07210367
H          -0.92048753       -1.04946123       -0.07210379
H           0.92048751        1.04946124       -0.07210386
H           0.92048749       -1.04946121        0.07210402
6
MD Time 1900.00
C          -0.62206430       -0.00000001       -0.00000002
C           0.62206431        0.00000000        0.00000002
H          -0.92974510        1.04787309        0.05938532
H          -0.92974506       -1.04787310       -0.05938544
H           0.92974505        1.04787311       -0.05938551
H           0.92974503       -1.04787309        0.05938567
6
MD Time 1910.00
C          -0.63228890       -0.00000001       -0.00000002
C           0.63228890        0.00000001        0.00000002
H          -0.94036156        1.04595007        0.04652995
H          -0.94036152       -1.04595008       -0.04653007
H           0.94036151        1.04595009       -0.04653015
H           0.94036149       -1.04595007        0.04653031
6
MD Time 1920.00
C          -0.64271436       -0.00000001       -0.00000002
C           0.64271437        0.00000001        0.00000002
H          -0.95230724        1.04373792        0.03357057
H          -0.95230721       -1.04373793       -0.03357069
H           0.95230719        1.04373795       -0.03357077
H           0.95230718       -1.04373793        0.03357094
6
MD Time 1930.00
C          -0.65325052       -0.00000001       -0.00000003
C           0.65325053        0.00000001        0.00000002
H          -0.96554740        1.04128022        0.02053855
H          -0.96554737       -1.04128024       -0.02053868
H           0.96554736        1.04128025       -0.02053876
H           0.96554734       -1.04128024        0.02053893
6
MD Time 1940.00
C          -0.66381643       -0.00000001       -0.00000003
C           0.66381644        0.00000001        0.00000002
H          -0.98004241        1.03861685        0.00746356
H          -0.98004238       -1.03861687       -0.00746369
H           0.98004237        1.03861689       -0.00746377
H           0.98004236       -1.03861687        0.00746394
6
MD Time 1950.00
C          -0.67434043       -0.00000001       -0.00000003
C           0.67434043        0.00000001        0.00000002
H          -0.99574782        1.03578247       -0.00562642
H          -0.99574779       -1.03578249        0.00562629
H           0.99574778        1.03578250        0.00562621
H           0.99574777       -1.03578249       -0.00562604
6
MD Time 1960.00
C          -0.68475985       -0.00000001       -0.00000003
C           0.68475986        0.00000001        0.00000002
H          -1.01261433        1.03280521       -0.01870500
H          -1.01261430       -1.03280524        0.01870487
H           1.01261429        1.03280525        0.01870479
H           1.01261428       -1.03280524       -0.01870461
6
MD Time 1970.00
C          -0.69502069       -0.00000001       -0.00000003
C           0.69502070        0.00000001        0.00000002
H          -1.03058769        1.02970563       -0.03174717
H          -1.03058765       -1.02970566        0.03174704
H           1.03058765        1.02970567        0.03174696
H           1.03058764       -1.02970567       -0.03174678
6
MD Time 1980.00
C          -0.70507704       -0.00000001       -0.00000003
C           0.70507705        0.00000001        0.00000002
H          -1.04960850        1.02649583       -0.04472909
H          -1.04960847       -1.02649585        0.04472896
H           1.04960847        1.02649587        0.04472887
H           1.04960846       -1.02649586       -0.04472869
6
MD Time 1990.00
C          -0.71489055       -0.00000001       -0.00000003
C           0.71489055        0.00000001        0.00000002
H          -1.06961204        1.02317899       -0.05762776
H          -1.06961200       -1.02317901        0.05762762
H           1.06961201        1.02317903        0.05762754
H           1.06961200       -1.02317903       -0.05762736
6
MD Time 2000.00
C          -0.72442982       -0.00000001       -0.00000003
C           0.72442982        0.00000001        0.00000003
H          -1.09052798        1.01974928       -0.07042072
H          -1.09052795       -1.01974931        0.07042058
H           1.09052795        1.01974933        0.07042050
H           1.09052795       -1.01974933       -0.07042032
6
MD Time 2010.00
C          -0.73366981       -0.00000001       -0.00000003
C           0.73366981        0.00000001        0.00000003
H          -1.11228027        1.01619215       -0.08308573
H          -1.11228024       -1.01619218        0.08308559
H           1.11228024        1.01619220        0.08308551
H           1.11228024       -1.01619220       -0.08308533
6
MD Time 2020.00
C          -0.74259128       -0.00000001       -0.00000003
C           0.74259128        0.00000001        0.00000003
H          -1.13478704        1.01248493       -0.09560047
H          -1.13478701       -1.01248496        0.09560032
H           1.13478702        1.01248497        0.09560025
H           1.13478702       -1.01248498       -0.09560006
6
MD Time 2030.00
C          -0.75118020       -0.00000001       -0.00000003
C           0.75118020        0.00000001        0.00000003
H          -1.15796068        1.00859789       -0.10794228
H          -1.15796066       -1.00859792        0.10794213
H           1.15796067        1.00859793        0.10794206
H           1.15796067       -1.00859794       -0.10794187
6
MD Time 2040.00
C          -0.75942721       -0.00000001       -0.00000003
C           0.75942721        0.00000001        0.00000003
H          -1.18170809        1.00449552       -0.12008804
H          -1.18170806       -1.00449555        0.12008789
H           1.18170808        1.00449557        0.12008782
H           1.18170808       -1.00449557       -0.12008763
6
MD Time 2050.00
C          -0.76732707       -0.00000001       -0.00000003
C           0.76732707        0.00000001        0.00000003
H          -1.20593107        1.00013807       -0.13201404
H          -1.20593105       -1.00013811        0.13201389
H           1.20593106        1.00013812        0.13201382
H           1.20593107       -1.00013813       -0.13201363
6
MD Time 2060.00
C          -0.77487821       -0.00000001       -0.00000003
C           0.77487821        0.00000001        0.00000003
H          -1.23052696        0.99548322       -0.14369602
H          -1.23052694       -0.99548326        0.14369587
H           1.23052695        0.99548328        0.14369580
H           1.23052696       -0.99548328       -0.14369561
6
MD Time 2070.00
C          -0.78208217       -0.00000001       -0.00000003
C           0.78208217        0.00000001        0.00000003
H          -1.25538934        0.99048782       -0.15510926
H          -1.25538932       -0.99048787        0.15510910
H           1.25538934        0.99048788        0.15510904
H           1.25538935       -0.99048789       -0.15510885
6
MD Time 2080.00
C          -0.78894316       -0.00000001       -0.00000003
C           0.78894316        0.00000001        0.00000003
H          -1.28040894        0.98510962       -0.16622876
H          -1.28040892       -0.98510966        0.16622860
H           1.28040894        0.98510967        0.16622854
H           1.28040895       -0.98510968       -0.16622835
6
MD Time 2090.00
C          -0.79546761       -0.00000001       -0.00000003
C           0.79546761        0.00000001        0.00000003
H          -1.30547456        0.97930890       -0.17702946
H          -1.30547454       -0.97930894        0.17702930
H           1.30547456        0.97930895        0.17702925
H           1.30547457       -0.97930896       -0.17702905
6
MD Time 2100.00
C          -0.80166376       -0.00000001       -0.00000003
C           0.80166375        0.00000001        0.00000003
H          -1.33047409        0.97305000       -0.18748658
H          -1.33047407       -0.97305004        0.18748641
H           1.33047409        0.97305005        0.18748637
H           1.33047411       -0.97305006       -0.18748617
6
MD Time 2110.00
C          -0.80754122       -0.00000001       -0.00000003
C           0.80754122        0.00000001        0.00000003
H          -1.35529551        0.96630263       -0.19757588
H          -1.35529549       -0.96630268        0.19757572
H           1.35529551        0.96630269        0.19757568
H           1.35529553       -0.96630270       -0.19757548
6
MD Time 2120.00
C          -0.81311067       -0.00000001       -0.00000004
C           0.81311066        0.00000001        0.00000003
H          -1.37982786        0.95904303       -0.20727407
H          -1.37982784       -0.95904308        0.20727390
H           1.37982786        0.95904309        0.20727388
H           1.37982788       -0.95904309       -0.20727368
6
MD Time 2130.00
C          -0.81838346       -0.00000001       -0.00000004
C           0.81838346        0.00000001        0.00000003
H          -1.40396222        0.95125482       -0.21655907
H          -1.40396221       -0.95125486        0.21655890
H           1.40396223        0.95125487        0.21655889
H           1.40396225       -0.95125488       -0.21655868
6
MD Time 2140.00
C          -0.82337138       -0.00000001       -0.00000004
C           0.82337137        0.00000001        0.00000003
H          -1.42759259        0.94292971       -0.22541039
H          -1.42759258       -0.94292976        0.22541022
H           1.42759260        0.94292977        0.22541021
H           1.42759262       -0.94292977       -0.22541001
6
MD Time 2150.00
C          -0.82808633       -0.00000001       -0.00000004
C           0.82808632        0.00000001        0.00000003
H          -1.45061668        0.93406803       -0.23380939
H          -1.45061666       -0.93406807        0.23380922
H           1.45061669        0.93406808        0.23380922
H           1.45061671       -0.93406809       -0.23380902
6
MD Time 2160.00
C          -0.83254013       -0.00000001       -0.00000004
C           0.83254012        0.00000001        0.00000003
H          -1.47293666        0.92467897       -0.24173959
H          -1.47293665       -0.92467901        0.24173942
H           1.47293667        0.92467902        0.24173943
H           1.47293669       -0.92467902       -0.24173922
6
MD Time 2170.00
C          -0.83674430       -0.00000001       -0.00000004
C           0.83674430        0.00000001        0.00000003
H          -1.49445984        0.91478076       -0.24918689
H          -1.49445982       -0.91478080        0.24918671
H           1.49445985        0.91478081        0.24918674
H           1.49445987       -0.91478081       -0.24918653
6
MD Time 2180.00
C          -0.84070991       -0.00000001       -0.00000004
C           0.84070990        0.00000001        0.00000004
H          -1.51509921        0.90440066       -0.25613979
H          -1.51509920       -0.90440071        0.25613961
H           1.51509923        0.90440071        0.25613965
H           1.51509925       -0.90440071       -0.25613944
6
MD Time 2190.00
C          -0.84444737       -0.00000001       -0.00000004
C           0.84444736        0.00000001        0.00000004
H          -1.53477401        0.89357488       -0.26258957
H          -1.53477400       -0.89357492        0.26258939
H           1.53477403        0.89357493        0.26258944
H           1.53477404       -0.89357493       -0.26258923
6
MD Time 2200.00
C          -0.84796637       -0.00000001       -0.00000004
C           0.84796637        0.00000001        0.00000004
H          -1.55341013        0.88234833       -0.26853044
H          -1.55341012       -0.88234838        0.26853026
H           1.55341015        0.88234838        0.26853032
H           1.55341017       -0.88234838       -0.26853011
6
MD Time 2210.00
C          -0.85127574       -0.00000001       -0.00000004
C           0.85127574        0.00000001        0.00000004
H          -1.57094055        0.87077440       -0.27395966
H          -1.57094054       -0.87077444        0.27395948
H           1.57094057        0.87077444        0.27395955
H           1.57094059       -0.87077444       -0.27395935
6
MD Time 2220.00
C          -0.85438335       -0.00000001       -0.00000004
C           0.85438334        0.00000001        0.00000004
H          -1.58730568        0.85891459       -0.27887765
H          -1.58730567       -0.85891464        0.27887747
H           1.58730570        0.85891464        0.27887755
H           1.58730572       -0.85891463       -0.27887735
6
MD Time 2230.00
C          -0.85729601       -0.00000001       -0.00000004
C           0.85729600        0.00000001        0.00000004
H          -1.60245369        0.84683818       -0.28328804
H          -1.60245368       -0.84683822        0.28328785
H           1.60245371        0.84683822        0.28328795
H           1.60245373       -0.84683821       -0.28328775
6
MD Time 2240.00
C          -0.86001945       -0.00000001       -0.00000004
C           0.86001944        0.00000001        0.00000004
H          -1.61634080        0.83462172       -0.28719771
H          -1.61634079       -0.83462177        0.28719752
H           1.61634081        0.83462176        0.28719764
H           1.61634083       -0.83462175       -0.28719744
6
MD Time 2250.00
C          -0.86255820       -0.00000001       -0.00000004
C           0.86255820        0.00000001        0.00000004
H          -1.62893150        0.82234865       -0.29061682
H          -1.62893150       -0.82234870        0.29061664
H           1.62893152        0.82234869        0.29061676
H           1.62893154       -0.82234868       -0.29061656
6
MD Time 2260.00
C          -0.86491559       -0.00000001       -0.00000004
C           0.86491558        0.00000001        0.00000004
H          -1.64019887        0.81010872       -0.29355878
H          -1.64019886       -0.81010877        0.29355859
H           1.64019888        0.81010876        0.29355874
H           1.64019890       -0.81010875       -0.29355854
6
MD Time 2270.00
C          -0.86709363       -0.00000001       -0.00000004
C           0.86709363        0.00000001        0.00000004
H          -1.65012465        0.79799741       -0.29604018
H          -1.65012464       -0.79799745        0.29604000
H           1.65012466        0.79799744        0.29604015
H           1.65012468       -0.79799743       -0.29603996
6
MD Time 2280.00
C          -0.86909305       -0.00000001       -0.00000004
C           0.86909305        0.00000001        0.00000004
H          -1.65869947        0.78611526       -0.29808070
H          -1.65869947       -0.78611531        0.29808052
H           1.65869949        0.78611529        0.29808069
H           1.65869951       -0.78611528       -0.29808050
6
MD Time 2290.00
C          -0.87091323       -0.00000001       -0.00000004
C           0.87091323        0.00000001        0.00000004
H          -1.66592291        0.77456716       -0.29970296
H          -1.66592290       -0.77456721        0.29970277
H           1.66592292        0.77456719        0.29970296
H           1.66592294       -0.77456718       -0.29970277
6
MD Time 2300.00
C          -0.87255220       -0.00000001       -0.00000004
C           0.87255219        0.00000001        0.00000004
H          -1.67180347        0.76346148       -0.30093227
H          -1.67180346       -0.76346153        0.30093208
H           1.67180348        0.76346150        0.30093229
H           1.67180350       -0.76346149       -0.30093210
6
MD Time 2310.00
C          -0.87400663       -0.00000001       -0.00000004
C           0.87400662        0.00000001        0.00000004
H          -1.67635850        0.75290910       -0.30179638
H          -1.67635849       -0.75290915        0.30179620
H           1.67635851        0.75290912        0.30179642
H           1.67635852       -0.75290911       -0.30179623
6
MD Time 2320.00
C          -0.87527189       -0.00000001       -0.00000004
C           0.87527188        0.00000001        0.00000004
H          -1.67961396        0.74302233       -0.30232511
H          -1.67961395       -0.74302238        0.30232493
H           1.67961396        0.74302234        0.30232517
H           1.67961398       -0.74302233       -0.30232498
6
MD Time 2330.00
C          -0.87634207       -0.00000001       -0.00000004
C           0.87634207        0.00000001        0.00000004
H          -1.68160403        0.73391367       -0.30254990
H          -1.68160402       -0.73391372        0.30254972
H           1.68160403        0.73391368        0.30254997
H           1.68160404       -0.73391367       -0.30254979
6
MD Time 2340.00
C          -0.87721011       -0.00000001       -0.00000004
C           0.87721011        0.00000001        0.00000004
H          -1.68237055        0.72569443       -0.30250325
H          -1.68237054       -0.72569448        0.30250307
H           1.68237054        0.72569444        0.30250334
H           1.68237056       -0.72569443       -0.30250316
6
MD Time 2350.00
C          -0.87786786       -0.00000001       -0.00000004
C           0.87786785        0.00000001        0.00000004
H          -1.68196224        0.71847319       -0.30221815
H          -1.68196224       -0.71847324        0.30221797
H           1.68196224        0.71847319        0.30221825
H           1.68196225       -0.71847318       -0.30221808
6
MD Time 2360.00
C          -0.87830627       -0.00000001       -0.00000004
C           0.87830627        0.00000001        0.00000004
H          -1.68043371        0.71235408       -0.30172731
H          -1.68043371       -0.71235413        0.30172713
H           1.68043370        0.71235408        0.30172743
H           1.68043372       -0.71235407       -0.30172726
6
MD Time 2370.00
C          -0.87851561       -0.00000001       -0.00000004
C           0.87851561        0.00000001        0.00000004
H          -1.67784419        0.70743501       -0.30106243
H          -1.67784418       -0.70743507        0.30106225
H           1.67784418        0.70743500        0.30106256
H           1.67784419       -0.70743500       -0.30106240
6
MD Time 2380.00
C          -0.87848568       -0.00000001       -0.00000004
C           0.87848568        0.00000001        0.00000004
H          -1.67425608        0.70380570       -0.30025331
H          -1.67425608       -0.70380576        0.30025314
H           1.67425606        0.70380569        0.30025347
H           1.67425607       -0.70380568       -0.30025330
6
MD Time 2390.00
C          -0.87820607       -0.00000001       -0.00000004
C           0.87820607        0.00000001        0.00000004
H          -1.66973328        0.70154565       -0.29932701
H          -1.66973327       -0.70154571        0.29932684
H           1.66973326        0.70154563        0.29932719
H           1.66973327       -0.70154563       -0.29932702
6
MD Time 2400.00
C          -0.87766651       -0.00000000       -0.00000004
C           0.87766652        0.00000001        0.00000004
H          -1.66433934        0.70072216       -0.29830694
H          -1.66433933       -0.70072221        0.29830677
H           1.66433931        0.70072213        0.29830713
H           1.66433932       -0.70072213       -0.29830697
6
MD Time 2410.00
C          -0.87685716       -0.00000000       -0.00000004
C           0.87685717        0.00000001        0.00000004
H          -1.65813555        0.70138827       -0.29721202
H          -1.65813554       -0.70138833        0.29721186
H           1.65813552        0.70138824        0.29721223
H           1.65813553       -0.70138823       -0.29721208
6
MD Time 2420.00
C          -0.87576893       -0.00000000       -0.00000004
C           0.87576893        0.00000001        0.00000004
H          -1.65117903        0.70358094       -0.29605593
H          -1.65117902       -0.70358100        0.29605577
H           1.65117899        0.70358091        0.29605616
H           1.65117900       -0.70358090       -0.29605601
6
MD Time 2430.00
C          -0.87439377       -0.00000000       -0.00000004
C           0.87439378        0.00000001        0.00000004
H          -1.64352095        0.70731937       -0.29484646
H          -1.64352094       -0.70731943        0.29484630
H           1.64352091        0.70731933        0.29484671
H           1.64352092       -0.70731933       -0.29484656
6
MD Time 2440.00
C          -0.87272499       -0.00000000       -0.00000004
C           0.87272500        0.00000001        0.00000004
H          -1.63520498        0.71260360       -0.29358505
H          -1.63520497       -0.71260366        0.29358488
H           1.63520493        0.71260355        0.29358531
H           1.63520494       -0.71260355       -0.29358516
6
MD Time 2450.00
C          -0.87075740       -0.00000000       -0.00000004
C           0.87075741        0.00000001        0.00000004
H          -1.62626610        0.71941355       -0.29226651
H          -1.62626609       -0.71941361        0.29226635
H           1.62626605        0.71941349        0.29226679
H           1.62626606       -0.71941349       -0.29226665
6
MD Time 2460.00
C          -0.86848749       -0.00000000       -0.00000004
C           0.86848750        0.00000001        0.00000004
H          -1.61672991        0.72770850       -0.29087908
H          -1.61672990       -0.72770856        0.29087892
H           1.61672986        0.72770844        0.29087938
H           1.61672987       -0.72770844       -0.29087924
6
MD Time 2470.00
C          -0.86591345       -0.00000000       -0.00000004
C           0.86591346        0.00000001        0.00000004
H          -1.60661244        0.73742712       -0.28940458
H          -1.60661242       -0.73742718        0.28940442
H           1.60661238        0.73742706        0.28940490
H           1.60661238       -0.73742706       -0.28940476
6
MD Time 2480.00
C          -0.86303514       -0.00000000       -0.00000004
C           0.86303515        0.00000001        0.00000004
H          -1.59592047        0.74848804       -0.28781897
H          -1.59592045       -0.74848810        0.28781881
H           1.59592040        0.74848796        0.28781930
H           1.59592041       -0.74848797       -0.28781917
6
MD Time 2490.00
C          -0.85985396       -0.00000000       -0.00000004
C           0.85985397        0.00000001        0.00000004
H          -1.58465248        0.76079100       -0.28609304
H          -1.58465246       -0.76079106        0.28609289
H           1.58465242        0.76079092        0.28609340
H           1.58465242       -0.76079093       -0.28609326
6
MD Time 2500.00
C          -0.85637266       -0.00000000       -0.00000004
C           0.85637267        0.00000001        0.00000004
H          -1.57280000        0.77421859       -0.28419337
H          -1.57279998       -0.77421866        0.28419322
H           1.57279993        0.77421851        0.28419374
H           1.57279993       -0.77421852       -0.28419361
6
MD Time 2510.00
C          -0.85259507       -0.00000000       -0.00000003
C           0.85259508        0.00000001        0.00000004
H          -1.56034926        0.78863845       -0.28208333
H          -1.56034923       -0.78863851        0.28208318
H           1.56034919        0.78863836        0.28208372
H           1.56034919       -0.78863837       -0.28208359
6
MD Time 2520.00
C          -0.84852581       -0.00000000       -0.00000003
C           0.84852582        0.00000001        0.00000004
H          -1.54728317        0.80390577       -0.27972429
H          -1.54728315       -0.80390583        0.27972415
H           1.54728310        0.80390568        0.27972470
H           1.54728310       -0.80390569       -0.27972458
6
MD Time 2530.00
C          -0.84417000       -0.00000000       -0.00000003
C           0.84417001        0.00000001        0.00000004
H          -1.53358331        0.81986620       -0.27707678
H          -1.53358328       -0.81986626        0.27707663
H           1.53358324        0.81986611        0.27707720
H           1.53358323       -0.81986612       -0.27707708
6
MD Time 2540.00
C          -0.83953300       -0.00000000       -0.00000003
C           0.83953301        0.00000001        0.00000003
H          -1.51923184        0.83635878       -0.27410157
H          -1.51923181       -0.83635884        0.27410142
H           1.51923177        0.83635868        0.27410201
H           1.51923176       -0.83635869       -0.27410189
6
MD Time 2550.00
C          -0.83462010       -0.00000000       -0.00000003
C           0.83462011        0.00000001        0.00000003
H          -1.50421332        0.85321888       -0.27076078
H          -1.50421329       -0.85321894        0.27076064
H           1.50421325        0.85321878        0.27076123
H           1.50421324       -0.85321879       -0.27076111
6
MD Time 2560.00
C          -0.82943640       -0.00000000       -0.00000003
C           0.82943641        0.00000001        0.00000003
H          -1.48851625        0.87028109       -0.26701878
H          -1.48851621       -0.87028115        0.26701864
H           1.48851618        0.87028099        0.26701925
H           1.48851617       -0.87028100       -0.26701913
6
MD Time 2570.00
C          -0.82398658       -0.00000000       -0.00000003
C           0.82398659        0.00000001        0.00000003
H          -1.47213428        0.88738178       -0.26284297
H          -1.47213424       -0.88738184        0.26284284
H           1.47213421        0.88738168        0.26284346
H           1.47213420       -0.88738169       -0.26284334
6
MD Time 2580.00
C          -0.81827490       -0.00000000       -0.00000003
C           0.81827491        0.00000001        0.00000003
H          -1.45506720        0.90436154       -0.25820440
H          -1.45506716       -0.90436160        0.25820427
H           1.45506713        0.90436144        0.25820490
H           1.45506712       -0.90436145       -0.25820479
6
MD Time 2590.00
C          -0.81230513       -0.00000000       -0.00000003
C           0.81230514        0.00000001        0.00000003
H          -1.43732154        0.92106710       -0.25307823
H          -1.43732150       -0.92106716        0.25307809
H           1.43732148        0.92106700        0.25307874
H           1.43732146       -0.92106701       -0.25307863
6
MD Time 2600.00
C          -0.80608061       -0.00000000       -0.00000003
C           0.80608062        0.00000001        0.00000003
H          -1.41891101        0.93735313       -0.24744404
H          -1.41891097       -0.93735319        0.24744391
H           1.41891095        0.93735303        0.24744457
H           1.41891093       -0.93735304       -0.24744445
6
MD Time 2610.00
C          -0.79960434       -0.00000000       -0.00000003
C           0.79960435        0.00000001        0.00000003
H          -1.39985661        0.95308353       -0.24128605
H          -1.39985656       -0.95308358        0.24128592
H           1.39985655        0.95308343        0.24128658
H           1.39985653       -0.95308344       -0.24128647
6
MD Time 2620.00
C          -0.79287911       -0.00000000       -0.00000003
C           0.79287912        0.00000001        0.00000003
H          -1.38018664        0.96813256       -0.23459316
H          -1.38018659       -0.96813261        0.23459303
H           1.38018658        0.96813246        0.23459370
H           1.38018656       -0.96813247       -0.23459359
6
MD Time 2630.00
C          -0.78590771       -0.00000000       -0.00000003
C           0.78590772        0.00000001        0.00000003
H          -1.35993655        0.98238567       -0.22735895
H          -1.35993650       -0.98238572        0.22735883
H           1.35993650        0.98238557        0.22735951
H           1.35993647       -0.98238558       -0.22735940
6
MD Time 2640.00
C          -0.77869312       -0.00000000       -0.00000002
C           0.77869313        0.00000001        0.00000003
H          -1.33914873        0.99574009       -0.21958163
H          -1.33914867       -0.99574014        0.21958151
H           1.33914868        0.99574000        0.21958219
H           1.33914865       -0.99574001       -0.21958208
6
MD Time 2650.00
C          -0.77123878       -0.00000000       -0.00000002
C           0.77123878        0.00000001        0.00000002
H          -1.31787218        1.00810530       -0.21126385
H          -1.31787212       -1.00810535        0.21126373
H           1.31787214        1.00810521        0.21126441
H           1.31787210       -1.00810522       -0.21126431
6
MD Time 2660.00
C          -0.76354883       -0.00000000       -0.00000002
C           0.76354884        0.00000001        0.00000002
H          -1.29616228        1.01940333       -0.20241257
H          -1.29616222       -1.01940338        0.20241245
H           1.29616224        1.01940325        0.20241314
H           1.29616221       -1.01940326       -0.20241303
6
MD Time 2670.00
C          -0.75562850       -0.00000000       -0.00000002
C           0.75562850        0.00000001        0.00000002
H          -1.27408044        1.02956904       -0.19303884
H          -1.27408037       -1.02956909        0.19303873
H           1.27408040        1.02956896        0.19303941
H           1.27408036       -1.02956897       -0.19303930
6
MD Time 2680.00
C          -0.74748435       -0.00000000       -0.00000002
C           0.74748436        0.00000001        0.00000002
H          -1.25169379        1.03855025       -0.18315761
H          -1.25169373       -1.03855030        0.18315749
H           1.25169376        1.03855017        0.18315817
H           1.25169372       -1.03855018       -0.18315807
6
MD Time 2690.00
C          -0.73912470       -0.00000000       -0.00000002
C           0.73912470        0.00000001        0.00000002
H          -1.22907498        1.04630792       -0.17278743
H          -1.22907491       -1.04630796        0.17278733
H           1.22907495        1.04630784        0.17278800
H           1.22907491       -1.04630785       -0.17278789
6
MD Time 2700.00
C          -0.73055995       -0.00000000       -0.00000002
C           0.73055996        0.00000001        0.00000002
H          -1.20630186        1.05281627       -0.16195030
H          -1.20630179       -1.05281631        0.16195019
H           1.20630183        1.05281620        0.16195086
H           1.20630179       -1.05281621       -0.16195076
6
MD Time 2710.00
C          -0.72180308       -0.00000000       -0.00000002
C           0.72180308        0.00000001        0.00000002
H          -1.18345729        1.05806294       -0.15067132
H          -1.18345722       -1.05806298        0.15067121
H           1.18345727        1.05806288        0.15067187
H           1.18345723       -1.05806289       -0.15067177
6
MD Time 2720.00
C          -0.71286999       -0.00000000       -0.00000002
C           0.71286999        0.00000001        0.00000002
H          -1.16062892        1.06204912       -0.13897846
H          -1.16062885       -1.06204916        0.13897836
H           1.16062891        1.06204906        0.13897901
H           1.16062886       -1.06204907       -0.13897890
6
MD Time 2730.00
C          -0.70378003       -0.00000000       -0.00000002
C           0.70378003        0.00000001        0.00000002
H          -1.13790899        1.06478967       -0.12690228
H          -1.13790892       -1.06478971        0.12690218
H           1.13790898        1.06478962        0.12690282
H           1.13790894       -1.06478963       -0.12690272
6
MD Time 2740.00
C          -0.69455646       -0.00000000       -0.00000002
C           0.69455646        0.00000001        0.00000001
H          -1.11539412        1.06631327       -0.11447559
H          -1.11539405       -1.06631330        0.11447549
H           1.11539411        1.06631322        0.11447612
H           1.11539407       -1.06631323       -0.11447601
6
MD Time 2750.00
C          -0.68522692       -0.00000000       -0.00000001
C           0.68522692        0.00000001        0.00000001
H          -1.09318512        1.06666247       -0.10173314
H          -1.09318505       -1.06666251        0.10173304
H           1.09318512        1.06666244        0.10173365
H           1.09318507       -1.06666244       -0.10173355
6
MD Time 2760.00
C          -0.67582395       -0.00000000       -0.00000001
C           0.67582395        0.00000001        0.00000001
H          -1.07138676        1.06589377       -0.08871123
H          -1.07138669       -1.06589380        0.08871114
H           1.07138676        1.06589373        0.08871173
H           1.07138672       -1.06589374       -0.08871163
6
MD Time 2770.00
C          -0.66638544       -0.00000000       -0.00000001
C           0.66638544        0.00000001        0.00000001
H          -1.05010753        1.06407745       -0.07544735
H          -1.05010746       -1.06407748        0.07544726
H           1.05010754        1.06407743        0.07544784
H           1.05010749       -1.06407743       -0.07544774
6
MD Time 2780.00
C          -0.65695510       -0.00000000       -0.00000001
C           0.65695510        0.00000001        0.00000001
H          -1.02945927        1.06129743       -0.06197973
H          -1.02945921       -1.06129746        0.06197964
H           1.02945929        1.06129741        0.06198020
H           1.02945924       -1.06129742       -0.06198009
6
MD Time 2790.00
C          -0.64758277       -0.00000000       -0.00000001
C           0.64758277        0.00000001        0.00000001
H          -1.00955681        1.05765075       -0.04834685
H          -1.00955674       -1.05765078        0.04834676
H           1.00955683        1.05765074        0.04834730
H           1.00955678       -1.05765075       -0.04834720
6
MD Time 2800.00
C          -0.63832470       -0.00000000       -0.00000001
C           0.63832470        0.00000001        0.00000001
H          -0.99051734        1.05324688       -0.03458699
H          -0.99051728       -1.05324691        0.03458690
H           0.99051736        1.05324688        0.03458742
H           0.99051732       -1.05324689       -0.03458732
6
MD Time 2810.00
C          -0.62924365       -0.00000000       -0.00000001
C           0.62924364        0.00000001        0.00000001
H          -0.97245973        1.04820666       -0.02073769
H          -0.97245966       -1.04820669        0.02073761
H           0.97245975        1.04820667        0.02073810
H           0.97245971       -1.04820667       -0.02073800
6
MD Time 2820.00
C          -0.62040873       -0.00000000       -0.00000001
C           0.62040872        0.00000001        0.00000001
H          -0.95550352        1.04266082       -0.00683525
H          -0.95550346       -1.04266084        0.00683517
H           0.95550355        1.04266083        0.00683564
H           0.95550351       -1.04266084       -0.00683553
6
MD Time 2830.00
C          -0.61189503       -0.00000000       -0.00000001
C           0.61189503        0.00000001        0.00000000
H          -0.93976774        1.03674803        0.00708576
H          -0.93976768       -1.03674805       -0.00708584
H           0.93976777        1.03674805       -0.00708539
H           0.93976773       -1.03674805        0.00708549
6
MD Time 2840.00
C          -0.60378288       -0.00000000       -0.00000001
C           0.60378287        0.00000000        0.00000000
H          -0.92536937        1.03061247        0.02099288
H          -0.92536931       -1.03061249       -0.02099295
H           0.92536940        1.03061249       -0.02099253
H           0.92536936       -1.03061250        0.02099264
6
MD Time 2850.00
C          -0.59615669       -0.00000000       -0.00000001
C           0.59615668        0.00000000        0.00000000
H          -0.91242158        1.02440086        0.03485610
H          -0.91242153       -1.02440088       -0.03485617
H           0.91242161        1.02440089       -0.03485577
H           0.91242158       -1.02440089        0.03485588
6
MD Time 2860.00
C          -0.58910341       -0.00000000       -0.00000001
C           0.58910341        0.00000000        0.00000000
H          -0.90103174        1.01825904        0.04864796
H          -0.90103169       -1.01825906       -0.04864803
H           0.90103178        1.01825908       -0.04864766
H           0.90103174       -1.01825908        0.04864776
6
MD Time 2870.00
C          -0.58271058       -0.00000000       -0.00000000
C           0.58271057        0.00000000        0.00000000
H          -0.89129918        1.01232811        0.06234354
H          -0.89129913       -1.01232813       -0.06234361
H           0.89129921        1.01232815       -0.06234327
H           0.89129918       -1.01232816        0.06234337
6
MD Time 2880.00
C          -0.57706383       -0.00000000       -0.00000000
C           0.57706382        0.00000000        0.00000000
H          -0.88331288        1.00674038        0.07592017
H          -0.88331283       -1.00674040       -0.07592024
H           0.88331291        1.00674042       -0.07591992
H           0.88331288       -1.00674042        0.07592003
6
MD Time 2890.00
C          -0.57224424       -0.00000000       -0.00000000
C           0.57224423        0.00000000       -0.00000000
H          -0.87714922        1.00161521        0.08935695
H          -0.87714917       -1.00161522       -0.08935701
H           0.87714925        1.00161525       -0.08935673
H           0.87714923       -1.00161525        0.08935683
6
MD Time 2900.00
C          -0.56832536       -0.00000000       -0.00000000
C           0.56832535        0.00000000       -0.00000000
H          -0.87286982        0.99705510        0.10263404
H          -0.87286978       -0.99705511       -0.10263411
H           0.87286985        0.99705515       -0.10263385
H           0.87286983       -0.99705515        0.10263396
6
MD Time 2910.00
C          -0.56537028       -0.00000000       -0.00000000
C           0.56537027        0.00000000       -0.00000000
H          -0.87051967        0.99314220        0.11573186
H          -0.87051963       -0.99314221       -0.11573193
H           0.87051970        0.99314225       -0.11573169
H           0.87051968       -0.99314225        0.11573180
6
MD Time 2920.00
C          -0.56342889       -0.00000000       -0.00000000
C           0.56342888        0.00000000       -0.00000000
H          -0.87012570        0.98993550        0.12863012
H          -0.87012566       -0.98993552       -0.12863018
H           0.87012573        0.98993555       -0.12862998
H           0.87012571       -0.98993555        0.12863009
6
MD Time 2930.00
C          -0.56253561       -0.00000000       -0.00000000
C           0.56253561        0.00000000       -0.00000000
H          -0.87169586        0.98746898        0.14130695
H          -0.87169583       -0.98746899       -0.14130701
H           0.87169589        0.98746903       -0.14130683
H           0.87169587       -0.98746902        0.14130694
6
MD Time 2940.00
C          -0.56270775       -0.00000000       -0.00000000
C           0.56270775        0.00000000       -0.00000000
H          -0.87521883        0.98575073        0.15373806
H          -0.87521880       -0.98575073       -0.15373812
H           0.87521885        0.98575077       -0.15373797
H           0.87521884       -0.98575076        0.15373808
6
MD Time 2950.00
C          -0.56394468       -0.00000000       -0.00000000
C           0.56394468        0.00000000       -0.00000000
H          -0.88066428        0.98476327        0.16589619
H          -0.88066425       -0.98476328       -0.16589624
H           0.88066430        0.98476332       -0.16589612
H           0.88066429       -0.98476330        0.16589624
6
MD Time 2960.00
C          -0.56622795       -0.00000000        0.00000000
C           0.56622795        0.00000000       -0.00000001
H          -0.88798385        0.98446488        0.17775069
H          -0.88798383       -0.98446489       -0.17775074
H           0.88798386        0.98446492       -0.17775065
H           0.88798386       -0.98446491        0.17775076
6
MD Time 2970.00
C          -0.56952229       -0.00000000        0.00000000
C           0.56952228        0.00000000       -0.00000001
H          -0.89711257        0.98479185        0.18926752
H          -0.89711255       -0.98479185       -0.18926757
H           0.89711258        0.98479189       -0.18926751
H           0.89711257       -0.98479187        0.18926762
6
MD Time 2980.00
C          -0.57377736       -0.00000000        0.00000000
C           0.57377735        0.00000000       -0.00000001
H          -0.90797074        0.98566150        0.20040948
H          -0.90797072       -0.98566150       -0.20040953
H           0.90797075        0.98566153       -0.20040950
H           0.90797074       -0.98566151        0.20040961
6
MD Time 2990.00
C          -0.57893018       -0.00000000        0.00000000
C           0.57893018        0.00000000       -0.00000001
H          -0.92046612        0.98697573        0.21113672
H          -0.92046611       -0.98697574       -0.21113677
H           0.92046612        0.98697576       -0.21113677
H           0.92046612       -0.98697574        0.21113688
