6
MD Time 0.00
C          -1.00424993        0.00000000        0.00000000
C           1.00424993        0.00000000        0.00000000
H          -1.57974221        0.85087473        0.35244385
H          -1.57974221       -0.85087473       -0.35244385
H           1.57974221        0.85087473       -0.35244385
H           1.57974221       -0.85087473        0.35244385
6
MD Time 10.00
C          -1.00410586       -0.00000000        0.00000000
C           1.00410586       -0.00000000       -0.00000000
H          -1.57963655        0.85110160        0.35238192
H          -1.57963655       -0.85110160       -0.35238192
H           1.57963655        0.85110160       -0.35238192
H           1.57963655       -0.85110160        0.35238192
6
MD Time 20.00
C          -1.00367392       -0.00000000        0.00000000
C           1.00367392       -0.00000000       -0.00000000
H          -1.57931763        0.85177820        0.35219465
H          -1.57931763       -0.85177820       -0.35219465
H           1.57931763        0.85177820       -0.35219465
H           1.57931763       -0.85177820        0.35219465
6
MD Time 30.00
C          -1.00295486       -0.00000000        0.00000000
C           1.00295486       -0.00000000       -0.00000000
H          -1.57877969        0.85289257        0.35187774
H          -1.57877969       -0.85289257       -0.35187774
H           1.57877969        0.85289257       -0.35187774
H           1.57877969       -0.85289257        0.35187774
6
MD Time 40.00
C          -1.00194987       -0.00000000        0.00000000
C           1.00194987       -0.00000000       -0.00000000
H          -1.57801336        0.85442520        0.35142415
H          -1.57801336       -0.85442520       -0.35142415
H           1.57801336        0.85442520       -0.35142415
H           1.57801336       -0.85442520        0.35142415
6
MD Time 50.00
C          -1.00066056       -0.00000000        0.00000000
C           1.00066056       -0.00000000       -0.00000000
H          -1.57700600        0.85634952        0.35082437
H          -1.57700600       -0.85634952       -0.35082437
H           1.57700600        0.85634952       -0.35082437
H           1.57700600       -0.85634952        0.35082437
6
MD Time 60.00
C          -0.99908887       -0.00000000        0.00000000
C           0.99908887       -0.00000000       -0.00000000
H          -1.57574216        0.85863268        0.35006677
H          -1.57574216       -0.85863268       -0.35006677
H           1.57574216        0.85863268       -0.35006677
H           1.57574216       -0.85863268        0.35006677
6
MD Time 70.00
C          -0.99723697       -0.00000000        0.00000000
C           0.99723697       -0.00000000       -0.00000000
H          -1.57420412        0.86123638        0.34913793
H          -1.57420412       -0.86123638       -0.34913793
H           1.57420412        0.86123638       -0.34913793
H           1.57420412       -0.86123638        0.34913793
6
MD Time 80.00
C          -0.99510714       -0.00000000        0.00000000
C           0.99510714       -0.00000000       -0.00000000
H          -1.57237249        0.86411794        0.34802311
H          -1.57237249       -0.86411794       -0.34802311
H           1.57237249        0.86411794       -0.34802311
H           1.57237249       -0.86411794        0.34802311
6
MD Time 90.00
C          -0.99270171       -0.00000000        0.00000000
C           0.99270171       -0.00000000       -0.00000000
H          -1.57022686        0.86723131        0.34670667
H          -1.57022686       -0.86723131       -0.34670667
H           1.57022686        0.86723131       -0.34670667
H           1.57022686       -0.86723131        0.34670667
6
MD Time 100.00
C          -0.99002290       -0.00000000        0.00000000
C           0.99002290       -0.00000000       -0.00000000
H          -1.56774644        0.87052820        0.34517258
H          -1.56774644       -0.87052820       -0.34517258
H           1.56774644        0.87052820       -0.34517258
H           1.56774644       -0.87052820        0.34517258
6
MD Time 110.00
C          -0.98707276       -0.00000000        0.00000000
C           0.98707276       -0.00000000       -0.00000000
H          -1.56491073        0.87395920        0.34340480
H          -1.56491073       -0.87395920       -0.34340480
H           1.56491073        0.87395920       -0.34340480
H           1.56491073       -0.87395920        0.34340480
6
MD Time 120.00
C          -0.98385301       -0.00000000        0.00000000
C           0.98385301       -0.00000000       -0.00000000
H          -1.56170011        0.87747482        0.34138777
H          -1.56170011       -0.87747482       -0.34138777
H           1.56170011        0.87747482       -0.34138777
H           1.56170011       -0.87747482        0.34138777
6
MD Time 130.00
C          -0.98036500       -0.00000000        0.00000000
C           0.98036500       -0.00000000       -0.00000000
H          -1.55809643        0.88102656        0.33910674
H          -1.55809643       -0.88102656       -0.33910675
H           1.55809643        0.88102656       -0.33910674
H           1.55809643       -0.88102656        0.33910675
6
MD Time 140.00
C          -0.97660959       -0.00000000        0.00000000
C           0.97660959       -0.00000000       -0.00000000
H          -1.55408353        0.88456780        0.33654815
H          -1.55408353       -0.88456780       -0.33654815
H           1.55408353        0.88456780       -0.33654815
H           1.55408353       -0.88456780        0.33654815
6
MD Time 150.00
C          -0.97258709       -0.00000000        0.00000000
C           0.97258709       -0.00000000       -0.00000000
H          -1.54964764        0.88805469        0.33369989
H          -1.54964764       -0.88805469       -0.33369989
H           1.54964764        0.88805469       -0.33369989
H           1.54964764       -0.88805469        0.33369989
6
MD Time 160.00
C          -0.96829719       -0.00000000        0.00000000
C           0.96829719       -0.00000000       -0.00000000
H          -1.54477780        0.89144687        0.33055154
H          -1.54477780       -0.89144687       -0.33055154
H           1.54477780        0.89144687       -0.33055154
H           1.54477780       -0.89144687        0.33055154
6
MD Time 170.00
C          -0.96373894       -0.00000000        0.00000000
C           0.96373894       -0.00000000       -0.00000000
H          -1.53946615        0.89470818        0.32709457
H          -1.53946615       -0.89470818       -0.32709457
H           1.53946615        0.89470818       -0.32709457
H           1.53946615       -0.89470818        0.32709457
6
MD Time 180.00
C          -0.95891068       -0.00000000        0.00000000
C           0.95891068       -0.00000000       -0.00000000
H          -1.53370818        0.89780712        0.32332244
H          -1.53370818       -0.89780712       -0.32332244
H           1.53370818        0.89780712       -0.32332244
H           1.53370818       -0.89780712        0.32332244
6
MD Time 190.00
C          -0.95381002       -0.00000000        0.00000000
C           0.95381002       -0.00000000       -0.00000000
H          -1.52750283        0.90071734        0.31923066
H          -1.52750283       -0.90071734       -0.31923066
H           1.52750283        0.90071734       -0.31923066
H           1.52750283       -0.90071734        0.31923066
6
MD Time 200.00
C          -0.94843388       -0.00000000        0.00000000
C           0.94843388       -0.00000000       -0.00000000
H          -1.52085268        0.90341794        0.31481683
H          -1.52085268       -0.90341794       -0.31481683
H           1.52085268        0.90341794       -0.31481683
H           1.52085268       -0.90341794        0.31481683
6
MD Time 210.00
C          -0.94277843       -0.00000000        0.00000000
C           0.94277843       -0.00000000       -0.00000000
H          -1.51376388        0.90589371        0.31008061
H          -1.51376388       -0.90589371       -0.31008061
H           1.51376388        0.90589371       -0.31008061
H           1.51376388       -0.90589371        0.31008061
6
MD Time 220.00
C          -0.93683917       -0.00000000        0.00000000
C           0.93683917       -0.00000000       -0.00000000
H          -1.50624619        0.90813524        0.30502362
H          -1.50624619       -0.90813524       -0.30502362
H           1.50624619        0.90813524       -0.30502362
H           1.50624619       -0.90813524        0.30502362
6
MD Time 230.00
C          -0.93061090       -0.00000000        0.00000000
C           0.93061090       -0.00000000       -0.00000000
H          -1.49831283        0.91013890        0.29964934
H          -1.49831283       -0.91013890       -0.29964935
H           1.49831283        0.91013890       -0.29964934
H           1.49831283       -0.91013890        0.29964935
6
MD Time 240.00
C          -0.92408782       -0.00000000        0.00000000
C           0.92408782       -0.00000000       -0.00000000
H          -1.48998036        0.91190681        0.29396297
H          -1.48998036       -0.91190681       -0.29396297
H           1.48998036        0.91190681       -0.29396297
H           1.48998036       -0.91190681        0.29396297
6
MD Time 250.00
C          -0.91726358       -0.00000000        0.00000000
C           0.91726358       -0.00000000       -0.00000000
H          -1.48126844        0.91344658        0.28797119
H          -1.48126844       -0.91344658       -0.28797119
H           1.48126844        0.91344658       -0.28797119
H           1.48126844       -0.91344658        0.28797119
6
MD Time 260.00
C          -0.91013132       -0.00000000        0.00000000
C           0.91013132       -0.00000000       -0.00000000
H          -1.47219956        0.91477104        0.28168199
H          -1.47219956       -0.91477104       -0.28168200
H           1.47219956        0.91477104       -0.28168199
H           1.47219956       -0.91477104        0.28168200
6
MD Time 270.00
C          -0.90268384       -0.00000000        0.00000000
C           0.90268384       -0.00000000       -0.00000000
H          -1.46279873        0.91589780        0.27510440
H          -1.46279873       -0.91589780       -0.27510441
H           1.46279873        0.91589780       -0.27510440
H           1.46279873       -0.91589780        0.27510441
6
MD Time 280.00
C          -0.89491363       -0.00000000        0.00000000
C           0.89491363       -0.00000000       -0.00000000
H          -1.45309307        0.91684870        0.26824822
H          -1.45309307       -0.91684870       -0.26824823
H           1.45309307        0.91684871       -0.26824822
H           1.45309307       -0.91684870        0.26824823
6
MD Time 290.00
C          -0.88681310       -0.00000000        0.00000000
C           0.88681310       -0.00000000       -0.00000000
H          -1.44311135        0.91764923        0.26112374
H          -1.44311135       -0.91764923       -0.26112374
H           1.44311135        0.91764923       -0.26112374
H           1.44311135       -0.91764923        0.26112374
6
MD Time 300.00
C          -0.87837466       -0.00000000        0.00000000
C           0.87837466       -0.00000000       -0.00000000
H          -1.43288356        0.91832770        0.25374145
H          -1.43288356       -0.91832770       -0.25374145
H           1.43288356        0.91832771       -0.25374144
H           1.43288356       -0.91832770        0.25374145
6
MD Time 310.00
C          -0.86959097       -0.00000000        0.00000000
C           0.86959097       -0.00000000       -0.00000000
H          -1.42244032        0.91891446        0.24611176
H          -1.42244032       -0.91891446       -0.24611176
H           1.42244032        0.91891446       -0.24611176
H           1.42244032       -0.91891446        0.24611176
6
MD Time 320.00
C          -0.86045513       -0.00000000        0.00000000
C           0.86045513       -0.00000000       -0.00000000
H          -1.41181235        0.91944090        0.23824474
H          -1.41181235       -0.91944090       -0.23824474
H           1.41181235        0.91944090       -0.23824474
H           1.41181235       -0.91944090        0.23824474
6
MD Time 330.00
C          -0.85096091       -0.00000000        0.00000000
C           0.85096091       -0.00000000       -0.00000000
H          -1.40102986        0.91993851        0.23014986
H          -1.40102985       -0.91993851       -0.23014986
H           1.40102985        0.91993851       -0.23014985
H           1.40102985       -0.91993851        0.23014986
6
MD Time 340.00
C          -0.84110309       -0.00000000        0.00000000
C           0.84110309       -0.00000000       -0.00000000
H          -1.39012195        0.92043780        0.22183578
H          -1.39012195       -0.92043780       -0.22183579
H           1.39012195        0.92043780       -0.22183578
H           1.39012195       -0.92043780        0.22183579
6
MD Time 350.00
C          -0.83087772       -0.00000000        0.00000000
C           0.83087772       -0.00000000       -0.00000000
H          -1.37911605        0.92096726        0.21331025
H          -1.37911605       -0.92096726       -0.21331025
H           1.37911605        0.92096726       -0.21331024
H           1.37911605       -0.92096726        0.21331025
6
MD Time 360.00
C          -0.82028250       -0.00000000        0.00000000
C           0.82028250       -0.00000000       -0.00000000
H          -1.36803734        0.92155230        0.20457994
H          -1.36803734       -0.92155230       -0.20457995
H           1.36803734        0.92155230       -0.20457993
H           1.36803734       -0.92155230        0.20457994
6
MD Time 370.00
C          -0.80931720       -0.00000000        0.00000000
C           0.80931720       -0.00000000       -0.00000000
H          -1.35690822        0.92221433        0.19565051
H          -1.35690822       -0.92221433       -0.19565052
H           1.35690822        0.92221433       -0.19565050
H           1.35690822       -0.92221433        0.19565051
6
MD Time 380.00
C          -0.79798409       -0.00000000        0.00000000
C           0.79798409       -0.00000000       -0.00000000
H          -1.34574790        0.92296986        0.18652662
H          -1.34574790       -0.92296986       -0.18652663
H           1.34574790        0.92296986       -0.18652662
H           1.34574790       -0.92296986        0.18652663
6
MD Time 390.00
C          -0.78628847       -0.00000000        0.00000000
C           0.78628847       -0.00000000       -0.00000000
H          -1.33457206        0.92382979        0.17721213
H          -1.33457206       -0.92382979       -0.17721214
H           1.33457205        0.92382980       -0.17721213
H           1.33457205       -0.92382979        0.17721214
6
MD Time 400.00
C          -0.77423923       -0.00000000        0.00000000
C           0.77423923       -0.00000000       -0.00000000
H          -1.32339255        0.92479892        0.16771031
H          -1.32339255       -0.92479891       -0.16771032
H           1.32339255        0.92479892       -0.16771031
H           1.32339255       -0.92479892        0.16771032
6
MD Time 410.00
C          -0.76184952       -0.00000000        0.00000000
C           0.76184952       -0.00000000       -0.00000000
H          -1.31221737        0.92587553        0.15802417
H          -1.31221736       -0.92587553       -0.15802419
H           1.31221736        0.92587554       -0.15802417
H           1.31221736       -0.92587553        0.15802418
6
MD Time 420.00
C          -0.74913743       -0.00000000        0.00000000
C           0.74913743       -0.00000000       -0.00000000
H          -1.30105063        0.92705142        0.14815686
H          -1.30105062       -0.92705141       -0.14815687
H           1.30105062        0.92705142       -0.14815685
H           1.30105062       -0.92705142        0.14815687
6
MD Time 430.00
C          -0.73612686       -0.00000000        0.00000000
C           0.73612686       -0.00000000       -0.00000000
H          -1.28989277        0.92831194        0.13811210
H          -1.28989277       -0.92831194       -0.13811212
H           1.28989277        0.92831194       -0.13811209
H           1.28989276       -0.92831194        0.13811211
6
MD Time 440.00
C          -0.72284841       -0.00000000        0.00000000
C           0.72284841       -0.00000000       -0.00000000
H          -1.27874090        0.92963649        0.12789468
H          -1.27874090       -0.92963649       -0.12789470
H           1.27874090        0.92963649       -0.12789467
H           1.27874090       -0.92963649        0.12789469
6
MD Time 450.00
C          -0.70934040       -0.00000000        0.00000000
C           0.70934040       -0.00000000       -0.00000000
H          -1.26758928        0.93099910        0.11751094
H          -1.26758928       -0.93099910       -0.11751095
H           1.26758928        0.93099910       -0.11751093
H           1.26758928       -0.93099910        0.11751095
6
MD Time 460.00
C          -0.69565000       -0.00000000        0.00000000
C           0.69565000       -0.00000000       -0.00000000
H          -1.25642995        0.93236930        0.10696924
H          -1.25642995       -0.93236930       -0.10696926
H           1.25642995        0.93236931       -0.10696923
H           1.25642995       -0.93236930        0.10696925
6
MD Time 470.00
C          -0.68183442       -0.00000000        0.00000000
C           0.68183442        0.00000000       -0.00000000
H          -1.24525355        0.93371316        0.09628046
H          -1.24525354       -0.93371316       -0.09628048
H           1.24525354        0.93371316       -0.09628045
H           1.24525354       -0.93371316        0.09628047
6
MD Time 480.00
C          -0.66796219       -0.00000000        0.00000000
C           0.66796219        0.00000000       -0.00000000
H          -1.23405015        0.93499444        0.08545833
H          -1.23405015       -0.93499444       -0.08545835
H           1.23405015        0.93499444       -0.08545832
H           1.23405015       -0.93499444        0.08545834
6
MD Time 490.00
C          -0.65411438       -0.00000000        0.00000000
C           0.65411438        0.00000000       -0.00000000
H          -1.22281038        0.93617595        0.07451980
H          -1.22281038       -0.93617594       -0.07451982
H           1.22281038        0.93617595       -0.07451978
H           1.22281038       -0.93617595        0.07451981
6
MD Time 500.00
C          -0.64038578       -0.00000000        0.00000000
C           0.64038578        0.00000000       -0.00000000
H          -1.21152647        0.93722088        0.06348522
H          -1.21152647       -0.93722088       -0.06348524
H           1.21152647        0.93722089       -0.06348520
H           1.21152647       -0.93722088        0.06348523
6
MD Time 510.00
C          -0.62688577       -0.00000000        0.00000000
C           0.62688577        0.00000000       -0.00000000
H          -1.20019349        0.93809431        0.05237849
H          -1.20019349       -0.93809431       -0.05237852
H           1.20019349        0.93809432       -0.05237847
H           1.20019349       -0.93809431        0.05237851
6
MD Time 520.00
C          -0.61373881       -0.00000000        0.00000000
C           0.61373881        0.00000000       -0.00000000
H          -1.18881064        0.93876463        0.04122707
H          -1.18881063       -0.93876463       -0.04122709
H           1.18881063        0.93876463       -0.04122705
H           1.18881063       -0.93876463        0.04122708
6
MD Time 530.00
C          -0.60108423       -0.00000000        0.00000000
C           0.60108423        0.00000000       -0.00000000
H          -1.17738253        0.93920504        0.03006182
H          -1.17738252       -0.93920504       -0.03006185
H           1.17738252        0.93920504       -0.03006180
H           1.17738252       -0.93920504        0.03006183
6
MD Time 540.00
C          -0.58907507       -0.00000000        0.00000000
C           0.58907507        0.00000000       -0.00000000
H          -1.16592056        0.93939505        0.01891680
H          -1.16592056       -0.93939505       -0.01891683
H           1.16592056        0.93939505       -0.01891678
H           1.16592056       -0.93939505        0.01891682
6
MD Time 550.00
C          -0.57787569       -0.00000000        0.00000000
C           0.57787569        0.00000000       -0.00000000
H          -1.15444425        0.93932193        0.00782892
H          -1.15444424       -0.93932193       -0.00782895
H           1.15444424        0.93932193       -0.00782890
H           1.15444424       -0.93932193        0.00782894
6
MD Time 560.00
C          -0.56765781       -0.00000000        0.00000000
C           0.56765781        0.00000000       -0.00000000
H          -1.14298243        0.93898219       -0.00316255
H          -1.14298243       -0.93898219        0.00316252
H           1.14298243        0.93898219        0.00316258
H           1.14298243       -0.93898219       -0.00316253
6
MD Time 570.00
C          -0.55859501       -0.00000000        0.00000000
C           0.55859501        0.00000000       -0.00000000
H          -1.13157449        0.93838293       -0.01401654
H          -1.13157449       -0.93838294        0.01401651
H           1.13157449        0.93838294        0.01401657
H           1.13157448       -0.93838294       -0.01401652
6
MD Time 580.00
C          -0.55085546       -0.00000000        0.00000000
C           0.55085547        0.00000000       -0.00000000
H          -1.12027126        0.93754325       -0.02469081
H          -1.12027126       -0.93754325        0.02469077
H           1.12027126        0.93754326        0.02469083
H           1.12027126       -0.93754326       -0.02469079
6
MD Time 590.00
C          -0.54459350       -0.00000000        0.00000000
C           0.54459350        0.00000000       -0.00000000
H          -1.10913578        0.93649538       -0.03514267
H          -1.10913578       -0.93649539        0.03514263
H           1.10913577        0.93649539        0.03514270
H           1.10913577       -0.93649539       -0.03514265
6
MD Time 600.00
C          -0.53994039       -0.00000000        0.00000000
C           0.53994039        0.00000000       -0.00000000
H          -1.09824363        0.93528572       -0.04532976
H          -1.09824362       -0.93528572        0.04532972
H           1.09824362        0.93528572        0.04532979
H           1.09824362       -0.93528573       -0.04532974
6
MD Time 610.00
C          -0.53699551       -0.00000000        0.00000000
C           0.53699551        0.00000000       -0.00000000
H          -1.08768285        0.93397546       -0.05521084
H          -1.08768285       -0.93397547        0.05521079
H           1.08768284        0.93397547        0.05521087
H           1.08768284       -0.93397547       -0.05521081
6
MD Time 620.00
C          -0.53581879       -0.00000000        0.00000000
C           0.53581879        0.00000000       -0.00000000
H          -1.07755334        0.93264078       -0.06474651
H          -1.07755333       -0.93264079        0.06474647
H           1.07755333        0.93264079        0.06474654
H           1.07755333       -0.93264079       -0.06474649
6
MD Time 630.00
C          -0.53642572       -0.00000000        0.00000000
C           0.53642572        0.00000000       -0.00000000
H          -1.06796553        0.93137228       -0.07390003
H          -1.06796553       -0.93137229        0.07389998
H           1.06796552        0.93137228        0.07390006
H           1.06796552       -0.93137229       -0.07390000
6
MD Time 640.00
C          -0.53878562       -0.00000000       -0.00000000
C           0.53878563        0.00000000       -0.00000000
H          -1.05903846        0.93027361       -0.08263786
H          -1.05903845       -0.93027362        0.08263781
H           1.05903845        0.93027362        0.08263789
H           1.05903845       -0.93027362       -0.08263783
6
MD Time 650.00
C          -0.54282349       -0.00000000       -0.00000000
C           0.54282349        0.00000000       -0.00000000
H          -1.05089693        0.92945900       -0.09093021
H          -1.05089693       -0.92945901        0.09093016
H           1.05089692        0.92945900        0.09093025
H           1.05089692       -0.92945901       -0.09093018
6
MD Time 660.00
C          -0.54842519       -0.00000000       -0.00000000
C           0.54842520        0.00000000       -0.00000000
H          -1.04366811        0.92904960       -0.09875131
H          -1.04366811       -0.92904961        0.09875126
H           1.04366810        0.92904960        0.09875135
H           1.04366810       -0.92904961       -0.09875128
6
MD Time 670.00
C          -0.55544524       -0.00000000       -0.00000000
C           0.55544524        0.00000000       -0.00000000
H          -1.03747738        0.92916862       -0.10607940
H          -1.03747737       -0.92916863        0.10607934
H           1.03747736        0.92916862        0.10607944
H           1.03747737       -0.92916863       -0.10607937
6
MD Time 680.00
C          -0.56371597       -0.00000000       -0.00000000
C           0.56371597        0.00000000       -0.00000000
H          -1.03244382        0.92993538       -0.11289642
H          -1.03244382       -0.92993539        0.11289636
H           1.03244381        0.92993539        0.11289646
H           1.03244381       -0.92993539       -0.11289638
6
MD Time 690.00
C          -0.57305715       -0.00000000       -0.00000000
C           0.57305715        0.00000000       -0.00000000
H          -1.02867567        0.93145858       -0.11918745
H          -1.02867566       -0.93145859        0.11918739
H           1.02867566        0.93145858        0.11918749
H           1.02867566       -0.93145859       -0.11918742
6
MD Time 700.00
C          -0.58328483       -0.00000000       -0.00000000
C           0.58328483        0.00000000       -0.00000000
H          -1.02626596        0.93382922       -0.12493982
H          -1.02626596       -0.93382923        0.12493976
H           1.02626595        0.93382922        0.12493986
H           1.02626595       -0.93382923       -0.12493978
6
MD Time 710.00
C          -0.59421890       -0.00000000       -0.00000000
C           0.59421890        0.00000000        0.00000000
H          -1.02528892        0.93711390       -0.13014202
H          -1.02528891       -0.93711391        0.13014196
H           1.02528890        0.93711390        0.13014207
H           1.02528891       -0.93711391       -0.13014199
6
MD Time 720.00
C          -0.60568889       -0.00000000       -0.00000000
C           0.60568889        0.00000000        0.00000000
H          -1.02579727        0.94134905       -0.13478265
H          -1.02579726       -0.94134907        0.13478258
H           1.02579725        0.94134906        0.13478270
H           1.02579725       -0.94134906       -0.13478261
6
MD Time 730.00
C          -0.61753801       -0.00000000       -0.00000000
C           0.61753801        0.00000000        0.00000000
H          -1.02782080        0.94653677       -0.13884938
H          -1.02782080       -0.94653678        0.13884931
H           1.02782079        0.94653677        0.13884943
H           1.02782079       -0.94653678       -0.13884934
6
MD Time 740.00
C          -0.62962547       -0.00000000       -0.00000000
C           0.62962547        0.00000000        0.00000000
H          -1.03136620        0.95264274       -0.14232823
H          -1.03136619       -0.95264275        0.14232816
H           1.03136618        0.95264274        0.14232828
H           1.03136619       -0.95264275       -0.14232819
6
MD Time 750.00
C          -0.64182747       -0.00000000       -0.00000000
C           0.64182747        0.00000000        0.00000000
H          -1.03641793        0.95959643       -0.14520316
H          -1.03641792       -0.95959644        0.14520309
H           1.03641792        0.95959643        0.14520321
H           1.03641792       -0.95959644       -0.14520312
6
MD Time 760.00
C          -0.65403711       -0.00000000       -0.00000000
C           0.65403711        0.00000000        0.00000000
H          -1.04294020        0.96729351       -0.14745608
H          -1.04294019       -0.96729353        0.14745601
H           1.04294019        0.96729351        0.14745613
H           1.04294019       -0.96729352       -0.14745604
6
MD Time 770.00
C          -0.66616351       -0.00000000       -0.00000000
C           0.66616351        0.00000000        0.00000000
H          -1.05087948        0.97560015       -0.14906721
H          -1.05087947       -0.97560016        0.14906713
H           1.05087946        0.97560015        0.14906726
H           1.05087946       -0.97560016       -0.14906717
6
MD Time 780.00
C          -0.67813057       -0.00000000       -0.00000000
C           0.67813057        0.00000000        0.00000000
H          -1.06016738        0.98435864       -0.15001577
H          -1.06016737       -0.98435865        0.15001569
H           1.06016737        0.98435864        0.15001583
H           1.06016737       -0.98435865       -0.15001573
6
MD Time 790.00
C          -0.68987537       -0.00000000       -0.00000000
C           0.68987537        0.00000000        0.00000000
H          -1.07072365        0.99339388       -0.15028087
H          -1.07072364       -0.99339390        0.15028079
H           1.07072364        0.99339388        0.15028093
H           1.07072364       -0.99339389       -0.15028083
6
MD Time 800.00
C          -0.70134660       -0.00000000       -0.00000001
C           0.70134660        0.00000000        0.00000000
H          -1.08245897        1.00252000       -0.14984246
H          -1.08245896       -1.00252002        0.14984238
H           1.08245895        1.00252000        0.14984253
H           1.08245895       -1.00252001       -0.14984242
6
MD Time 810.00
C          -0.71250302       -0.00000000       -0.00000001
C           0.71250302        0.00000000        0.00000000
H          -1.09527749        1.01154672       -0.14868231
H          -1.09527748       -1.01154674        0.14868222
H           1.09527748        1.01154672        0.14868237
H           1.09527748       -1.01154673       -0.14868226
6
MD Time 820.00
C          -0.72331198       -0.00000000       -0.00000001
C           0.72331198        0.00000000        0.00000000
H          -1.10907905        1.02028506       -0.14678480
H          -1.10907904       -1.02028508        0.14678471
H           1.10907904        1.02028506        0.14678487
H           1.10907904       -1.02028507       -0.14678475
6
MD Time 830.00
C          -0.73374814       -0.00000000       -0.00000001
C           0.73374815        0.00000000        0.00000000
H          -1.12376096        1.02855221       -0.14413767
H          -1.12376095       -1.02855223        0.14413758
H           1.12376094        1.02855221        0.14413774
H           1.12376094       -1.02855222       -0.14413762
6
MD Time 840.00
C          -0.74379237       -0.00000000       -0.00000001
C           0.74379237        0.00000000        0.00000000
H          -1.13921946        1.03617551       -0.14073251
H          -1.13921945       -1.03617553        0.14073242
H           1.13921944        1.03617551        0.14073258
H           1.13921944       -1.03617552       -0.14073246
6
MD Time 850.00
C          -0.75343068       -0.00000000       -0.00000001
C           0.75343068        0.00000000        0.00000001
H          -1.15535090        1.04299543       -0.13656511
H          -1.15535089       -1.04299545        0.13656501
H           1.15535089        1.04299543        0.13656518
H           1.15535089       -1.04299544       -0.13656505
6
MD Time 860.00
C          -0.76265347       -0.00000000       -0.00000001
C           0.76265347        0.00000000        0.00000001
H          -1.17205261        1.04886783       -0.13163561
H          -1.17205260       -1.04886785        0.13163551
H           1.17205260        1.04886783        0.13163568
H           1.17205259       -1.04886784       -0.13163555
6
MD Time 870.00
C          -0.77145474       -0.00000000       -0.00000001
C           0.77145474        0.00000000        0.00000001
H          -1.18922358        1.05366546       -0.12594859
H          -1.18922356       -1.05366548        0.12594849
H           1.18922356        1.05366546        0.12594866
H           1.18922356       -1.05366547       -0.12594853
6
MD Time 880.00
C          -0.77983149       -0.00000000       -0.00000001
C           0.77983150        0.00000000        0.00000001
H          -1.20676499        1.05727894       -0.11951297
H          -1.20676498       -1.05727896        0.11951287
H           1.20676498        1.05727894        0.11951304
H           1.20676497       -1.05727895       -0.11951292
6
MD Time 890.00
C          -0.78778323       -0.00000000       -0.00000001
C           0.78778323        0.00000000        0.00000001
H          -1.22458066        1.05961730       -0.11234186
H          -1.22458064       -1.05961732        0.11234176
H           1.22458064        1.05961730        0.11234194
H           1.22458064       -1.05961731       -0.11234181
6
MD Time 900.00
C          -0.79531147       -0.00000000       -0.00000001
C           0.79531147        0.00000000        0.00000001
H          -1.24257733        1.06060824       -0.10445235
H          -1.24257731       -1.06060826        0.10445224
H           1.24257731        1.06060824        0.10445242
H           1.24257731       -1.06060825       -0.10445229
6
MD Time 910.00
C          -0.80241936       -0.00000000       -0.00000001
C           0.80241936        0.00000000        0.00000001
H          -1.26066504        1.06019820       -0.09586521
H          -1.26066502       -1.06019822        0.09586511
H           1.26066503        1.06019820        0.09586529
H           1.26066502       -1.06019820       -0.09586516
6
MD Time 920.00
C          -0.80911136       -0.00000000       -0.00000001
C           0.80911136        0.00000000        0.00000001
H          -1.27875737        1.05835225       -0.08660466
H          -1.27875735       -1.05835227        0.08660455
H           1.27875736        1.05835226        0.08660473
H           1.27875735       -1.05835226       -0.08660460
6
MD Time 930.00
C          -0.81539289       -0.00000000       -0.00000001
C           0.81539290        0.00000000        0.00000001
H          -1.29677175        1.05505405       -0.07669795
H          -1.29677173       -1.05505407        0.07669785
H           1.29677173        1.05505405        0.07669803
H           1.29677173       -1.05505405       -0.07669790
6
MD Time 940.00
C          -0.82127015       -0.00000000       -0.00000001
C           0.82127015        0.00000000        0.00000001
H          -1.31462976        1.05030562       -0.06617510
H          -1.31462974       -1.05030564        0.06617499
H           1.31462974        1.05030562        0.06617518
H           1.31462974       -1.05030563       -0.06617504
6
MD Time 950.00
C          -0.82674980       -0.00000000       -0.00000001
C           0.82674980        0.00000000        0.00000001
H          -1.33225749        1.04412725       -0.05506845
H          -1.33225747       -1.04412727        0.05506834
H           1.33225748        1.04412725        0.05506853
H           1.33225747       -1.04412726       -0.05506839
6
MD Time 960.00
C          -0.83183876       -0.00000000       -0.00000001
C           0.83183876        0.00000000        0.00000001
H          -1.34958591        1.03655729       -0.04341230
H          -1.34958589       -1.03655731        0.04341219
H           1.34958590        1.03655730        0.04341237
H           1.34958589       -1.03655730       -0.04341224
6
MD Time 970.00
C          -0.83654406       -0.00000000       -0.00000001
C           0.83654406        0.00000000        0.00000001
H          -1.36655124        1.02765198       -0.03124244
H          -1.36655122       -1.02765200        0.03124234
H           1.36655123        1.02765199        0.03124252
H           1.36655122       -1.02765199       -0.03124239
6
MD Time 980.00
C          -0.84087261       -0.00000000       -0.00000001
C           0.84087261        0.00000000        0.00000001
H          -1.38309540        1.01748513       -0.01859573
H          -1.38309538       -1.01748515        0.01859562
H           1.38309539        1.01748514        0.01859580
H           1.38309539       -1.01748514       -0.01859567
6
MD Time 990.00
C          -0.84483109       -0.00000000       -0.00000002
C           0.84483109        0.00000000        0.00000001
H          -1.39916642        1.00614776       -0.00550954
H          -1.39916640       -1.00614778        0.00550943
H           1.39916641        1.00614777        0.00550961
H           1.39916641       -1.00614777       -0.00550948
6
MD Time 1000.00
C          -0.84842576       -0.00000000       -0.00000002
C           0.84842576        0.00000000        0.00000001
H          -1.41471880        0.99374752        0.00797874
H          -1.41471877       -0.99374753       -0.00797885
H           1.41471879        0.99374753       -0.00797867
H           1.41471878       -0.99374752        0.00797880
6
MD Time 1010.00
C          -0.85166241       -0.00000000       -0.00000002
C           0.85166241        0.00000000        0.00000001
H          -1.42971382        0.98040786        0.02183228
H          -1.42971380       -0.98040787       -0.02183239
H           1.42971381        0.98040787       -0.02183221
H           1.42971380       -0.98040786        0.02183234
6
MD Time 1020.00
C          -0.85454624       -0.00000000       -0.00000002
C           0.85454624        0.00000000        0.00000002
H          -1.44411978        0.96626693        0.03601536
H          -1.44411975       -0.96626694       -0.03601546
H           1.44411977        0.96626694       -0.03601529
H           1.44411976       -0.96626693        0.03601541
6
MD Time 1030.00
C          -0.85708188       -0.00000000       -0.00000002
C           0.85708188        0.00000000        0.00000002
H          -1.45791197        0.95147602        0.05049390
H          -1.45791195       -0.95147603       -0.05049400
H           1.45791196        0.95147603       -0.05049383
H           1.45791195       -0.95147602        0.05049396
6
MD Time 1040.00
C          -0.85927335       -0.00000000       -0.00000002
C           0.85927335        0.00000000        0.00000002
H          -1.47107252        0.93619763        0.06523600
H          -1.47107250       -0.93619765       -0.06523611
H           1.47107252        0.93619765       -0.06523594
H           1.47107251       -0.93619764        0.06523606
6
MD Time 1050.00
C          -0.86112413       -0.00000000       -0.00000002
C           0.86112413        0.00000000        0.00000002
H          -1.48358991        0.92060301        0.08021234
H          -1.48358988       -0.92060303       -0.08021244
H           1.48358990        0.92060303       -0.08021227
H           1.48358989       -0.92060302        0.08021239
6
MD Time 1060.00
C          -0.86263733       -0.00000000       -0.00000002
C           0.86263733        0.00000000        0.00000002
H          -1.49545815        0.90486920        0.09539640
H          -1.49545813       -0.90486921       -0.09539650
H           1.49545815        0.90486922       -0.09539634
H           1.49545814       -0.90486920        0.09539645
6
MD Time 1070.00
C          -0.86381585       -0.00000000       -0.00000002
C           0.86381585        0.00000000        0.00000002
H          -1.50667571        0.88917562        0.11076463
H          -1.50667569       -0.88917563       -0.11076473
H           1.50667571        0.88917564       -0.11076457
H           1.50667569       -0.88917563        0.11076469
6
MD Time 1080.00
C          -0.86466260       -0.00000000       -0.00000002
C           0.86466260        0.00000000        0.00000002
H          -1.51724400        0.87370031        0.12629626
H          -1.51724398       -0.87370032       -0.12629636
H           1.51724400        0.87370033       -0.12629620
H           1.51724398       -0.87370032        0.12629631
6
MD Time 1090.00
C          -0.86518084       -0.00000000       -0.00000002
C           0.86518084        0.00000000        0.00000002
H          -1.52716564        0.85861586        0.14197288
H          -1.52716562       -0.85861587       -0.14197298
H           1.52716564        0.85861588       -0.14197282
H           1.52716563       -0.85861587        0.14197293
6
MD Time 1100.00
C          -0.86537444       -0.00000000       -0.00000002
C           0.86537444        0.00000000        0.00000002
H          -1.53644251        0.84408537        0.15777778
H          -1.53644249       -0.84408539       -0.15777787
H           1.53644251        0.84408540       -0.15777772
H           1.53644249       -0.84408538        0.15777782
6
MD Time 1110.00
C          -0.86524828       -0.00000000       -0.00000002
C           0.86524828        0.00000000        0.00000002
H          -1.54507369        0.83025857        0.17369496
H          -1.54507366       -0.83025858       -0.17369505
H           1.54507368        0.83025859       -0.17369490
H           1.54507367       -0.83025858        0.17369501
6
MD Time 1120.00
C          -0.86480850       -0.00000000       -0.00000002
C           0.86480849        0.00000000        0.00000002
H          -1.55305352        0.81726832        0.18970798
H          -1.55305349       -0.81726833       -0.18970807
H           1.55305351        0.81726834       -0.18970792
H           1.55305350       -0.81726833        0.18970802
6
MD Time 1130.00
C          -0.86406276       -0.00000000       -0.00000002
C           0.86406276        0.00000000        0.00000002
H          -1.56036993        0.80522786        0.20579861
H          -1.56036990       -0.80522788       -0.20579870
H           1.56036992        0.80522789       -0.20579855
H           1.56036991       -0.80522787        0.20579865
6
MD Time 1140.00
C          -0.86302046       -0.00000000       -0.00000002
C           0.86302046        0.00000000        0.00000002
H          -1.56700315        0.79422883        0.22194547
H          -1.56700313       -0.79422884       -0.22194555
H           1.56700315        0.79422886       -0.22194541
H           1.56700313       -0.79422884        0.22194551
6
MD Time 1150.00
C          -0.86169275       -0.00000000       -0.00000003
C           0.86169275        0.00000000        0.00000002
H          -1.57292503        0.78434014        0.23812275
H          -1.57292500       -0.78434016       -0.23812284
H           1.57292502        0.78434018       -0.23812270
H           1.57292501       -0.78434016        0.23812279
6
MD Time 1160.00
C          -0.86009255       -0.00000000       -0.00000003
C           0.86009255        0.00000000        0.00000003
H          -1.57809895        0.77560798        0.25429911
H          -1.57809893       -0.77560799       -0.25429919
H           1.57809895        0.77560801       -0.25429906
H           1.57809894       -0.77560799        0.25429914
6
MD Time 1170.00
C          -0.85823434       -0.00000000       -0.00000003
C           0.85823434        0.00000000        0.00000003
H          -1.58248049        0.76805645        0.27043683
H          -1.58248047       -0.76805646       -0.27043691
H           1.58248049        0.76805648       -0.27043678
H           1.58248048       -0.76805646        0.27043687
6
MD Time 1180.00
C          -0.85613395       -0.00000000       -0.00000003
C           0.85613395        0.00000000        0.00000003
H          -1.58601858        0.76168917        0.28649137
H          -1.58601855       -0.76168919       -0.28649145
H           1.58601857        0.76168921       -0.28649132
H           1.58601856       -0.76168919        0.28649140
6
MD Time 1190.00
C          -0.85380817       -0.00000000       -0.00000003
C           0.85380817        0.00000000        0.00000003
H          -1.58865722        0.75649135        0.30241123
H          -1.58865720       -0.75649137       -0.30241131
H           1.58865722        0.75649139       -0.30241119
H           1.58865721       -0.75649137        0.30241126
6
MD Time 1200.00
C          -0.85127439       -0.00000000       -0.00000003
C           0.85127439        0.00000000        0.00000003
H          -1.59033758        0.75243224        0.31813826
H          -1.59033755       -0.75243226       -0.31813834
H           1.59033757        0.75243227       -0.31813822
H           1.59033756       -0.75243226        0.31813829
6
MD Time 1210.00
C          -0.84855016       -0.00000000       -0.00000003
C           0.84855016        0.00000000        0.00000003
H          -1.59100016        0.74946782        0.33360824
H          -1.59100014       -0.74946784       -0.33360832
H           1.59100016        0.74946786       -0.33360820
H           1.59100015       -0.74946784        0.33360827
6
MD Time 1220.00
C          -0.84565280       -0.00000000       -0.00000003
C           0.84565280        0.00000000        0.00000003
H          -1.59058713        0.74754354        0.34875175
H          -1.59058711       -0.74754356       -0.34875183
H           1.59058713        0.74754357       -0.34875171
H           1.59058712       -0.74754356        0.34875178
6
MD Time 1230.00
C          -0.84259895       -0.00000000       -0.00000003
C           0.84259895        0.00000000        0.00000003
H          -1.58904442        0.74659692        0.36349528
H          -1.58904440       -0.74659694       -0.36349535
H           1.58904441        0.74659696       -0.36349524
H           1.58904441       -0.74659694        0.36349530
6
MD Time 1240.00
C          -0.83940428       -0.00000000       -0.00000003
C           0.83940428        0.00000000        0.00000003
H          -1.58632367        0.74656000        0.37776239
H          -1.58632366       -0.74656002       -0.37776246
H           1.58632367        0.74656004       -0.37776235
H           1.58632366       -0.74656002        0.37776241
6
MD Time 1250.00
C          -0.83608318       -0.00000000       -0.00000003
C           0.83608318        0.00000000        0.00000003
H          -1.58238391        0.74736153        0.39147501
H          -1.58238389       -0.74736156       -0.39147508
H           1.58238390        0.74736157       -0.39147497
H           1.58238390       -0.74736156        0.39147503
6
MD Time 1260.00
C          -0.83264850       -0.00000000       -0.00000003
C           0.83264850        0.00000001        0.00000003
H          -1.57719288        0.74892891        0.40455468
H          -1.57719287       -0.74892893       -0.40455475
H           1.57719287        0.74892895       -0.40455465
H           1.57719287       -0.74892893        0.40455470
6
MD Time 1270.00
C          -0.82911142       -0.00000000       -0.00000003
C           0.82911142        0.00000001        0.00000003
H          -1.57072811        0.75118978        0.41692376
H          -1.57072809       -0.75118981       -0.41692382
H           1.57072810        0.75118982       -0.41692373
H           1.57072810       -0.75118981        0.41692378
6
MD Time 1280.00
C          -0.82548128       -0.00000000       -0.00000003
C           0.82548129        0.00000001        0.00000003
H          -1.56297764        0.75407352        0.42850655
H          -1.56297762       -0.75407354       -0.42850662
H           1.56297763        0.75407356       -0.42850652
H           1.56297763       -0.75407355        0.42850657
6
MD Time 1290.00
C          -0.82176556       -0.00000000       -0.00000003
C           0.82176556        0.00000001        0.00000003
H          -1.55394055        0.75751231        0.43923035
H          -1.55394054       -0.75751233       -0.43923040
H           1.55394054        0.75751235       -0.43923032
H           1.55394054       -0.75751234        0.43923036
6
MD Time 1300.00
C          -0.81796979       -0.00000000       -0.00000003
C           0.81796979        0.00000001        0.00000003
H          -1.54362723        0.76144217        0.44902632
H          -1.54362721       -0.76144219       -0.44902638
H           1.54362722        0.76144221       -0.44902629
H           1.54362722       -0.76144220        0.44902634
6
MD Time 1310.00
C          -0.81409760       -0.00000000       -0.00000003
C           0.81409760        0.00000001        0.00000003
H          -1.53205947        0.76580371        0.45783039
H          -1.53205946       -0.76580373       -0.45783044
H           1.53205946        0.76580375       -0.45783036
H           1.53205946       -0.76580374        0.45783040
6
MD Time 1320.00
C          -0.81015072       -0.00000000       -0.00000003
C           0.81015072        0.00000001        0.00000003
H          -1.51927044        0.77054285        0.46558386
H          -1.51927042       -0.77054287       -0.46558392
H           1.51927042        0.77054288       -0.46558383
H           1.51927043       -0.77054287        0.46558388
6
MD Time 1330.00
C          -0.80612903       -0.00000000       -0.00000003
C           0.80612903        0.00000001        0.00000003
H          -1.50530448        0.77561131        0.47223410
H          -1.50530447       -0.77561133       -0.47223415
H           1.50530447        0.77561134       -0.47223408
H           1.50530448       -0.77561134        0.47223412
6
MD Time 1340.00
C          -0.80203065       -0.00000000       -0.00000003
C           0.80203065        0.00000001        0.00000003
H          -1.49021689        0.78096713        0.47773501
H          -1.49021688       -0.78096715       -0.47773507
H           1.49021688        0.78096717       -0.47773499
H           1.49021689       -0.78096716        0.47773503
6
MD Time 1350.00
C          -0.79785199       -0.00000000       -0.00000003
C           0.79785199        0.00000001        0.00000003
H          -1.47407351        0.78657503        0.48204747
H          -1.47407350       -0.78657506       -0.48204752
H           1.47407350        0.78657507       -0.48204745
H           1.47407351       -0.78657506        0.48204749
6
MD Time 1360.00
C          -0.79358786       -0.00000000       -0.00000003
C           0.79358787        0.00000001        0.00000003
H          -1.45695032        0.79240673        0.48513966
H          -1.45695031       -0.79240675       -0.48513971
H           1.45695031        0.79240676       -0.48513965
H           1.45695032       -0.79240676        0.48513968
6
MD Time 1370.00
C          -0.78923162       -0.00000000       -0.00000003
C           0.78923162        0.00000001        0.00000003
H          -1.43893287        0.79844116        0.48698731
H          -1.43893286       -0.79844118       -0.48698736
H           1.43893286        0.79844119       -0.48698730
H           1.43893287       -0.79844119        0.48698733
6
MD Time 1380.00
C          -0.78477525       -0.00000000       -0.00000003
C           0.78477525        0.00000001        0.00000003
H          -1.42011565        0.80466462        0.48757383
H          -1.42011564       -0.80466465       -0.48757388
H           1.42011564        0.80466466       -0.48757381
H           1.42011565       -0.80466465        0.48757385
6
MD Time 1390.00
C          -0.78020957       -0.00000000       -0.00000003
C           0.78020957        0.00000001        0.00000003
H          -1.40060132        0.81107082        0.48689031
H          -1.40060131       -0.81107084       -0.48689036
H           1.40060130        0.81107085       -0.48689030
H           1.40060131       -0.81107085        0.48689034
6
MD Time 1400.00
C          -0.77552442       -0.00000000       -0.00000003
C           0.77552442        0.00000001        0.00000003
H          -1.38049979        0.81766071        0.48493546
H          -1.38049978       -0.81766073       -0.48493551
H           1.38049977        0.81766074       -0.48493545
H           1.38049979       -0.81766074        0.48493548
6
MD Time 1410.00
C          -0.77070884       -0.00000000       -0.00000003
C           0.77070884        0.00000001        0.00000003
H          -1.35992722        0.82444221        0.48171526
H          -1.35992721       -0.82444223       -0.48171531
H           1.35992720        0.82444224       -0.48171525
H           1.35992721       -0.82444223        0.48171529
6
MD Time 1420.00
C          -0.76575140       -0.00000000       -0.00000003
C           0.76575141        0.00000001        0.00000003
H          -1.33900476        0.83142966        0.47724261
H          -1.33900475       -0.83142968       -0.47724266
H           1.33900474        0.83142968       -0.47724260
H           1.33900475       -0.83142968        0.47724263
6
MD Time 1430.00
C          -0.76064047       -0.00000000       -0.00000003
C           0.76064047        0.00000001        0.00000003
H          -1.31785721        0.83864301        0.47153667
H          -1.31785720       -0.83864303       -0.47153671
H           1.31785719        0.83864304       -0.47153666
H           1.31785720       -0.83864303        0.47153670
6
MD Time 1440.00
C          -0.75536454       -0.00000000       -0.00000003
C           0.75536454        0.00000001        0.00000003
H          -1.29661149        0.84610673        0.46462210
H          -1.29661148       -0.84610675       -0.46462215
H           1.29661147        0.84610675       -0.46462210
H           1.29661148       -0.84610675        0.46462213
6
MD Time 1450.00
C          -0.74991267       -0.00000000       -0.00000003
C           0.74991267        0.00000001        0.00000003
H          -1.27539499        0.85384832        0.45652814
H          -1.27539498       -0.85384834       -0.45652819
H           1.27539497        0.85384834       -0.45652814
H           1.27539499       -0.85384834        0.45652818
6
MD Time 1460.00
C          -0.74427487       -0.00000000       -0.00000003
C           0.74427487        0.00000001        0.00000003
H          -1.25433384        0.86189655        0.44728750
H          -1.25433383       -0.86189657       -0.44728755
H           1.25433382        0.86189657       -0.44728750
H           1.25433384       -0.86189657        0.44728754
6
MD Time 1470.00
C          -0.73844262       -0.00000000       -0.00000003
C           0.73844263        0.00000001        0.00000003
H          -1.23355111        0.87027931        0.43693522
H          -1.23355110       -0.87027932       -0.43693527
H           1.23355108        0.87027933       -0.43693522
H           1.23355110       -0.87027932        0.43693526
6
MD Time 1480.00
C          -0.73240932       -0.00000000       -0.00000003
C           0.73240932        0.00000001        0.00000003
H          -1.21316505        0.87902119        0.42550752
H          -1.21316504       -0.87902120       -0.42550757
H           1.21316503        0.87902120       -0.42550753
H           1.21316505       -0.87902120        0.42550756
6
MD Time 1490.00
C          -0.72617080       -0.00000000       -0.00000003
C           0.72617080        0.00000001        0.00000003
H          -1.19328745        0.88814092        0.41304069
H          -1.19328744       -0.88814093       -0.41304075
H           1.19328742        0.88814094       -0.41304070
H           1.19328744       -0.88814093        0.41304074
6
MD Time 1500.00
C          -0.71972590       -0.00000001       -0.00000003
C           0.71972590        0.00000001        0.00000003
H          -1.17402210        0.89764869        0.39957016
H          -1.17402209       -0.89764870       -0.39957021
H           1.17402208        0.89764870       -0.39957017
H           1.17402210       -0.89764869        0.39957021
6
MD Time 1510.00
C          -0.71307689       -0.00000001       -0.00000003
C           0.71307689        0.00000001        0.00000003
H          -1.15546358        0.90754354        0.38512980
H          -1.15546357       -0.90754356       -0.38512985
H           1.15546355        0.90754356       -0.38512981
H           1.15546357       -0.90754355        0.38512985
6
MD Time 1520.00
C          -0.70623006       -0.00000001       -0.00000003
C           0.70623006        0.00000001        0.00000003
H          -1.13769621        0.91781111        0.36975159
H          -1.13769620       -0.91781112       -0.36975164
H           1.13769619        0.91781112       -0.36975159
H           1.13769620       -0.91781111        0.36975164
6
MD Time 1530.00
C          -0.69919611       -0.00000001       -0.00000003
C           0.69919611        0.00000000        0.00000003
H          -1.12079348        0.92842166        0.35346561
H          -1.12079347       -0.92842167       -0.35346567
H           1.12079346        0.92842167       -0.35346562
H           1.12079347       -0.92842166        0.35346567
6
MD Time 1540.00
C          -0.69199061       -0.00000001       -0.00000003
C           0.69199061        0.00000000        0.00000003
H          -1.10481771        0.93932888        0.33630051
H          -1.10481770       -0.93932889       -0.33630057
H           1.10481769        0.93932889       -0.33630052
H           1.10481771       -0.93932887        0.33630057
6
MD Time 1550.00
C          -0.68463439       -0.00000001       -0.00000003
C           0.68463439        0.00000000        0.00000003
H          -1.08982012        0.95046926        0.31828423
H          -1.08982011       -0.95046927       -0.31828429
H           1.08982010        0.95046927       -0.31828424
H           1.08982012       -0.95046926        0.31828429
6
MD Time 1560.00
C          -0.67715384       -0.00000001       -0.00000003
C           0.67715384        0.00000000        0.00000003
H          -1.07584117        0.96176237        0.29944512
H          -1.07584116       -0.96176238       -0.29944518
H           1.07584115        0.96176238       -0.29944513
H           1.07584117       -0.96176236        0.29944518
6
MD Time 1570.00
C          -0.66958119       -0.00000001       -0.00000002
C           0.66958119        0.00000000        0.00000003
H          -1.06291116        0.97311185        0.27981323
H          -1.06291115       -0.97311186       -0.27981329
H           1.06291115        0.97311186       -0.27981324
H           1.06291116       -0.97311184        0.27981330
6
MD Time 1580.00
C          -0.66195467       -0.00000001       -0.00000002
C           0.66195467        0.00000000        0.00000002
H          -1.05105105        0.98440724        0.25942172
H          -1.05105104       -0.98440724       -0.25942179
H           1.05105103        0.98440724       -0.25942174
H           1.05105104       -0.98440722        0.25942179
6
MD Time 1590.00
C          -0.65431862       -0.00000001       -0.00000002
C           0.65431862        0.00000000        0.00000002
H          -1.04027334        0.99552637        0.23830818
H          -1.04027333       -0.99552638       -0.23830825
H           1.04027332        0.99552638       -0.23830820
H           1.04027334       -0.99552636        0.23830826
6
MD Time 1600.00
C          -0.64672343       -0.00000001       -0.00000002
C           0.64672343        0.00000000        0.00000002
H          -1.03058312        1.00633838        0.21651586
H          -1.03058311       -1.00633838       -0.21651593
H           1.03058310        1.00633838       -0.21651587
H           1.03058311       -1.00633836        0.21651594
6
MD Time 1610.00
C          -0.63922541       -0.00000001       -0.00000002
C           0.63922541        0.00000000        0.00000002
H          -1.02197898        1.01670689        0.19409461
H          -1.02197897       -1.01670690       -0.19409468
H           1.02197896        1.01670690       -0.19409462
H           1.02197897       -1.01670687        0.19409469
6
MD Time 1620.00
C          -0.63188636       -0.00000001       -0.00000002
C           0.63188636        0.00000000        0.00000002
H          -1.01445397        1.02649353        0.17110158
H          -1.01445396       -1.02649353       -0.17110165
H           1.01445395        1.02649353       -0.17110160
H           1.01445397       -1.02649351        0.17110167
6
MD Time 1630.00
C          -0.62477304       -0.00000001       -0.00000002
C           0.62477304        0.00000000        0.00000002
H          -1.00799647        1.03556127        0.14760155
H          -1.00799646       -1.03556127       -0.14760163
H           1.00799646        1.03556128       -0.14760157
H           1.00799647       -1.03556125        0.14760165
6
MD Time 1640.00
C          -0.61795636       -0.00000001       -0.00000002
C           0.61795636        0.00000000        0.00000002
H          -1.00259096        1.04377778        0.12366693
H          -1.00259094       -1.04377778       -0.12366701
H           1.00259094        1.04377779       -0.12366695
H           1.00259095       -1.04377776        0.12366703
6
MD Time 1650.00
C          -0.61151021       -0.00000001       -0.00000002
C           0.61151021        0.00000000        0.00000002
H          -0.99821870        1.05101841        0.09937745
H          -0.99821868       -1.05101841       -0.09937753
H           0.99821868        1.05101842       -0.09937747
H           0.99821869       -1.05101839        0.09937755
6
MD Time 1660.00
C          -0.60551012       -0.00000001       -0.00000002
C           0.60551012        0.00000000        0.00000002
H          -0.99485838        1.05716893        0.07481962
H          -0.99485837       -1.05716893       -0.07481970
H           0.99485837        1.05716894       -0.07481964
H           0.99485838       -1.05716891        0.07481972
6
MD Time 1670.00
C          -0.60003153       -0.00000001       -0.00000002
C           0.60003153        0.00000000        0.00000002
H          -0.99248670        1.06212789        0.05008595
H          -0.99248669       -1.06212789       -0.05008604
H           0.99248669        1.06212790       -0.05008597
H           0.99248670       -1.06212787        0.05008607
6
MD Time 1680.00
C          -0.59514783       -0.00000001       -0.00000002
C           0.59514783        0.00000000        0.00000002
H          -0.99107886        1.06580857        0.02527405
H          -0.99107884       -1.06580857       -0.02527415
H           0.99107885        1.06580858       -0.02527407
H           0.99107885       -1.06580855        0.02527417
6
MD Time 1690.00
C          -0.59092823       -0.00000001       -0.00000002
C           0.59092823        0.00000000        0.00000002
H          -0.99060911        1.06814062        0.00048555
H          -0.99060909       -1.06814063       -0.00048565
H           0.99060910        1.06814063       -0.00048557
H           0.99060910       -1.06814061        0.00048567
6
MD Time 1700.00
C          -0.58743549       -0.00000001       -0.00000002
C           0.58743549        0.00000000        0.00000001
H          -0.99105126        1.06907131       -0.02417497
H          -0.99105125       -1.06907132        0.02417487
H           0.99105125        1.06907132        0.02417495
H           0.99105126       -1.06907130       -0.02417484
6
MD Time 1710.00
C          -0.58472365       -0.00000001       -0.00000001
C           0.58472365        0.00000000        0.00000001
H          -0.99237922        1.06856646       -0.04860111
H          -0.99237921       -1.06856646        0.04860101
H           0.99237921        1.06856647        0.04860109
H           0.99237922       -1.06856644       -0.04860098
6
MD Time 1720.00
C          -0.58283597       -0.00000001       -0.00000001
C           0.58283597        0.00000000        0.00000001
H          -0.99456750        1.06661107       -0.07268581
H          -0.99456749       -1.06661108        0.07268571
H           0.99456750        1.06661108        0.07268579
H           0.99456750       -1.06661106       -0.07268568
6
MD Time 1730.00
C          -0.58180317       -0.00000001       -0.00000001
C           0.58180317        0.00000000        0.00000001
H          -0.99759181        1.06320976       -0.09632250
H          -0.99759180       -1.06320977        0.09632239
H           0.99759181        1.06320977        0.09632248
H           0.99759181       -1.06320975       -0.09632236
6
MD Time 1740.00
C          -0.58164207       -0.00000001       -0.00000001
C           0.58164207        0.00000000        0.00000001
H          -1.00142957        1.05838686       -0.11940624
H          -1.00142956       -1.05838687        0.11940613
H           1.00142957        1.05838687        0.11940622
H           1.00142957       -1.05838685       -0.11940610
6
MD Time 1750.00
C          -0.58235485       -0.00000000       -0.00000001
C           0.58235485        0.00000000        0.00000001
H          -1.00606048        1.05218640       -0.14183487
H          -1.00606046       -1.05218641        0.14183476
H           1.00606047        1.05218641        0.14183486
H           1.00606048       -1.05218639       -0.14183473
6
MD Time 1760.00
C          -0.58392892       -0.00000000       -0.00000001
C           0.58392892        0.00000000        0.00000001
H          -1.01146699        1.04467180       -0.16351018
H          -1.01146698       -1.04467182        0.16351007
H           1.01146698        1.04467182        0.16351017
H           1.01146699       -1.04467180       -0.16351004
6
MD Time 1770.00
C          -0.58633737       -0.00000000       -0.00000001
C           0.58633737        0.00000001        0.00000001
H          -1.01763479        1.03592545       -0.18433902
H          -1.01763478       -1.03592547        0.18433890
H           1.01763478        1.03592546        0.18433900
H           1.01763479       -1.03592545       -0.18433887
6
MD Time 1780.00
C          -0.58954007       -0.00000000       -0.00000001
C           0.58954007        0.00000001        0.00000001
H          -1.02455311        1.02604797       -0.20423440
H          -1.02455310       -1.02604799        0.20423427
H           1.02455311        1.02604798        0.20423438
H           1.02455312       -1.02604798       -0.20423424
6
MD Time 1790.00
C          -0.59348522       -0.00000000       -0.00000001
C           0.59348522        0.00000001        0.00000001
H          -1.03221500        1.01515731       -0.22311660
H          -1.03221499       -1.01515734        0.22311647
H           1.03221499        1.01515733        0.22311659
H           1.03221501       -1.01515733       -0.22311644
6
MD Time 1800.00
C          -0.59811123       -0.00000000       -0.00000001
C           0.59811123        0.00000001        0.00000001
H          -1.04061736        1.00338756       -0.24091415
H          -1.04061735       -1.00338758        0.24091402
H           1.04061736        1.00338757        0.24091414
H           1.04061737       -1.00338757       -0.24091399
6
MD Time 1810.00
C          -0.60334889       -0.00000000       -0.00000001
C           0.60334889        0.00000001        0.00000001
H          -1.04976090        0.99088737       -0.25756469
H          -1.04976088       -0.99088740        0.25756456
H           1.04976089        0.99088739        0.25756468
H           1.04976090       -0.99088739       -0.25756453
6
MD Time 1820.00
C          -0.60912352       -0.00000000       -0.00000001
C           0.60912351        0.00000001        0.00000001
H          -1.05964977        0.97781816       -0.27301571
H          -1.05964976       -0.97781819        0.27301558
H           1.05964976        0.97781817        0.27301570
H           1.05964978       -0.97781818       -0.27301555
6
MD Time 1830.00
C          -0.61535713       -0.00000000       -0.00000001
C           0.61535713        0.00000001        0.00000001
H          -1.07029110        0.96435176       -0.28722499
H          -1.07029109       -0.96435180        0.28722486
H           1.07029109        0.96435178        0.28722499
H           1.07029111       -0.96435179       -0.28722483
6
MD Time 1840.00
C          -0.62197041       -0.00000000       -0.00000001
C           0.62197041        0.00000001        0.00000001
H          -1.08169414        0.95066779       -0.30016083
H          -1.08169413       -0.95066783        0.30016070
H           1.08169414        0.95066781        0.30016083
H           1.08169415       -0.95066782       -0.30016067
6
MD Time 1850.00
C          -0.62888451       -0.00000000       -0.00000001
C           0.62888451        0.00000001        0.00000001
H          -1.09386924        0.93695047       -0.31180188
H          -1.09386923       -0.93695051        0.31180174
H           1.09386923        0.93695048        0.31180188
H           1.09386925       -0.93695050       -0.31180172
6
MD Time 1860.00
C          -0.63602252       -0.00000000       -0.00000001
C           0.63602252        0.00000001        0.00000001
H          -1.10682648        0.92338511       -0.32213660
H          -1.10682647       -0.92338515        0.32213646
H           1.10682647        0.92338512        0.32213660
H           1.10682649       -0.92338514       -0.32213644
6
MD Time 1870.00
C          -0.64331082       -0.00000000       -0.00000001
C           0.64331082        0.00000001        0.00000001
H          -1.12057406        0.91015419       -0.33116235
H          -1.12057405       -0.91015423        0.33116221
H           1.12057405        0.91015420        0.33116236
H           1.12057407       -0.91015423       -0.33116219
6
MD Time 1880.00
C          -0.65068005       -0.00000000       -0.00000001
C           0.65068005        0.00000001        0.00000001
H          -1.13511644        0.89743324       -0.33888406
H          -1.13511643       -0.89743329        0.33888392
H           1.13511643        0.89743325        0.33888407
H           1.13511645       -0.89743328       -0.33888390
6
MD Time 1890.00
C          -0.65806597       -0.00000000       -0.00000001
C           0.65806597        0.00000001        0.00000001
H          -1.15045226        0.88538654       -0.34531257
H          -1.15045225       -0.88538660        0.34531243
H           1.15045225        0.88538656        0.34531258
H           1.15045227       -0.88538659       -0.34531241
6
MD Time 1900.00
C          -0.66541006       -0.00000000       -0.00000001
C           0.66541006        0.00000001        0.00000001
H          -1.16657216        0.87416303       -0.35046273
H          -1.16657215       -0.87416309        0.35046259
H           1.16657215        0.87416304        0.35046274
H           1.16657217       -0.87416308       -0.35046257
6
MD Time 1910.00
C          -0.67265997       -0.00000000       -0.00000001
C           0.67265997        0.00000001        0.00000001
H          -1.18345659        0.86389239       -0.35435139
H          -1.18345658       -0.86389245        0.35435125
H           1.18345658        0.86389240        0.35435140
H           1.18345660       -0.86389244       -0.35435123
6
MD Time 1920.00
C          -0.67976981       -0.00000000       -0.00000001
C           0.67976981        0.00000001        0.00000001
H          -1.20107374        0.85468180       -0.35699545
H          -1.20107373       -0.85468186        0.35699531
H           1.20107372        0.85468181        0.35699546
H           1.20107374       -0.85468185       -0.35699528
6
MD Time 1930.00
C          -0.68670035       -0.00000000       -0.00000001
C           0.68670035        0.00000001        0.00000001
H          -1.21937775        0.84661342       -0.35841011
H          -1.21937774       -0.84661349        0.35840996
H           1.21937773        0.84661343        0.35841012
H           1.21937775       -0.84661348       -0.35840994
6
MD Time 1940.00
C          -0.69341899       -0.00000000       -0.00000001
C           0.69341900        0.00000001        0.00000001
H          -1.23830738        0.83974284       -0.35860754
H          -1.23830737       -0.83974291        0.35860740
H           1.23830736        0.83974285        0.35860756
H           1.23830738       -0.83974290       -0.35860738
6
MD Time 1950.00
C          -0.69989971       -0.00000000       -0.00000001
C           0.69989971        0.00000001        0.00000001
H          -1.25778525        0.83409855       -0.35759604
H          -1.25778524       -0.83409862        0.35759590
H           1.25778523        0.83409856        0.35759606
H           1.25778525       -0.83409861       -0.35759588
6
MD Time 1960.00
C          -0.70612274       -0.00000000       -0.00000001
C           0.70612274        0.00000001        0.00000001
H          -1.27771772        0.82968255       -0.35537977
H          -1.27771771       -0.82968262        0.35537962
H           1.27771770        0.82968256        0.35537979
H           1.27771772       -0.82968260       -0.35537961
6
MD Time 1970.00
C          -0.71207428       -0.00000000       -0.00000001
C           0.71207428        0.00000001        0.00000001
H          -1.29799559        0.82647190       -0.35195906
H          -1.29799558       -0.82647197        0.35195891
H           1.29799557        0.82647191        0.35195908
H           1.29799559       -0.82647196       -0.35195889
6
MD Time 1980.00
C          -0.71774596       -0.00000000       -0.00000001
C           0.71774596        0.00000001        0.00000001
H          -1.31849539        0.82442121       -0.34733124
H          -1.31849537       -0.82442128        0.34733110
H           1.31849537        0.82442122        0.34733127
H           1.31849538       -0.82442127       -0.34733108
6
MD Time 1990.00
C          -0.72313431       -0.00000000       -0.00000001
C           0.72313431        0.00000001        0.00000001
H          -1.33908137        0.82346565       -0.34149191
H          -1.33908136       -0.82346573        0.34149176
H           1.33908135        0.82346566        0.34149194
H           1.33908136       -0.82346571       -0.34149175
6
MD Time 2000.00
C          -0.72824008       -0.00000000       -0.00000001
C           0.72824008        0.00000001        0.00000001
H          -1.35960799        0.82352449       -0.33443632
H          -1.35960798       -0.82352456        0.33443617
H           1.35960797        0.82352450        0.33443635
H           1.35960798       -0.82352455       -0.33443616
6
MD Time 2010.00
C          -0.73306759       -0.00000000       -0.00000001
C           0.73306759        0.00000001        0.00000001
H          -1.37992269        0.82450467       -0.32616104
H          -1.37992267       -0.82450474        0.32616089
H           1.37992267        0.82450468        0.32616107
H           1.37992267       -0.82450473       -0.32616088
6
MD Time 2020.00
C          -0.73762404       -0.00000000       -0.00000001
C           0.73762404        0.00000001        0.00000001
H          -1.39986884        0.82630443       -0.31666538
H          -1.39986881       -0.82630450        0.31666523
H           1.39986881        0.82630444        0.31666541
H           1.39986882       -0.82630449       -0.31666522
6
MD Time 2030.00
C          -0.74191886       -0.00000000       -0.00000001
C           0.74191887        0.00000001        0.00000001
H          -1.41928870        0.82881661       -0.30595279
H          -1.41928867       -0.82881668        0.30595264
H           1.41928867        0.82881662        0.30595282
H           1.41928867       -0.82881667       -0.30595263
6
MD Time 2040.00
C          -0.74596308       -0.00000000       -0.00000001
C           0.74596308        0.00000001        0.00000001
H          -1.43802621        0.83193165       -0.29403193
H          -1.43802619       -0.83193172        0.29403178
H           1.43802619        0.83193166        0.29403197
H           1.43802619       -0.83193171       -0.29403178
6
MD Time 2050.00
C          -0.74976874       -0.00000000       -0.00000001
C           0.74976874        0.00000001        0.00000001
H          -1.45592955        0.83554013       -0.28091750
H          -1.45592951       -0.83554020        0.28091735
H           1.45592952        0.83554014        0.28091754
H           1.45592951       -0.83554018       -0.28091735
6
MD Time 2060.00
C          -0.75334845       -0.00000000       -0.00000001
C           0.75334845        0.00000001        0.00000001
H          -1.47285330        0.83953486       -0.26663074
H          -1.47285326       -0.83953493        0.26663059
H           1.47285327        0.83953487        0.26663078
H           1.47285326       -0.83953491       -0.26663059
6
MD Time 2070.00
C          -0.75671491       -0.00000000       -0.00000001
C           0.75671492        0.00000001        0.00000001
H          -1.48866037        0.84381255       -0.25119968
H          -1.48866033       -0.84381262        0.25119953
H           1.48866034        0.84381256        0.25119973
H           1.48866033       -0.84381260       -0.25119954
6
MD Time 2080.00
C          -0.75988063       -0.00000000       -0.00000001
C           0.75988063        0.00000001        0.00000001
H          -1.50322350        0.84827506       -0.23465918
H          -1.50322346       -0.84827513        0.23465904
H           1.50322347        0.84827507        0.23465923
H           1.50322346       -0.84827511       -0.23465904
6
MD Time 2090.00
C          -0.76285756       -0.00000000       -0.00000001
C           0.76285756        0.00000001        0.00000001
H          -1.51642644        0.85283028       -0.21705073
H          -1.51642639       -0.85283035        0.21705059
H           1.51642641        0.85283029        0.21705078
H           1.51642639       -0.85283033       -0.21705059
6
MD Time 2100.00
C          -0.76565692       -0.00000000       -0.00000001
C           0.76565692        0.00000001        0.00000001
H          -1.52816484        0.85739276       -0.19842215
H          -1.52816479       -0.85739283        0.19842200
H           1.52816481        0.85739278        0.19842220
H           1.52816479       -0.85739281       -0.19842201
6
MD Time 2110.00
C          -0.76828900       -0.00000000       -0.00000001
C           0.76828900        0.00000001        0.00000001
H          -1.53834694        0.86188410       -0.17882716
H          -1.53834689       -0.86188416        0.17882702
H           1.53834691        0.86188412        0.17882722
H           1.53834688       -0.86188414       -0.17882703
6
MD Time 2120.00
C          -0.77076304       -0.00000000       -0.00000001
C           0.77076304        0.00000001        0.00000001
H          -1.54689401        0.86623315       -0.15832496
H          -1.54689395       -0.86623321        0.15832482
H           1.54689398        0.86623317        0.15832502
H           1.54689395       -0.86623319       -0.15832484
6
MD Time 2130.00
C          -0.77308709       -0.00000000       -0.00000001
C           0.77308709        0.00000001        0.00000001
H          -1.55374068        0.87037613       -0.13697967
H          -1.55374062       -0.87037619        0.13697953
H           1.55374065        0.87037615        0.13697973
H           1.55374062       -0.87037617       -0.13697955
6
MD Time 2140.00
C          -0.77526796       -0.00000000       -0.00000002
C           0.77526796        0.00000001        0.00000001
H          -1.55883517        0.87425668       -0.11485984
H          -1.55883511       -0.87425674        0.11485970
H           1.55883515        0.87425670        0.11485990
H           1.55883511       -0.87425671       -0.11485973
6
MD Time 2150.00
C          -0.77731116       -0.00000000       -0.00000002
C           0.77731116        0.00000001        0.00000001
H          -1.56213943        0.87782586       -0.09203794
H          -1.56213937       -0.87782592        0.09203781
H           1.56213941        0.87782588        0.09203801
H           1.56213937       -0.87782589       -0.09203784
6
MD Time 2160.00
C          -0.77922083       -0.00000000       -0.00000002
C           0.77922083        0.00000001        0.00000001
H          -1.56362924        0.88104219       -0.06858987
H          -1.56362918       -0.88104224        0.06858974
H           1.56362922        0.88104221        0.06858994
H           1.56362918       -0.88104221       -0.06858977
6
MD Time 2170.00
C          -0.78099971       -0.00000000       -0.00000002
C           0.78099971        0.00000001        0.00000001
H          -1.56329432        0.88387164       -0.04459440
H          -1.56329425       -0.88387169        0.04459428
H           1.56329430        0.88387166        0.04459447
H           1.56329426       -0.88387166       -0.04459431
6
MD Time 2180.00
C          -0.78264913       -0.00000000       -0.00000002
C           0.78264913        0.00000001        0.00000001
H          -1.56113837        0.88628776       -0.02013274
H          -1.56113830       -0.88628780        0.02013261
H           1.56113835        0.88628778        0.02013281
H           1.56113830       -0.88628778       -0.02013266
6
MD Time 2190.00
C          -0.78416896       -0.00000000       -0.00000002
C           0.78416896        0.00000001        0.00000002
H          -1.55717912        0.88827174        0.00471204
H          -1.55717905       -0.88827178       -0.00471216
H           1.55717910        0.88827176       -0.00471197
H           1.55717905       -0.88827176        0.00471212
6
MD Time 2200.00
C          -0.78555763       -0.00000000       -0.00000002
C           0.78555763        0.00000001        0.00000002
H          -1.55144838        0.88981259        0.02985548
H          -1.55144830       -0.88981263       -0.02985560
H           1.55144836        0.88981261       -0.02985541
H           1.55144831       -0.88981261        0.02985555
6
MD Time 2210.00
C          -0.78681210       -0.00000000       -0.00000002
C           0.78681210        0.00000001        0.00000002
H          -1.54399196        0.89090726        0.05521232
H          -1.54399189       -0.89090730       -0.05521243
H           1.54399195        0.89090728       -0.05521224
H           1.54399189       -0.89090727        0.05521238
6
MD Time 2220.00
C          -0.78792787       -0.00000000       -0.00000002
C           0.78792787        0.00000001        0.00000002
H          -1.53486960        0.89156084        0.08069704
H          -1.53486953       -0.89156087       -0.08069715
H           1.53486959        0.89156086       -0.08069696
H           1.53486954       -0.89156085        0.08069709
6
MD Time 2230.00
C          -0.78889905       -0.00000000       -0.00000002
C           0.78889905        0.00000001        0.00000002
H          -1.52415473        0.89178665        0.10622451
H          -1.52415465       -0.89178669       -0.10622462
H           1.52415472        0.89178668       -0.10622443
H           1.52415466       -0.89178667        0.10622456
6
MD Time 2240.00
C          -0.78971836       -0.00000000       -0.00000002
C           0.78971836        0.00000001        0.00000002
H          -1.51193407        0.89160635        0.13171060
H          -1.51193399       -0.89160638       -0.13171069
H           1.51193406        0.89160638       -0.13171052
H           1.51193400       -0.89160637        0.13171063
6
MD Time 2250.00
C          -0.79037725       -0.00000000       -0.00000002
C           0.79037725        0.00000001        0.00000002
H          -1.49830712        0.89104982        0.15707279
H          -1.49830705       -0.89104985       -0.15707289
H           1.49830712        0.89104985       -0.15707271
H           1.49830706       -0.89104984        0.15707282
6
MD Time 2260.00
C          -0.79086599       -0.00000000       -0.00000002
C           0.79086599        0.00000001        0.00000002
H          -1.48338536        0.89015500        0.18223088
H          -1.48338528       -0.89015503       -0.18223096
H           1.48338536        0.89015503       -0.18223079
H           1.48338530       -0.89015502        0.18223089
6
MD Time 2270.00
C          -0.79117385       -0.00000000       -0.00000002
C           0.79117385        0.00000001        0.00000002
H          -1.46729115        0.88896744        0.20710749
H          -1.46729108       -0.88896747       -0.20710757
H           1.46729115        0.88896747       -0.20710740
H           1.46729109       -0.88896746        0.20710750
6
MD Time 2280.00
C          -0.79128926       -0.00000000       -0.00000002
C           0.79128926        0.00000001        0.00000002
H          -1.45015645        0.88753964        0.23162864
H          -1.45015637       -0.88753966       -0.23162872
H           1.45015644        0.88753967       -0.23162856
H           1.45015639       -0.88753965        0.23162864
6
MD Time 2290.00
C          -0.79120008       -0.00000000       -0.00000002
C           0.79120008        0.00000001        0.00000002
H          -1.43212112        0.88593005        0.25572414
H          -1.43212105       -0.88593008       -0.25572421
H           1.43212112        0.88593008       -0.25572405
H           1.43212107       -0.88593007        0.25572413
6
MD Time 2300.00
C          -0.79089387       -0.00000000       -0.00000002
C           0.79089387        0.00000001        0.00000002
H          -1.41333110        0.88420188        0.27932779
H          -1.41333103       -0.88420190       -0.27932786
H           1.41333110        0.88420191       -0.27932771
H           1.41333105       -0.88420189        0.27932778
6
MD Time 2310.00
C          -0.79035818       -0.00000000       -0.00000002
C           0.79035818        0.00000001        0.00000002
H          -1.39393619        0.88242146        0.30237750
H          -1.39393612       -0.88242148       -0.30237757
H           1.39393619        0.88242149       -0.30237742
H           1.39393614       -0.88242147        0.30237748
6
MD Time 2320.00
C          -0.78958090       -0.00000000       -0.00000002
C           0.78958090        0.00000001        0.00000002
H          -1.37408781        0.88065646        0.32481506
H          -1.37408774       -0.88065649       -0.32481512
H           1.37408781        0.88065650       -0.32481497
H           1.37408777       -0.88065648        0.32481503
6
MD Time 2330.00
C          -0.78855061       -0.00000000       -0.00000002
C           0.78855060        0.00000001        0.00000002
H          -1.35393660        0.87897389        0.34658575
H          -1.35393654       -0.87897391       -0.34658580
H           1.35393661        0.87897392       -0.34658566
H           1.35393656       -0.87897390        0.34658571
6
MD Time 2340.00
C          -0.78725688       -0.00000000       -0.00000002
C           0.78725688        0.00000001        0.00000002
H          -1.33363012        0.87743793        0.36763777
H          -1.33363006       -0.87743795       -0.36763782
H           1.33363013        0.87743796       -0.36763768
H           1.33363009       -0.87743795        0.36763773
6
MD Time 2350.00
C          -0.78569061       -0.00000000       -0.00000002
C           0.78569060        0.00000001        0.00000002
H          -1.31331070        0.87610791        0.38792143
H          -1.31331064       -0.87610793       -0.38792148
H           1.31331070        0.87610794       -0.38792134
H           1.31331067       -0.87610793        0.38792138
6
MD Time 2360.00
C          -0.78384424       -0.00000000       -0.00000002
C           0.78384424        0.00000001        0.00000002
H          -1.29311354        0.87503636        0.40738829
H          -1.29311349       -0.87503639       -0.40738833
H           1.29311355        0.87503640       -0.40738820
H           1.29311352       -0.87503639        0.40738824
6
MD Time 2370.00
C          -0.78171200       -0.00000000       -0.00000002
C           0.78171200        0.00000001        0.00000003
H          -1.27316527        0.87426739        0.42599026
H          -1.27316522       -0.87426741       -0.42599030
H           1.27316528        0.87426743       -0.42599018
H           1.27316525       -0.87426742        0.42599020
6
MD Time 2380.00
C          -0.77928998       -0.00000000       -0.00000002
C           0.77928998        0.00000001        0.00000003
H          -1.25358282        0.87383546        0.44367879
H          -1.25358277       -0.87383549       -0.44367882
H           1.25358282        0.87383550       -0.44367870
H           1.25358280       -0.87383550        0.44367873
6
MD Time 2390.00
C          -0.77657621       -0.00000000       -0.00000002
C           0.77657620        0.00000001        0.00000003
H          -1.23447282        0.87376468        0.46040419
H          -1.23447278       -0.87376471       -0.46040423
H           1.23447283        0.87376472       -0.46040411
H           1.23447281       -0.87376472        0.46040413
6
MD Time 2400.00
C          -0.77357065       -0.00000000       -0.00000002
C           0.77357065        0.00000001        0.00000003
H          -1.21593141        0.87406858        0.47611526
H          -1.21593137       -0.87406861       -0.47611529
H           1.21593141        0.87406862       -0.47611518
H           1.21593140       -0.87406863        0.47611520
6
MD Time 2410.00
C          -0.77027515       -0.00000000       -0.00000002
C           0.77027515        0.00000001        0.00000003
H          -1.19804438        0.87475042        0.49075911
H          -1.19804435       -0.87475046       -0.49075913
H           1.19804439        0.87475047       -0.49075903
H           1.19804438       -0.87475047        0.49075904
6
MD Time 2420.00
C          -0.76669334       -0.00000000       -0.00000002
C           0.76669334        0.00000001        0.00000003
H          -1.18088764        0.87580396        0.50428129
H          -1.18088762       -0.87580399       -0.50428131
H           1.18088765        0.87580400       -0.50428121
H           1.18088765       -0.87580401        0.50428121
6
MD Time 2430.00
C          -0.76283049       -0.00000000       -0.00000002
C           0.76283048        0.00000001        0.00000003
H          -1.16452786        0.87721450        0.51662626
H          -1.16452784       -0.87721454       -0.51662628
H           1.16452787        0.87721454       -0.51662618
H           1.16452787       -0.87721456        0.51662618
6
MD Time 2440.00
C          -0.75869343       -0.00000000       -0.00000002
C           0.75869342        0.00000001        0.00000003
H          -1.14902322        0.87896032        0.52773798
H          -1.14902320       -0.87896036       -0.52773800
H           1.14902323        0.87896037       -0.52773790
H           1.14902324       -0.87896039        0.52773790
6
MD Time 2450.00
C          -0.75429041       -0.00000000       -0.00000002
C           0.75429041        0.00000001        0.00000003
H          -1.13442421        0.88101410        0.53756073
H          -1.13442419       -0.88101414       -0.53756075
H           1.13442422        0.88101414       -0.53756066
H           1.13442423       -0.88101416        0.53756065
6
MD Time 2460.00
C          -0.74963106       -0.00000000       -0.00000002
C           0.74963105        0.00000001        0.00000003
H          -1.12077439        0.88334441        0.54603999
H          -1.12077438       -0.88334444       -0.54604001
H           1.12077440        0.88334445       -0.54603992
H           1.12077442       -0.88334448        0.54603991
6
MD Time 2470.00
C          -0.74472624       -0.00000000       -0.00000002
C           0.74472624        0.00000001        0.00000003
H          -1.10811112        0.88591719        0.55312336
H          -1.10811112       -0.88591722       -0.55312337
H           1.10811113        0.88591723       -0.55312329
H           1.10811115       -0.88591726        0.55312328
6
MD Time 2480.00
C          -0.73958810       -0.00000000       -0.00000002
C           0.73958810        0.00000001        0.00000003
H          -1.09646614        0.88869702        0.55876141
H          -1.09646614       -0.88869706       -0.55876142
H           1.09646615        0.88869707       -0.55876134
H           1.09646618       -0.88869710        0.55876132
6
MD Time 2490.00
C          -0.73423003       -0.00000000       -0.00000002
C           0.73423002        0.00000001        0.00000003
H          -1.08586611        0.89164829        0.56290852
H          -1.08586611       -0.89164833       -0.56290853
H           1.08586612        0.89164834       -0.56290845
H           1.08586614       -0.89164837        0.56290843
6
MD Time 2500.00
C          -0.72866669       -0.00000000       -0.00000002
C           0.72866668        0.00000001        0.00000003
H          -1.07633297        0.89473610        0.56552357
H          -1.07633298       -0.89473614       -0.56552357
H           1.07633298        0.89473615       -0.56552350
H           1.07633301       -0.89473618        0.56552348
6
MD Time 2510.00
C          -0.72291410       -0.00000000       -0.00000002
C           0.72291410        0.00000001        0.00000003
H          -1.06788432        0.89792701        0.56657051
H          -1.06788432       -0.89792705       -0.56657051
H           1.06788432        0.89792705       -0.56657044
H           1.06788436       -0.89792709        0.56657042
6
MD Time 2520.00
C          -0.71698972       -0.00000000       -0.00000002
C           0.71698971        0.00000001        0.00000003
H          -1.06053355        0.90118958        0.56601883
H          -1.06053357       -0.90118962       -0.56601883
H           1.06053356        0.90118963       -0.56601877
H           1.06053360       -0.90118966        0.56601874
6
MD Time 2530.00
C          -0.71091252       -0.00000000       -0.00000002
C           0.71091252        0.00000001        0.00000003
H          -1.05429007        0.90449477        0.56384391
H          -1.05429009       -0.90449480       -0.56384391
H           1.05429008        0.90449481       -0.56384385
H           1.05429012       -0.90449484        0.56384383
6
MD Time 2540.00
C          -0.70470317       -0.00000000       -0.00000002
C           0.70470316        0.00000001        0.00000003
H          -1.04915929        0.90781607        0.56002729
H          -1.04915931       -0.90781610       -0.56002729
H           1.04915930        0.90781611       -0.56002724
H           1.04915934       -0.90781614        0.56002721
6
MD Time 2550.00
C          -0.69838410       -0.00000000       -0.00000002
C           0.69838410        0.00000001        0.00000003
H          -1.04514268        0.91112963        0.55455679
H          -1.04514270       -0.91112966       -0.55455679
H           1.04514268        0.91112968       -0.55455674
H           1.04514273       -0.91112970        0.55455670
6
MD Time 2560.00
C          -0.69197970       -0.00000000       -0.00000002
C           0.69197970        0.00000001        0.00000002
H          -1.04223767        0.91441417        0.54742664
H          -1.04223769       -0.91441420       -0.54742663
H           1.04223767        0.91441421       -0.54742658
H           1.04223772       -0.91441424        0.54742655
6
MD Time 2570.00
C          -0.68551642       -0.00000000       -0.00000002
C           0.68551642        0.00000001        0.00000002
H          -1.04043758        0.91765078        0.53863749
H          -1.04043760       -0.91765081       -0.53863749
H           1.04043758        0.91765082       -0.53863744
H           1.04043763       -0.91765085        0.53863741
6
MD Time 2580.00
C          -0.67902293       -0.00000000       -0.00000002
C           0.67902293        0.00000001        0.00000002
H          -1.03973145        0.92082271        0.52819647
H          -1.03973148       -0.92082274       -0.52819646
H           1.03973145        0.92082275       -0.52819642
H           1.03973150       -0.92082277        0.52819638
6
MD Time 2590.00
C          -0.67253020       -0.00000000       -0.00000002
C           0.67253020        0.00000001        0.00000002
H          -1.04010386        0.92391498        0.51611709
H          -1.04010389       -0.92391500       -0.51611708
H           1.04010385        0.92391502       -0.51611704
H           1.04010391       -0.92391503        0.51611700
6
MD Time 2600.00
C          -0.66607158       -0.00000000       -0.00000002
C           0.66607158        0.00000001        0.00000002
H          -1.04153468        0.92691396        0.50241927
H          -1.04153471       -0.92691397       -0.50241926
H           1.04153468        0.92691399       -0.50241922
H           1.04153473       -0.92691401        0.50241918
6
MD Time 2610.00
C          -0.65968289       -0.00000000       -0.00000002
C           0.65968289        0.00000000        0.00000002
H          -1.04399887        0.92980694        0.48712927
H          -1.04399890       -0.92980695       -0.48712926
H           1.04399886        0.92980697       -0.48712922
H           1.04399892       -0.92980698        0.48712918
6
MD Time 2620.00
C          -0.65340234       -0.00000000       -0.00000002
C           0.65340234        0.00000000        0.00000002
H          -1.04746618        0.93258157        0.47027966
H          -1.04746621       -0.93258158       -0.47027965
H           1.04746617        0.93258160       -0.47027962
H           1.04746623       -0.93258161        0.47027958
6
MD Time 2630.00
C          -0.64727049       -0.00000000       -0.00000002
C           0.64727049        0.00000000        0.00000002
H          -1.05190090        0.93522537        0.45190931
H          -1.05190093       -0.93522537       -0.45190930
H           1.05190088        0.93522540       -0.45190927
H           1.05190094       -0.93522540        0.45190923
6
MD Time 2640.00
C          -0.64133003       -0.00000000       -0.00000002
C           0.64133004        0.00000000        0.00000002
H          -1.05726161        0.93772514        0.43206338
H          -1.05726164       -0.93772514       -0.43206337
H           1.05726159        0.93772516       -0.43206335
H           1.05726165       -0.93772516        0.43206331
6
MD Time 2650.00
C          -0.63562559       -0.00000000       -0.00000002
C           0.63562559        0.00000000        0.00000002
H          -1.06350099        0.94006649        0.41079336
H          -1.06350103       -0.94006649       -0.41079335
H           1.06350098        0.94006652       -0.41079333
H           1.06350103       -0.94006651        0.41079328
6
MD Time 2660.00
C          -0.63020325       -0.00000000       -0.00000002
C           0.63020325        0.00000000        0.00000002
H          -1.07056568        0.94223339        0.38815710
H          -1.07056571       -0.94223339       -0.38815709
H           1.07056566        0.94223341       -0.38815707
H           1.07056572       -0.94223340        0.38815703
6
MD Time 2670.00
C          -0.62511008       -0.00000000       -0.00000002
C           0.62511008        0.00000000        0.00000002
H          -1.07839618        0.94420780        0.36421893
H          -1.07839622       -0.94420779       -0.36421892
H           1.07839616        0.94420782       -0.36421890
H           1.07839622       -0.94420780        0.36421886
6
MD Time 2680.00
C          -0.62039349       -0.00000000       -0.00000002
C           0.62039349        0.00000000        0.00000002
H          -1.08692699        0.94596944        0.33904974
H          -1.08692702       -0.94596943       -0.33904973
H           1.08692697        0.94596946       -0.33904971
H           1.08692702       -0.94596943        0.33904967
6
MD Time 2690.00
C          -0.61610041       -0.00000000       -0.00000001
C           0.61610041        0.00000000        0.00000002
H          -1.09608676        0.94749577        0.31272713
H          -1.09608679       -0.94749576       -0.31272713
H           1.09608673        0.94749579       -0.31272711
H           1.09608679       -0.94749576        0.31272707
6
MD Time 2700.00
C          -0.61227639       -0.00000000       -0.00000001
C           0.61227639        0.00000000        0.00000002
H          -1.10579872        0.94876210        0.28533551
H          -1.10579876       -0.94876209       -0.28533551
H           1.10579870        0.94876212       -0.28533549
H           1.10579875       -0.94876209        0.28533545
6
MD Time 2710.00
C          -0.60896462       -0.00000000       -0.00000001
C           0.60896462        0.00000000        0.00000002
H          -1.11598128        0.94974193        0.25696618
H          -1.11598132       -0.94974191       -0.25696617
H           1.11598126        0.94974195       -0.25696615
H           1.11598131       -0.94974191        0.25696612
6
MD Time 2720.00
C          -0.60620483       -0.00000001       -0.00000001
C           0.60620483       -0.00000000        0.00000001
H          -1.12654879        0.95040750        0.22771733
H          -1.12654882       -0.95040747       -0.22771733
H           1.12654876        0.95040751       -0.22771730
H           1.12654881       -0.95040747        0.22771728
6
MD Time 2730.00
C          -0.60403221       -0.00000001       -0.00000001
C           0.60403221       -0.00000000        0.00000001
H          -1.13741254        0.95073049        0.19769397
H          -1.13741258       -0.95073047       -0.19769397
H           1.13741252        0.95073050       -0.19769395
H           1.13741257       -0.95073046        0.19769393
6
MD Time 2740.00
C          -0.60247633       -0.00000001       -0.00000001
C           0.60247634       -0.00000000        0.00000001
H          -1.14848197        0.95068295        0.16700770
H          -1.14848200       -0.95068293       -0.16700770
H           1.14848194        0.95068296       -0.16700768
H           1.14848199       -0.95068292        0.16700766
6
MD Time 2750.00
C          -0.60156024       -0.00000001       -0.00000001
C           0.60156025       -0.00000000        0.00000001
H          -1.15966590        0.95023823        0.13577626
H          -1.15966593       -0.95023820       -0.13577627
H           1.15966587        0.95023823       -0.13577625
H           1.15966592       -0.95023818        0.13577623
6
MD Time 2760.00
C          -0.60129961       -0.00000001       -0.00000001
C           0.60129961       -0.00000000        0.00000001
H          -1.17087401        0.94937197        0.10412302
H          -1.17087404       -0.94937194       -0.10412303
H           1.17087398        0.94937198       -0.10412300
H           1.17087402       -0.94937193        0.10412299
6
MD Time 2770.00
C          -0.60170215       -0.00000001       -0.00000001
C           0.60170216       -0.00000000        0.00000001
H          -1.18201821        0.94806317        0.07217613
H          -1.18201825       -0.94806314       -0.07217614
H           1.18201818        0.94806317       -0.07217611
H           1.18201823       -0.94806312        0.07217611
6
MD Time 2780.00
C          -0.60276732       -0.00000001       -0.00000001
C           0.60276732       -0.00000000        0.00000001
H          -1.19301408        0.94629500        0.04006763
H          -1.19301412       -0.94629497       -0.04006765
H           1.19301406        0.94629501       -0.04006762
H           1.19301410       -0.94629495        0.04006762
6
MD Time 2790.00
C          -0.60448620       -0.00000001       -0.00000001
C           0.60448620       -0.00000000        0.00000001
H          -1.20378215        0.94405569        0.00793234
H          -1.20378218       -0.94405566       -0.00793236
H           1.20378212        0.94405569       -0.00793233
H           1.20378216       -0.94405564        0.00793234
6
MD Time 2800.00
C          -0.60684176       -0.00000001       -0.00000001
C           0.60684176       -0.00000000        0.00000001
H          -1.21424903        0.94133909       -0.02409333
H          -1.21424906       -0.94133906        0.02409330
H           1.21424900        0.94133909        0.02409334
H           1.21424904       -0.94133904       -0.02409333
6
MD Time 2810.00
C          -0.60980932       -0.00000001       -0.00000000
C           0.60980932       -0.00000000        0.00000001
H          -1.22434844        0.93814515       -0.05587265
H          -1.22434848       -0.93814512        0.05587261
H           1.22434842        0.93814515        0.05587266
H           1.22434846       -0.93814510       -0.05587263
6
MD Time 2820.00
C          -0.61335727       -0.00000001       -0.00000000
C           0.61335727       -0.00000000        0.00000000
H          -1.23402197        0.93448023       -0.08726980
H          -1.23402200       -0.93448020        0.08726977
H           1.23402194        0.93448023        0.08726981
H           1.23402199       -0.93448018       -0.08726978
6
MD Time 2830.00
C          -0.61744794       -0.00000000       -0.00000000
C           0.61744794       -0.00000000        0.00000000
H          -1.24321959        0.93035716       -0.11815118
H          -1.24321962       -0.93035713        0.11815114
H           1.24321956        0.93035717        0.11815118
H           1.24321960       -0.93035712       -0.11815115
6
MD Time 2840.00
C          -0.62203864       -0.00000000       -0.00000000
C           0.62203864       -0.00000000        0.00000000
H          -1.25190001        0.92579525       -0.14838652
H          -1.25190004       -0.92579523        0.14838647
H           1.25189999        0.92579526        0.14838652
H           1.25190003       -0.92579521       -0.14838648
6
MD Time 2850.00
C          -0.62708269       -0.00000000       -0.00000000
C           0.62708269       -0.00000000        0.00000000
H          -1.26003085        0.92082008       -0.17785001
H          -1.26003088       -0.92082006        0.17784997
H           1.26003083        0.92082009        0.17785002
H           1.26003087       -0.92082004       -0.17784997
6
MD Time 2860.00
C          -0.63253055       -0.00000000        0.00000000
C           0.63253055       -0.00000000       -0.00000000
H          -1.26758854        0.91546323       -0.20642130
H          -1.26758857       -0.91546321        0.20642125
H           1.26758852        0.91546324        0.20642131
H           1.26758856       -0.91546320       -0.20642125
6
MD Time 2870.00
C          -0.63833081       -0.00000000        0.00000000
C           0.63833081       -0.00000000       -0.00000000
H          -1.27455816        0.90976194       -0.23398632
H          -1.27455820       -0.90976192        0.23398626
H           1.27455814        0.90976195        0.23398632
H           1.27455818       -0.90976191       -0.23398626
6
MD Time 2880.00
C          -0.64443114       -0.00000000        0.00000000
C           0.64443115       -0.00000000       -0.00000000
H          -1.28093311        0.90375869       -0.26043804
H          -1.28093314       -0.90375868        0.26043798
H           1.28093309        0.90375870        0.26043804
H           1.28093313       -0.90375867       -0.26043797
6
MD Time 2890.00
C          -0.65077920       -0.00000000        0.00000000
C           0.65077920        0.00000000       -0.00000000
H          -1.28671464        0.89750076       -0.28567709
H          -1.28671468       -0.89750075        0.28567702
H           1.28671463        0.89750077        0.28567709
H           1.28671467       -0.89750074       -0.28567702
6
MD Time 2900.00
C          -0.65732325       -0.00000000        0.00000000
C           0.65732325        0.00000000       -0.00000000
H          -1.29191144        0.89103977       -0.30961226
H          -1.29191147       -0.89103976        0.30961219
H           1.29191142        0.89103978        0.30961226
H           1.29191146       -0.89103975       -0.30961218
6
MD Time 2910.00
C          -0.66401284       -0.00000000        0.00000000
C           0.66401284        0.00000000       -0.00000001
H          -1.29653897        0.88443121       -0.33216086
H          -1.29653900       -0.88443121        0.33216079
H           1.29653896        0.88443122        0.33216086
H           1.29653900       -0.88443121       -0.33216078
6
MD Time 2920.00
C          -0.67079919       -0.00000000        0.00000000
C           0.67079919        0.00000000       -0.00000001
H          -1.30061897        0.87773402       -0.35324904
H          -1.30061900       -0.87773402        0.35324896
H           1.30061896        0.87773403        0.35324904
H           1.30061900       -0.87773402       -0.35324895
6
MD Time 2930.00
C          -0.67763557       -0.00000000        0.00000001
C           0.67763557        0.00000000       -0.00000001
H          -1.30417880        0.87101010       -0.37281190
H          -1.30417883       -0.87101011        0.37281182
H           1.30417879        0.87101011        0.37281190
H           1.30417883       -0.87101011       -0.37281180
6
MD Time 2940.00
C          -0.68447751       -0.00000000        0.00000001
C           0.68447751        0.00000000       -0.00000001
H          -1.30725086        0.86432392       -0.39079363
H          -1.30725089       -0.86432392        0.39079355
H           1.30725085        0.86432393        0.39079363
H           1.30725089       -0.86432393       -0.39079353
6
MD Time 2950.00
C          -0.69128292       -0.00000000        0.00000001
C           0.69128292        0.00000000       -0.00000001
H          -1.30987195        0.85774207       -0.40714750
H          -1.30987198       -0.85774209        0.40714742
H           1.30987194        0.85774209        0.40714750
H           1.30987199       -0.85774209       -0.40714739
6
MD Time 2960.00
C          -0.69801218       -0.00000000        0.00000001
C           0.69801218        0.00000000       -0.00000001
H          -1.31208270        0.85133292       -0.42183576
H          -1.31208273       -0.85133293        0.42183567
H           1.31208270        0.85133293        0.42183576
H           1.31208274       -0.85133294       -0.42183564
6
MD Time 2970.00
C          -0.70462807       -0.00000000        0.00000001
C           0.70462807        0.00000000       -0.00000001
H          -1.31392697        0.84516612       -0.43482947
H          -1.31392699       -0.84516614        0.43482938
H           1.31392696        0.84516613        0.43482947
H           1.31392701       -0.84516615       -0.43482935
6
MD Time 2980.00
C          -0.71109581       -0.00000000        0.00000001
C           0.71109581        0.00000000       -0.00000001
H          -1.31545121        0.83931225       -0.44610829
H          -1.31545123       -0.83931228        0.44610820
H           1.31545120        0.83931226        0.44610829
H           1.31545125       -0.83931229       -0.44610817
6
MD Time 2990.00
C          -0.71738287        0.00000000        0.00000001
C           0.71738286        0.00000001       -0.00000001
H          -1.31670391        0.83384237       -0.45566013
H          -1.31670394       -0.83384240        0.45566004
H           1.31670391        0.83384238        0.45566013
H           1.31670395       -0.83384241       -0.45566001
