6
MD Time 0.00
C          -1.00424993        0.00000000        0.00000000
C           1.00424993        0.00000000        0.00000000
H          -1.57974221        0.85087473        0.35244385
H          -1.57974221       -0.85087473       -0.35244385
H           1.57974221        0.85087473       -0.35244385
H           1.57974221       -0.85087473        0.35244385
6
MD Time 10.00
C          -1.00411130        0.00000000       -0.00000000
C           1.00411130       -0.00000000        0.00000000
H          -1.57962250        0.85107920        0.35238200
H          -1.57962250       -0.85107920       -0.35238200
H           1.57962250        0.85107920       -0.35238200
H           1.57962250       -0.85107920        0.35238200
6
MD Time 20.00
C          -1.00369557        0.00000000       -0.00000000
C           1.00369557       -0.00000000        0.00000000
H          -1.57926200        0.85168956        0.35219511
H          -1.57926200       -0.85168956       -0.35219511
H           1.57926200        0.85168956       -0.35219511
H           1.57926200       -0.85168956        0.35219511
6
MD Time 30.00
C          -1.00300316        0.00000000       -0.00000000
C           1.00300316       -0.00000000        0.00000000
H          -1.57865657        0.85269668        0.35187924
H          -1.57865657       -0.85269668       -0.35187924
H           1.57865657        0.85269668       -0.35187924
H           1.57865657       -0.85269668        0.35187924
6
MD Time 40.00
C          -1.00203479        0.00000000       -0.00000000
C           1.00203479       -0.00000000        0.00000000
H          -1.57779954        0.85408559        0.35142793
H          -1.57779954       -0.85408559       -0.35142793
H           1.57779954        0.85408559       -0.35142793
H           1.57779954       -0.85408559        0.35142793
6
MD Time 50.00
C          -1.00079138        0.00000000       -0.00000000
C           1.00079138       -0.00000000        0.00000000
H          -1.57668184        0.85583592        0.35083242
H          -1.57668184       -0.85583592       -0.35083242
H           1.57668184        0.85583592       -0.35083242
H           1.57668184       -0.85583592        0.35083242
6
MD Time 60.00
C          -0.99927404        0.00000000       -0.00000000
C           0.99927404       -0.00000000        0.00000000
H          -1.57529239        0.85792232        0.35008183
H          -1.57529239       -0.85792232       -0.35008183
H           1.57529239        0.85792232       -0.35008183
H           1.57529239       -0.85792232        0.35008183
6
MD Time 70.00
C          -0.99748396        0.00000000       -0.00000000
C           0.99748396       -0.00000000        0.00000000
H          -1.57361845        0.86031520        0.34916354
H          -1.57361845       -0.86031520       -0.34916354
H           1.57361845        0.86031520       -0.34916354
H           1.57361845       -0.86031520        0.34916354
6
MD Time 80.00
C          -0.99542241        0.00000000       -0.00000000
C           0.99542241       -0.00000000        0.00000000
H          -1.57164602        0.86298132        0.34806344
H          -1.57164602       -0.86298132       -0.34806344
H           1.57164602        0.86298132       -0.34806344
H           1.57164602       -0.86298132        0.34806344
6
MD Time 90.00
C          -0.99309060        0.00000000       -0.00000000
C           0.99309060       -0.00000000        0.00000000
H          -1.56936034        0.86588465        0.34676632
H          -1.56936034       -0.86588465       -0.34676632
H           1.56936034        0.86588465       -0.34676632
H           1.56936034       -0.86588465        0.34676632
6
MD Time 100.00
C          -0.99048964        0.00000000       -0.00000000
C           0.99048964       -0.00000000        0.00000000
H          -1.56674630        0.86898710        0.34525626
H          -1.56674630       -0.86898710       -0.34525626
H           1.56674630        0.86898710       -0.34525626
H           1.56674630       -0.86898710        0.34525626
6
MD Time 110.00
C          -0.98762044        0.00000000       -0.00000000
C           0.98762044       -0.00000000        0.00000000
H          -1.56378894        0.87224938        0.34351693
H          -1.56378894       -0.87224938       -0.34351693
H           1.56378894        0.87224938       -0.34351693
H           1.56378894       -0.87224938        0.34351693
6
MD Time 120.00
C          -0.98448367        0.00000000       -0.00000000
C           0.98448367       -0.00000000        0.00000000
H          -1.56047389        0.87563177        0.34153200
H          -1.56047389       -0.87563177       -0.34153200
H           1.56047390        0.87563177       -0.34153200
H           1.56047390       -0.87563177        0.34153200
6
MD Time 130.00
C          -0.98107966        0.00000000       -0.00000000
C           0.98107966       -0.00000000        0.00000000
H          -1.55678778        0.87909485        0.33928544
H          -1.55678778       -0.87909485       -0.33928544
H           1.55678778        0.87909485       -0.33928544
H           1.55678778       -0.87909485        0.33928544
6
MD Time 140.00
C          -0.97740836        0.00000000       -0.00000000
C           0.97740836       -0.00000000        0.00000000
H          -1.55271861        0.88260026        0.33676183
H          -1.55271861       -0.88260026       -0.33676183
H           1.55271861        0.88260026       -0.33676183
H           1.55271861       -0.88260026        0.33676183
6
MD Time 150.00
C          -0.97346927        0.00000000       -0.00000000
C           0.97346927       -0.00000000        0.00000000
H          -1.54825610        0.88611134        0.33394660
H          -1.54825610       -0.88611134       -0.33394660
H           1.54825610        0.88611134       -0.33394660
H           1.54825610       -0.88611134        0.33394660
6
MD Time 160.00
C          -0.96926141        0.00000000       -0.00000000
C           0.96926141       -0.00000000        0.00000000
H          -1.54339197        0.88959367        0.33082629
H          -1.54339197       -0.88959367       -0.33082629
H           1.54339197        0.88959368       -0.33082629
H           1.54339197       -0.88959368        0.33082629
6
MD Time 170.00
C          -0.96478330        0.00000000       -0.00000000
C           0.96478330       -0.00000000        0.00000000
H          -1.53812016        0.89301564        0.32738872
H          -1.53812016       -0.89301564       -0.32738872
H           1.53812016        0.89301564       -0.32738872
H           1.53812016       -0.89301564        0.32738872
6
MD Time 180.00
C          -0.96003290        0.00000000       -0.00000000
C           0.96003290       -0.00000000        0.00000000
H          -1.53243706        0.89634881        0.32362313
H          -1.53243705       -0.89634881       -0.32362313
H           1.53243706        0.89634882       -0.32362313
H           1.53243706       -0.89634881        0.32362313
6
MD Time 190.00
C          -0.95500763        0.00000000        0.00000000
C           0.95500763       -0.00000000        0.00000000
H          -1.52634158        0.89956833        0.31952027
H          -1.52634158       -0.89956833       -0.31952026
H           1.52634158        0.89956833       -0.31952027
H           1.52634158       -0.89956833        0.31952026
6
MD Time 200.00
C          -0.94970436        0.00000000        0.00000000
C           0.94970436       -0.00000000        0.00000000
H          -1.51983529        0.90265316        0.31507249
H          -1.51983529       -0.90265316       -0.31507249
H           1.51983529        0.90265316       -0.31507249
H           1.51983529       -0.90265316        0.31507249
6
MD Time 210.00
C          -0.94411940        0.00000000        0.00000000
C           0.94411940       -0.00000000        0.00000000
H          -1.51292242        0.90558627        0.31027378
H          -1.51292242       -0.90558627       -0.31027378
H           1.51292242        0.90558627       -0.31027378
H           1.51292242       -0.90558627        0.31027378
6
MD Time 220.00
C          -0.93824853        0.00000000        0.00000000
C           0.93824853       -0.00000000        0.00000000
H          -1.50560989        0.90835480        0.30511970
H          -1.50560988       -0.90835480       -0.30511970
H           1.50560989        0.90835480       -0.30511970
H           1.50560989       -0.90835480        0.30511969
6
MD Time 230.00
C          -0.93208705       -0.00000000        0.00000000
C           0.93208705       -0.00000000        0.00000000
H          -1.49790720        0.91095002        0.29960740
H          -1.49790720       -0.91095002       -0.29960740
H           1.49790720        0.91095003       -0.29960740
H           1.49790720       -0.91095003        0.29960740
6
MD Time 240.00
C          -0.92562979       -0.00000000        0.00000000
C           0.92562979       -0.00000000       -0.00000000
H          -1.48982642        0.91336739        0.29373555
H          -1.48982642       -0.91336739       -0.29373555
H           1.48982642        0.91336739       -0.29373555
H           1.48982642       -0.91336739        0.29373555
6
MD Time 250.00
C          -0.91887116       -0.00000000        0.00000000
C           0.91887116       -0.00000000       -0.00000000
H          -1.48138198        0.91560634        0.28750421
H          -1.48138198       -0.91560634       -0.28750421
H           1.48138198        0.91560634       -0.28750421
H           1.48138198       -0.91560634        0.28750421
6
MD Time 260.00
C          -0.91180525       -0.00000000        0.00000000
C           0.91180525       -0.00000000       -0.00000000
H          -1.47259056        0.91767018        0.28091475
H          -1.47259056       -0.91767018       -0.28091475
H           1.47259056        0.91767018       -0.28091475
H           1.47259056       -0.91767018        0.28091475
6
MD Time 270.00
C          -0.90442589       -0.00000000        0.00000000
C           0.90442589       -0.00000000       -0.00000000
H          -1.46347085        0.91956578        0.27396972
H          -1.46347085       -0.91956578       -0.27396972
H           1.46347085        0.91956578       -0.27396972
H           1.46347085       -0.91956578        0.27396972
6
MD Time 280.00
C          -0.89672675       -0.00000000        0.00000000
C           0.89672675       -0.00000000       -0.00000000
H          -1.45404334        0.92130325        0.26667269
H          -1.45404333       -0.92130325       -0.26667270
H           1.45404334        0.92130325       -0.26667269
H           1.45404334       -0.92130325        0.26667270
6
MD Time 290.00
C          -0.88870146       -0.00000000        0.00000000
C           0.88870146       -0.00000000       -0.00000000
H          -1.44433000        0.92289552        0.25902814
H          -1.44433000       -0.92289552       -0.25902814
H           1.44433000        0.92289552       -0.25902813
H           1.44433000       -0.92289552        0.25902814
6
MD Time 300.00
C          -0.88034374       -0.00000000        0.00000000
C           0.88034374       -0.00000000       -0.00000000
H          -1.43435406        0.92435787        0.25104124
H          -1.43435405       -0.92435787       -0.25104124
H           1.43435406        0.92435787       -0.25104123
H           1.43435406       -0.92435787        0.25104124
6
MD Time 310.00
C          -0.87164758       -0.00000000        0.00000000
C           0.87164758       -0.00000000       -0.00000000
H          -1.42413958        0.92570740        0.24271778
H          -1.42413958       -0.92570740       -0.24271779
H           1.42413958        0.92570740       -0.24271778
H           1.42413958       -0.92570740        0.24271778
6
MD Time 320.00
C          -0.86260738       -0.00000000        0.00000000
C           0.86260738       -0.00000000       -0.00000000
H          -1.41371120        0.92696240        0.23406401
H          -1.41371120       -0.92696240       -0.23406401
H           1.41371120        0.92696240       -0.23406401
H           1.41371120       -0.92696240        0.23406401
6
MD Time 330.00
C          -0.85321821       -0.00000000        0.00000000
C           0.85321821       -0.00000000       -0.00000000
H          -1.40309370        0.92814172        0.22508649
H          -1.40309370       -0.92814172       -0.22508650
H           1.40309370        0.92814172       -0.22508649
H           1.40309370       -0.92814172        0.22508650
6
MD Time 340.00
C          -0.84347603       -0.00000000        0.00000000
C           0.84347603       -0.00000000       -0.00000000
H          -1.39231165        0.92926408        0.21579206
H          -1.39231165       -0.92926408       -0.21579207
H           1.39231165        0.92926408       -0.21579206
H           1.39231165       -0.92926408        0.21579206
6
MD Time 350.00
C          -0.83337797       -0.00000000        0.00000000
C           0.83337797       -0.00000000       -0.00000000
H          -1.38138906        0.93034738        0.20618771
H          -1.38138905       -0.93034738       -0.20618772
H           1.38138906        0.93034739       -0.20618771
H           1.38138906       -0.93034738        0.20618772
6
MD Time 360.00
C          -0.82292261       -0.00000000        0.00000000
C           0.82292261       -0.00000000       -0.00000000
H          -1.37034895        0.93140801        0.19628062
H          -1.37034895       -0.93140801       -0.19628063
H           1.37034895        0.93140801       -0.19628062
H           1.37034895       -0.93140801        0.19628062
6
MD Time 370.00
C          -0.81211041       -0.00000000        0.00000000
C           0.81211041       -0.00000000       -0.00000000
H          -1.35921308        0.93246016        0.18607814
H          -1.35921307       -0.93246016       -0.18607815
H           1.35921307        0.93246016       -0.18607813
H           1.35921307       -0.93246016        0.18607814
6
MD Time 380.00
C          -0.80094402       -0.00000000        0.00000000
C           0.80094402       -0.00000000       -0.00000000
H          -1.34800156        0.93351523        0.17558785
H          -1.34800156       -0.93351523       -0.17558787
H           1.34800156        0.93351523       -0.17558785
H           1.34800156       -0.93351523        0.17558786
6
MD Time 390.00
C          -0.78942880       -0.00000000        0.00000000
C           0.78942880       -0.00000000       -0.00000000
H          -1.33673265        0.93458128        0.16481772
H          -1.33673265       -0.93458128       -0.16481774
H           1.33673265        0.93458128       -0.16481772
H           1.33673265       -0.93458128        0.16481773
6
MD Time 400.00
C          -0.77757330       -0.00000000        0.00000000
C           0.77757330       -0.00000000       -0.00000000
H          -1.32542250        0.93566259        0.15377621
H          -1.32542250       -0.93566259       -0.15377622
H           1.32542250        0.93566259       -0.15377620
H           1.32542250       -0.93566259        0.15377621
6
MD Time 410.00
C          -0.76538980       -0.00000000        0.00000000
C           0.76538980       -0.00000000       -0.00000000
H          -1.31408504        0.93675935        0.14247247
H          -1.31408503       -0.93675935       -0.14247248
H           1.31408503        0.93675935       -0.14247246
H           1.31408503       -0.93675935        0.14247247
6
MD Time 420.00
C          -0.75289503       -0.00000000        0.00000000
C           0.75289503       -0.00000000       -0.00000000
H          -1.30273187        0.93786748        0.13091661
H          -1.30273186       -0.93786748       -0.13091663
H           1.30273187        0.93786748       -0.13091660
H           1.30273186       -0.93786748        0.13091662
6
MD Time 430.00
C          -0.74011078       -0.00000000        0.00000000
C           0.74011078       -0.00000000       -0.00000000
H          -1.29137236        0.93897864        0.11911994
H          -1.29137236       -0.93897864       -0.11911996
H           1.29137236        0.93897865       -0.11911992
H           1.29137236       -0.93897864        0.11911995
6
MD Time 440.00
C          -0.72706478       -0.00000000        0.00000000
C           0.72706478       -0.00000000       -0.00000000
H          -1.28001373        0.94008037        0.10709520
H          -1.28001372       -0.94008037       -0.10709522
H           1.28001373        0.94008038       -0.10709519
H           1.28001372       -0.94008037        0.10709521
6
MD Time 450.00
C          -0.71379153       -0.00000000        0.00000000
C           0.71379153       -0.00000000       -0.00000000
H          -1.26866128        0.94115641        0.09485689
H          -1.26866127       -0.94115641       -0.09485691
H           1.26866128        0.94115642       -0.09485687
H           1.26866127       -0.94115641        0.09485690
6
MD Time 460.00
C          -0.70033328       -0.00000000        0.00000000
C           0.70033328       -0.00000000       -0.00000000
H          -1.25731875        0.94218721        0.08242147
H          -1.25731874       -0.94218720       -0.08242149
H           1.25731874        0.94218721       -0.08242145
H           1.25731874       -0.94218721        0.08242148
6
MD Time 470.00
C          -0.68674103       -0.00000000        0.00000000
C           0.68674103       -0.00000000       -0.00000000
H          -1.24598873        0.94315052        0.06980761
H          -1.24598872       -0.94315052       -0.06980764
H           1.24598872        0.94315052       -0.06980759
H           1.24598872       -0.94315052        0.06980762
6
MD Time 480.00
C          -0.67307566       -0.00000000        0.00000000
C           0.67307566       -0.00000000       -0.00000000
H          -1.23467322        0.94402224        0.05703638
H          -1.23467321       -0.94402224       -0.05703640
H           1.23467322        0.94402224       -0.05703636
H           1.23467321       -0.94402224        0.05703639
6
MD Time 490.00
C          -0.65940898       -0.00000000        0.00000000
C           0.65940898        0.00000000       -0.00000000
H          -1.22337426        0.94477725        0.04413133
H          -1.22337425       -0.94477725       -0.04413136
H           1.22337425        0.94477725       -0.04413131
H           1.22337425       -0.94477725        0.04413134
6
MD Time 500.00
C          -0.64582474       -0.00000000        0.00000000
C           0.64582474        0.00000000       -0.00000000
H          -1.21209462        0.94539039        0.03111858
H          -1.21209462       -0.94539039       -0.03111862
H           1.21209462        0.94539039       -0.03111856
H           1.21209462       -0.94539039        0.03111860
6
MD Time 510.00
C          -0.63241958       -0.00000000        0.00000000
C           0.63241958        0.00000000       -0.00000000
H          -1.20083863        0.94583752        0.01802681
H          -1.20083863       -0.94583752       -0.01802684
H           1.20083863        0.94583753       -0.01802678
H           1.20083863       -0.94583753        0.01802682
6
MD Time 520.00
C          -0.61930353       -0.00000000        0.00000000
C           0.61930353        0.00000000       -0.00000000
H          -1.18961298        0.94609659        0.00488707
H          -1.18961297       -0.94609659       -0.00488711
H           1.18961297        0.94609659       -0.00488705
H           1.18961297       -0.94609659        0.00488709
6
MD Time 530.00
C          -0.60660019       -0.00000000        0.00000000
C           0.60660019        0.00000000       -0.00000000
H          -1.17842757        0.94614868       -0.00826729
H          -1.17842757       -0.94614868        0.00826725
H           1.17842757        0.94614868        0.00826732
H           1.17842757       -0.94614868       -0.00826727
6
MD Time 540.00
C          -0.59444614       -0.00000000        0.00000000
C           0.59444614        0.00000000       -0.00000000
H          -1.16729646        0.94597911       -0.02140103
H          -1.16729645       -0.94597911        0.02140098
H           1.16729645        0.94597911        0.02140105
H           1.16729645       -0.94597911       -0.02140100
6
MD Time 550.00
C          -0.58298946       -0.00000000        0.00000000
C           0.58298946        0.00000000       -0.00000000
H          -1.15623862        0.94557847       -0.03447726
H          -1.15623861       -0.94557847        0.03447722
H           1.15623861        0.94557847        0.03447729
H           1.15623861       -0.94557847       -0.03447724
6
MD Time 560.00
C          -0.57238709       -0.00000000        0.00000000
C           0.57238709        0.00000000       -0.00000000
H          -1.14527879        0.94494361       -0.04745799
H          -1.14527878       -0.94494361        0.04745795
H           1.14527878        0.94494361        0.04745803
H           1.14527878       -0.94494361       -0.04745797
6
MD Time 570.00
C          -0.56280087       -0.00000000        0.00000000
C           0.56280087        0.00000000       -0.00000000
H          -1.13444817        0.94407859       -0.06030456
H          -1.13444816       -0.94407859        0.06030451
H           1.13444816        0.94407859        0.06030460
H           1.13444816       -0.94407859       -0.06030454
6
MD Time 580.00
C          -0.55439203       -0.00000000        0.00000000
C           0.55439204        0.00000000       -0.00000000
H          -1.12378498        0.94299556       -0.07297823
H          -1.12378497       -0.94299557        0.07297819
H           1.12378497        0.94299556        0.07297827
H           1.12378497       -0.94299557       -0.07297821
6
MD Time 590.00
C          -0.54731451       -0.00000000        0.00000000
C           0.54731451        0.00000000       -0.00000000
H          -1.11333488        0.94171557       -0.08544082
H          -1.11333488       -0.94171558        0.08544077
H           1.11333488        0.94171557        0.08544086
H           1.11333487       -0.94171557       -0.08544079
6
MD Time 600.00
C          -0.54170715       -0.00000000        0.00000000
C           0.54170715        0.00000000       -0.00000000
H          -1.10315121        0.94026921       -0.09765532
H          -1.10315120       -0.94026921        0.09765527
H           1.10315120        0.94026921        0.09765536
H           1.10315120       -0.94026921       -0.09765529
6
MD Time 610.00
C          -0.53768559       -0.00000000        0.00000000
C           0.53768560        0.00000000       -0.00000000
H          -1.09329484        0.93869713       -0.10958660
H          -1.09329484       -0.93869714        0.10958654
H           1.09329483        0.93869713        0.10958664
H           1.09329483       -0.93869713       -0.10958657
6
MD Time 620.00
C          -0.53533473       -0.00000000        0.00000000
C           0.53533473        0.00000000       -0.00000000
H          -1.08383393        0.93705030       -0.12120208
H          -1.08383393       -0.93705031        0.12120202
H           1.08383392        0.93705031        0.12120212
H           1.08383392       -0.93705031       -0.12120205
6
MD Time 630.00
C          -0.53470251       -0.00000000        0.00000000
C           0.53470251        0.00000000       -0.00000000
H          -1.07484315        0.93538993       -0.13247240
H          -1.07484314       -0.93538994        0.13247235
H           1.07484314        0.93538993        0.13247245
H           1.07484314       -0.93538993       -0.13247237
6
MD Time 640.00
C          -0.53579622       -0.00000000        0.00000000
C           0.53579622        0.00000000       -0.00000000
H          -1.06640261        0.93378689       -0.14337205
H          -1.06640260       -0.93378690        0.14337199
H           1.06640260        0.93378689        0.14337209
H           1.06640260       -0.93378689       -0.14337202
6
MD Time 650.00
C          -0.53858168       -0.00000000        0.00000000
C           0.53858168        0.00000000       -0.00000000
H          -1.05859642        0.93232067       -0.15387984
H          -1.05859641       -0.93232068        0.15387978
H           1.05859641        0.93232067        0.15387989
H           1.05859641       -0.93232068       -0.15387981
6
MD Time 660.00
C          -0.54298555       -0.00000000        0.00000000
C           0.54298555        0.00000000       -0.00000000
H          -1.05151083        0.93107765       -0.16397935
H          -1.05151082       -0.93107766        0.16397928
H           1.05151082        0.93107765        0.16397939
H           1.05151082       -0.93107766       -0.16397932
6
MD Time 670.00
C          -0.54890037       -0.00000000       -0.00000000
C           0.54890037        0.00000000       -0.00000000
H          -1.04523203        0.93014868       -0.17365902
H          -1.04523202       -0.93014869        0.17365896
H           1.04523202        0.93014868        0.17365907
H           1.04523202       -0.93014869       -0.17365899
6
MD Time 680.00
C          -0.55619166        0.00000000       -0.00000000
C           0.55619166        0.00000000       -0.00000000
H          -1.03984373        0.92962601       -0.18291215
H          -1.03984373       -0.92962602        0.18291209
H           1.03984372        0.92962601        0.18291220
H           1.03984372       -0.92962602       -0.18291212
6
MD Time 690.00
C          -0.56470604        0.00000000       -0.00000000
C           0.56470604        0.00000000       -0.00000000
H          -1.03542461        0.92959964       -0.19173646
H          -1.03542460       -0.92959965        0.19173639
H           1.03542460        0.92959964        0.19173651
H           1.03542460       -0.92959965       -0.19173642
6
MD Time 700.00
C          -0.57427952        0.00000000       -0.00000000
C           0.57427952        0.00000000       -0.00000000
H          -1.03204571        0.93015319       -0.20013341
H          -1.03204570       -0.93015320        0.20013335
H           1.03204569        0.93015319        0.20013347
H           1.03204570       -0.93015320       -0.20013338
6
MD Time 710.00
C          -0.58474503        0.00000000       -0.00000000
C           0.58474503        0.00000000       -0.00000000
H          -1.02976810        0.93135960       -0.20810728
H          -1.02976809       -0.93135962        0.20810721
H           1.02976808        0.93135960        0.20810733
H           1.02976809       -0.93135961       -0.20810724
6
MD Time 720.00
C          -0.59593885        0.00000000       -0.00000000
C           0.59593886        0.00000000       -0.00000000
H          -1.02864083        0.93327692       -0.21566388
H          -1.02864083       -0.93327694        0.21566381
H           1.02864082        0.93327692        0.21566394
H           1.02864082       -0.93327693       -0.21566385
6
MD Time 730.00
C          -0.60770556       -0.00000000       -0.00000000
C           0.60770556        0.00000000       -0.00000000
H          -1.02869943        0.93594445       -0.22280931
H          -1.02869942       -0.93594447        0.22280924
H           1.02869941        0.93594445        0.22280937
H           1.02869942       -0.93594446       -0.22280928
6
MD Time 740.00
C          -0.61990144       -0.00000000       -0.00000000
C           0.61990144        0.00000000        0.00000000
H          -1.02996494        0.93937974       -0.22954859
H          -1.02996493       -0.93937976        0.22954852
H           1.02996492        0.93937974        0.22954865
H           1.02996493       -0.93937975       -0.22954855
6
MD Time 750.00
C          -0.63239659       -0.00000000       -0.00000000
C           0.63239660        0.00000000        0.00000000
H          -1.03244370        0.94357655       -0.23588448
H          -1.03244369       -0.94357657        0.23588441
H           1.03244369        0.94357655        0.23588454
H           1.03244369       -0.94357656       -0.23588445
6
MD Time 760.00
C          -0.64507587       -0.00000000       -0.00000000
C           0.64507587        0.00000000        0.00000000
H          -1.03612773        0.94850406       -0.24181656
H          -1.03612773       -0.94850408        0.24181648
H           1.03612772        0.94850405        0.24181662
H           1.03612772       -0.94850407       -0.24181652
6
MD Time 770.00
C          -0.65783892       -0.00000000       -0.00000000
C           0.65783893        0.00000000        0.00000000
H          -1.04099567        0.95410736       -0.24734062
H          -1.04099567       -0.95410738        0.24734054
H           1.04099566        0.95410735        0.24734068
H           1.04099567       -0.95410737       -0.24734059
6
MD Time 780.00
C          -0.67059958       -0.00000000       -0.00000000
C           0.67059958        0.00000000        0.00000000
H          -1.04701421        0.96030918       -0.25244845
H          -1.04701421       -0.96030920        0.25244838
H           1.04701420        0.96030917        0.25244852
H           1.04701420       -0.96030919       -0.25244842
6
MD Time 790.00
C          -0.68328483       -0.00000000       -0.00000000
C           0.68328483        0.00000000        0.00000000
H          -1.05413975        0.96701262       -0.25712800
H          -1.05413974       -0.96701264        0.25712793
H           1.05413973        0.96701261        0.25712807
H           1.05413974       -0.96701263       -0.25712797
6
MD Time 800.00
C          -0.69583357       -0.00000000       -0.00000000
C           0.69583357        0.00000000        0.00000000
H          -1.06232026        0.97410465       -0.26136382
H          -1.06232025       -0.97410467        0.26136375
H           1.06232024        0.97410465        0.26136389
H           1.06232025       -0.97410466       -0.26136379
6
MD Time 810.00
C          -0.70819522       -0.00000000       -0.00000000
C           0.70819522        0.00000000        0.00000000
H          -1.07149710        0.98146008       -0.26513779
H          -1.07149709       -0.98146010        0.26513771
H           1.07149708        0.98146007        0.26513786
H           1.07149709       -0.98146009       -0.26513776
6
MD Time 820.00
C          -0.72032838       -0.00000000       -0.00000000
C           0.72032838        0.00000000        0.00000000
H          -1.08160676        0.98894563       -0.26842995
H          -1.08160675       -0.98894566        0.26842987
H           1.08160674        0.98894562        0.26843002
H           1.08160675       -0.98894564       -0.26842992
6
MD Time 830.00
C          -0.73219954       -0.00000000       -0.00000001
C           0.73219954        0.00000000        0.00000000
H          -1.09258239        0.99642397       -0.27121947
H          -1.09258239       -0.99642399        0.27121939
H           1.09258238        0.99642396        0.27121954
H           1.09258239       -0.99642398       -0.27121943
6
MD Time 840.00
C          -0.74378192       -0.00000000       -0.00000001
C           0.74378193        0.00000000        0.00000000
H          -1.10435515        1.00375736       -0.27348548
H          -1.10435515       -1.00375738        0.27348540
H           1.10435514        1.00375735        0.27348555
H           1.10435515       -1.00375737       -0.27348544
6
MD Time 850.00
C          -0.75505442       -0.00000000       -0.00000001
C           0.75505442        0.00000000        0.00000000
H          -1.11685530        1.01081093       -0.27520797
H          -1.11685529       -1.01081096        0.27520789
H           1.11685528        1.01081092        0.27520805
H           1.11685529       -1.01081094       -0.27520794
6
MD Time 860.00
C          -0.76600070       -0.00000000       -0.00000001
C           0.76600070        0.00000000        0.00000000
H          -1.13001306        1.01745543       -0.27636853
H          -1.13001306       -1.01745546        0.27636845
H           1.13001305        1.01745542        0.27636861
H           1.13001306       -1.01745544       -0.27636850
6
MD Time 870.00
C          -0.77660838       -0.00000000       -0.00000001
C           0.77660838        0.00000000        0.00000000
H          -1.14375938        1.02356945       -0.27695090
H          -1.14375937       -1.02356947        0.27695082
H           1.14375936        1.02356943        0.27695098
H           1.14375937       -1.02356945       -0.27695087
6
MD Time 880.00
C          -0.78686843       -0.00000000       -0.00000001
C           0.78686843        0.00000000        0.00000001
H          -1.15802636        1.02904116       -0.27694153
H          -1.15802636       -1.02904119        0.27694145
H           1.15802635        1.02904115        0.27694161
H           1.15802635       -1.02904117       -0.27694150
6
MD Time 890.00
C          -0.79677450       -0.00000000       -0.00000001
C           0.79677450        0.00000000        0.00000001
H          -1.17274776        1.03376969       -0.27632993
H          -1.17274775       -1.03376972        0.27632984
H           1.17274775        1.03376968        0.27633001
H           1.17274775       -1.03376970       -0.27632990
6
MD Time 900.00
C          -0.80632254       -0.00000000       -0.00000001
C           0.80632254        0.00000000        0.00000001
H          -1.18785922        1.03766604       -0.27510891
H          -1.18785921       -1.03766606        0.27510882
H           1.18785920        1.03766603        0.27510899
H           1.18785921       -1.03766604       -0.27510887
6
MD Time 910.00
C          -0.81551029       -0.00000000       -0.00000001
C           0.81551029        0.00000000        0.00000001
H          -1.20329852        1.04065378       -0.27327479
H          -1.20329851       -1.04065380        0.27327470
H           1.20329851        1.04065376        0.27327487
H           1.20329852       -1.04065378       -0.27327476
6
MD Time 920.00
C          -0.82433700       -0.00000000       -0.00000001
C           0.82433700        0.00000000        0.00000001
H          -1.21900577        1.04266949       -0.27082749
H          -1.21900577       -1.04266951        0.27082740
H           1.21900576        1.04266947        0.27082758
H           1.21900577       -1.04266949       -0.27082746
6
MD Time 930.00
C          -0.83280308       -0.00000000       -0.00000001
C           0.83280308        0.00000000        0.00000001
H          -1.23492355        1.04366306       -0.26777057
H          -1.23492355       -1.04366308        0.26777048
H           1.23492354        1.04366305        0.26777065
H           1.23492355       -1.04366306       -0.26777054
6
MD Time 940.00
C          -0.84090985       -0.00000000       -0.00000001
C           0.84090985        0.00000000        0.00000001
H          -1.25099706        1.04359786       -0.26411120
H          -1.25099705       -1.04359788        0.26411110
H           1.25099704        1.04359785        0.26411128
H           1.25099705       -1.04359786       -0.26411117
6
MD Time 950.00
C          -0.84865932       -0.00000000       -0.00000001
C           0.84865932        0.00000000        0.00000001
H          -1.26717423        1.04245083       -0.25986011
H          -1.26717422       -1.04245085        0.25986002
H           1.26717422        1.04245081        0.25986019
H           1.26717423       -1.04245083       -0.25986008
6
MD Time 960.00
C          -0.85605397       -0.00000000       -0.00000001
C           0.85605397        0.00000000        0.00000001
H          -1.28340594        1.04021252       -0.25503153
H          -1.28340594       -1.04021254        0.25503144
H           1.28340593        1.04021250        0.25503162
H           1.28340594       -1.04021251       -0.25503150
6
MD Time 970.00
C          -0.86309654       -0.00000000       -0.00000001
C           0.86309654        0.00000000        0.00000001
H          -1.29964614        1.03688711       -0.24964305
H          -1.29964613       -1.03688713        0.24964296
H           1.29964613        1.03688710        0.24964313
H           1.29964614       -1.03688711       -0.24964302
6
MD Time 980.00
C          -0.86978993       -0.00000000       -0.00000001
C           0.86978993        0.00000000        0.00000001
H          -1.31585204        1.03249243       -0.24371545
H          -1.31585203       -1.03249245        0.24371536
H           1.31585203        1.03249242        0.24371554
H           1.31585204       -1.03249243       -0.24371543
6
MD Time 990.00
C          -0.87613696       -0.00000000       -0.00000001
C           0.87613696        0.00000000        0.00000001
H          -1.33198432        1.02705985       -0.23727258
H          -1.33198431       -1.02705987        0.23727249
H           1.33198431        1.02705984        0.23727267
H           1.33198432       -1.02705985       -0.23727255
6
MD Time 1000.00
C          -0.88214029       -0.00000000       -0.00000001
C           0.88214029        0.00000000        0.00000001
H          -1.34800734        1.02063426       -0.23034109
H          -1.34800733       -1.02063428        0.23034099
H           1.34800734        1.02063425        0.23034117
H           1.34800734       -1.02063426       -0.23034106
6
MD Time 1010.00
C          -0.88780225       -0.00000000       -0.00000001
C           0.88780225        0.00000000        0.00000001
H          -1.36388938        1.01327385       -0.22295021
H          -1.36388937       -1.01327387        0.22295011
H           1.36388937        1.01327384        0.22295029
H           1.36388938       -1.01327385       -0.22295018
6
MD Time 1020.00
C          -0.89312475       -0.00000000       -0.00000001
C           0.89312475        0.00000000        0.00000001
H          -1.37960279        1.00504989       -0.21513145
H          -1.37960278       -1.00504991        0.21513136
H           1.37960279        1.00504988        0.21513154
H           1.37960279       -1.00504988       -0.21513143
6
MD Time 1030.00
C          -0.89810917       -0.00000000       -0.00000001
C           0.89810917        0.00000000        0.00000001
H          -1.39512421        0.99604627       -0.20691828
H          -1.39512420       -0.99604629        0.20691819
H           1.39512420        0.99604626        0.20691837
H           1.39512421       -0.99604627       -0.20691826
6
MD Time 1040.00
C          -0.90275627       -0.00000000       -0.00000001
C           0.90275627        0.00000000        0.00000001
H          -1.41043462        0.98635894       -0.19834570
H          -1.41043462       -0.98635896        0.19834561
H           1.41043462        0.98635893        0.19834578
H           1.41043463       -0.98635893       -0.19834567
6
MD Time 1050.00
C          -0.90706616       -0.00000000       -0.00000002
C           0.90706616        0.00000000        0.00000001
H          -1.42551941        0.97609497       -0.18944979
H          -1.42551940       -0.97609499        0.18944970
H           1.42551941        0.97609497        0.18944987
H           1.42551942       -0.97609497       -0.18944977
6
MD Time 1060.00
C          -0.91103825       -0.00000000       -0.00000002
C           0.91103825        0.00000000        0.00000001
H          -1.44036820        0.96537146       -0.18026723
H          -1.44036819       -0.96537148        0.18026713
H           1.44036820        0.96537146        0.18026731
H           1.44036820       -0.96537146       -0.18026720
6
MD Time 1070.00
C          -0.91467127       -0.00000000       -0.00000002
C           0.91467127        0.00000000        0.00000002
H          -1.45497456        0.95431395       -0.17083467
H          -1.45497456       -0.95431396        0.17083458
H           1.45497456        0.95431394        0.17083475
H           1.45497457       -0.95431394       -0.17083465
6
MD Time 1080.00
C          -0.91796335       -0.00000000       -0.00000002
C           0.91796335        0.00000000        0.00000002
H          -1.46933553        0.94305452       -0.16118819
H          -1.46933552       -0.94305454        0.16118810
H           1.46933553        0.94305452        0.16118827
H           1.46933553       -0.94305452       -0.16118817
6
MD Time 1090.00
C          -0.92091211       -0.00000000       -0.00000002
C           0.92091211        0.00000000        0.00000002
H          -1.48345080        0.93172954       -0.15136260
H          -1.48345080       -0.93172956        0.15136251
H           1.48345080        0.93172954        0.15136269
H           1.48345081       -0.93172953       -0.15136258
6
MD Time 1100.00
C          -0.92351482       -0.00000000       -0.00000002
C           0.92351482        0.00000000        0.00000002
H          -1.49732176        0.92047691       -0.14139084
H          -1.49732176       -0.92047693        0.14139075
H           1.49732177        0.92047691        0.14139092
H           1.49732177       -0.92047690       -0.14139081
6
MD Time 1110.00
C          -0.92576862       -0.00000000       -0.00000002
C           0.92576862        0.00000000        0.00000002
H          -1.51095018        0.90943312       -0.13130332
H          -1.51095017       -0.90943314        0.13130323
H           1.51095018        0.90943312        0.13130340
H           1.51095019       -0.90943311       -0.13130330
6
MD Time 1120.00
C          -0.92767077       -0.00000000       -0.00000002
C           0.92767077        0.00000000        0.00000002
H          -1.52433668        0.89873002       -0.12112747
H          -1.52433667       -0.89873004        0.12112738
H           1.52433668        0.89873002        0.12112755
H           1.52433669       -0.89873001       -0.12112745
6
MD Time 1130.00
C          -0.92921895       -0.00000000       -0.00000002
C           0.92921895        0.00000000        0.00000002
H          -1.53747910        0.88849156       -0.11088723
H          -1.53747909       -0.88849158        0.11088714
H           1.53747910        0.88849156        0.11088731
H           1.53747911       -0.88849155       -0.11088721
6
MD Time 1140.00
C          -0.93041157       -0.00000000       -0.00000002
C           0.93041157        0.00000000        0.00000002
H          -1.55037069        0.87883062       -0.10060283
H          -1.55037068       -0.87883064        0.10060274
H           1.55037069        0.87883062        0.10060291
H           1.55037069       -0.87883061       -0.10060281
6
MD Time 1150.00
C          -0.93124806       -0.00000000       -0.00000002
C           0.93124806        0.00000000        0.00000002
H          -1.56299840        0.86984615       -0.09029072
H          -1.56299840       -0.86984617        0.09029063
H           1.56299841        0.86984615        0.09029080
H           1.56299841       -0.86984614       -0.09029070
6
MD Time 1160.00
C          -0.93172918       -0.00000000       -0.00000002
C           0.93172918        0.00000000        0.00000002
H          -1.57534140        0.86162080       -0.07996360
H          -1.57534139       -0.86162081        0.07996351
H           1.57534140        0.86162080        0.07996368
H           1.57534141       -0.86162079       -0.07996358
6
MD Time 1170.00
C          -0.93185719       -0.00000000       -0.00000002
C           0.93185719        0.00000000        0.00000002
H          -1.58736978        0.85421917       -0.06963079
H          -1.58736978       -0.85421919        0.06963070
H           1.58736979        0.85421917        0.06963087
H           1.58736979       -0.85421916       -0.06963077
6
MD Time 1180.00
C          -0.93163608       -0.00000000       -0.00000002
C           0.93163608        0.00000000        0.00000002
H          -1.59904387        0.84768687       -0.05929869
H          -1.59904386       -0.84768689        0.05929860
H           1.59904387        0.84768688        0.05929877
H           1.59904388       -0.84768687       -0.05929867
6
MD Time 1190.00
C          -0.93107153       -0.00000000       -0.00000002
C           0.93107153        0.00000000        0.00000002
H          -1.61031394        0.84205032       -0.04897135
H          -1.61031394       -0.84205033        0.04897126
H           1.61031395        0.84205032        0.04897143
H           1.61031395       -0.84205031       -0.04897133
6
MD Time 1200.00
C          -0.93017097       -0.00000000       -0.00000002
C           0.93017097        0.00000000        0.00000002
H          -1.62112058        0.83731729       -0.03865119
H          -1.62112058       -0.83731731        0.03865110
H           1.62112058        0.83731730        0.03865127
H           1.62112059       -0.83731728       -0.03865118
6
MD Time 1210.00
C          -0.92894338       -0.00000000       -0.00000002
C           0.92894338        0.00000000        0.00000002
H          -1.63139553        0.83347822       -0.02833972
H          -1.63139552       -0.83347823        0.02833962
H           1.63139553        0.83347822        0.02833980
H           1.63139554       -0.83347821       -0.02833970
6
MD Time 1220.00
C          -0.92739912       -0.00000000       -0.00000002
C           0.92739911        0.00000000        0.00000002
H          -1.64106304        0.83050793       -0.01803821
H          -1.64106304       -0.83050795        0.01803811
H           1.64106305        0.83050794        0.01803829
H           1.64106305       -0.83050793       -0.01803819
6
MD Time 1230.00
C          -0.92554960       -0.00000000       -0.00000002
C           0.92554960        0.00000000        0.00000002
H          -1.65004164        0.82836783       -0.00774836
H          -1.65004164       -0.82836784        0.00774826
H           1.65004165        0.82836784        0.00774844
H           1.65004165       -0.82836782       -0.00774834
6
MD Time 1240.00
C          -0.92340705       -0.00000000       -0.00000002
C           0.92340705        0.00000000        0.00000002
H          -1.65824605        0.82700821        0.00252720
H          -1.65824604       -0.82700823       -0.00252730
H           1.65824605        0.82700822       -0.00252712
H           1.65824606       -0.82700820        0.00252722
6
MD Time 1250.00
C          -0.92098410       -0.00000000       -0.00000002
C           0.92098410        0.00000000        0.00000002
H          -1.66558927        0.82637070        0.01278448
H          -1.66558926       -0.82637071       -0.01278458
H           1.66558927        0.82637070       -0.01278440
H           1.66558927       -0.82637069        0.01278450
6
MD Time 1260.00
C          -0.91829347       -0.00000000       -0.00000002
C           0.91829347        0.00000000        0.00000002
H          -1.67198464        0.82639051        0.02301785
H          -1.67198463       -0.82639053       -0.02301795
H           1.67198464        0.82639052       -0.02301777
H           1.67198465       -0.82639050        0.02301787
6
MD Time 1270.00
C          -0.91534767       -0.00000000       -0.00000002
C           0.91534767        0.00000000        0.00000002
H          -1.67734781        0.82699867        0.03321984
H          -1.67734780       -0.82699868       -0.03321995
H           1.67734781        0.82699868       -0.03321976
H           1.67734781       -0.82699866        0.03321986
6
MD Time 1280.00
C          -0.91215871       -0.00000000       -0.00000002
C           0.91215871        0.00000000        0.00000002
H          -1.68159842        0.82812385        0.04338114
H          -1.68159841       -0.82812386       -0.04338124
H           1.68159842        0.82812386       -0.04338105
H           1.68159842       -0.82812384        0.04338115
6
MD Time 1290.00
C          -0.90873787       -0.00000000       -0.00000002
C           0.90873787        0.00000000        0.00000002
H          -1.68466166        0.82969409        0.05349054
H          -1.68466165       -0.82969410       -0.05349064
H           1.68466166        0.82969410       -0.05349045
H           1.68466167       -0.82969408        0.05349056
6
MD Time 1300.00
C          -0.90509545       -0.00000000       -0.00000002
C           0.90509545        0.00000000        0.00000002
H          -1.68646953        0.83163816        0.06353510
H          -1.68646952       -0.83163817       -0.06353521
H           1.68646953        0.83163817       -0.06353502
H           1.68646953       -0.83163815        0.06353512
6
MD Time 1310.00
C          -0.90124069       -0.00000000       -0.00000002
C           0.90124069        0.00000000        0.00000002
H          -1.68696179        0.83388675        0.07350029
H          -1.68696177       -0.83388676       -0.07350040
H           1.68696179        0.83388676       -0.07350021
H           1.68696179       -0.83388674        0.07350031
6
MD Time 1320.00
C          -0.89718161       -0.00000000       -0.00000002
C           0.89718160        0.00000000        0.00000002
H          -1.68608678        0.83637339        0.08337015
H          -1.68608677       -0.83637340       -0.08337026
H           1.68608678        0.83637340       -0.08337007
H           1.68608678       -0.83637338        0.08337017
6
MD Time 1330.00
C          -0.89292492       -0.00000000       -0.00000002
C           0.89292492        0.00000000        0.00000002
H          -1.68380199        0.83903525        0.09312755
H          -1.68380197       -0.83903526       -0.09312765
H           1.68380199        0.83903527       -0.09312747
H           1.68380199       -0.83903525        0.09312757
6
MD Time 1340.00
C          -0.88847602       -0.00000000       -0.00000002
C           0.88847601        0.00000000        0.00000002
H          -1.68007442        0.84181376        0.10275438
H          -1.68007441       -0.84181377       -0.10275449
H           1.68007442        0.84181377       -0.10275430
H           1.68007442       -0.84181375        0.10275440
6
MD Time 1350.00
C          -0.88383893       -0.00000000       -0.00000002
C           0.88383893        0.00000000        0.00000002
H          -1.67488089        0.84465509        0.11223184
H          -1.67488088       -0.84465510       -0.11223195
H           1.67488089        0.84465511       -0.11223176
H           1.67488089       -0.84465509        0.11223186
6
MD Time 1360.00
C          -0.87901632       -0.00000000       -0.00000002
C           0.87901632        0.00000000        0.00000002
H          -1.66820817        0.84751065        0.12154065
H          -1.66820816       -0.84751066       -0.12154076
H           1.66820817        0.84751067       -0.12154057
H           1.66820817       -0.84751065        0.12154068
6
MD Time 1370.00
C          -0.87400950       -0.00000000       -0.00000002
C           0.87400950        0.00000000        0.00000002
H          -1.66005308        0.85033741        0.13066130
H          -1.66005306       -0.85033742       -0.13066141
H           1.66005308        0.85033742       -0.13066122
H           1.66005308       -0.85033740        0.13066133
6
MD Time 1380.00
C          -0.86881847       -0.00000000       -0.00000002
C           0.86881847        0.00000000        0.00000002
H          -1.65042251        0.85309828        0.13957429
H          -1.65042249       -0.85309829       -0.13957441
H           1.65042251        0.85309830       -0.13957422
H           1.65042251       -0.85309828        0.13957433
6
MD Time 1390.00
C          -0.86344193       -0.00000000       -0.00000002
C           0.86344192        0.00000000        0.00000002
H          -1.63933343        0.85576245        0.14826037
H          -1.63933341       -0.85576246       -0.14826049
H           1.63933343        0.85576248       -0.14826030
H           1.63933342       -0.85576245        0.14826041
6
MD Time 1400.00
C          -0.85787733       -0.00000000       -0.00000002
C           0.85787733        0.00000000        0.00000002
H          -1.62681284        0.85830569        0.15670075
H          -1.62681282       -0.85830571       -0.15670086
H           1.62681284        0.85830572       -0.15670068
H           1.62681283       -0.85830570        0.15670079
6
MD Time 1410.00
C          -0.85212095       -0.00000000       -0.00000002
C           0.85212095        0.00000000        0.00000002
H          -1.61289772        0.86071067        0.16487732
H          -1.61289770       -0.86071069       -0.16487743
H           1.61289772        0.86071070       -0.16487725
H           1.61289772       -0.86071068        0.16487736
6
MD Time 1420.00
C          -0.84616797       -0.00000000       -0.00000002
C           0.84616796        0.00000000        0.00000002
H          -1.59763495        0.86296727        0.17277288
H          -1.59763493       -0.86296728       -0.17277299
H           1.59763496        0.86296730       -0.17277281
H           1.59763495       -0.86296728        0.17277292
6
MD Time 1430.00
C          -0.84001249       -0.00000000       -0.00000002
C           0.84001249        0.00000000        0.00000002
H          -1.58108116        0.86507286        0.18037131
H          -1.58108114       -0.86507287       -0.18037142
H           1.58108116        0.86507289       -0.18037125
H           1.58108116       -0.86507287        0.18037136
6
MD Time 1440.00
C          -0.83364772       -0.00000000       -0.00000002
C           0.83364772        0.00000000        0.00000002
H          -1.56330255        0.86703256        0.18765777
H          -1.56330252       -0.86703257       -0.18765788
H           1.56330255        0.86703258       -0.18765771
H           1.56330254       -0.86703256        0.18765782
6
MD Time 1450.00
C          -0.82706604       -0.00000000       -0.00000002
C           0.82706604        0.00000000        0.00000002
H          -1.54437462        0.86885942        0.19461885
H          -1.54437460       -0.86885943       -0.19461897
H           1.54437462        0.86885944       -0.19461880
H           1.54437462       -0.86885942        0.19461891
6
MD Time 1460.00
C          -0.82025918       -0.00000000       -0.00000002
C           0.82025918        0.00000000        0.00000002
H          -1.52438185        0.87057452        0.20124271
H          -1.52438183       -0.87057454       -0.20124283
H           1.52438186        0.87057455       -0.20124267
H           1.52438185       -0.87057453        0.20124277
6
MD Time 1470.00
C          -0.81321842       -0.00000000       -0.00000002
C           0.81321842        0.00000000        0.00000002
H          -1.50341716        0.87220697        0.20751915
H          -1.50341713       -0.87220699       -0.20751926
H           1.50341716        0.87220700       -0.20751911
H           1.50341715       -0.87220698        0.20751921
6
MD Time 1480.00
C          -0.80593479       -0.00000000       -0.00000002
C           0.80593479        0.00000000        0.00000002
H          -1.48158124        0.87379364        0.21343965
H          -1.48158121       -0.87379366       -0.21343976
H           1.48158124        0.87379367       -0.21343961
H           1.48158123       -0.87379366        0.21343971
6
MD Time 1490.00
C          -0.79839940       -0.00000000       -0.00000002
C           0.79839940        0.00000000        0.00000002
H          -1.45898177        0.87537877        0.21899735
H          -1.45898174       -0.87537879       -0.21899746
H           1.45898177        0.87537880       -0.21899731
H           1.45898176       -0.87537878        0.21899742
6
MD Time 1500.00
C          -0.79060376       -0.00000000       -0.00000002
C           0.79060376        0.00000000        0.00000002
H          -1.43573235        0.87701324        0.22418695
H          -1.43573232       -0.87701326       -0.22418706
H           1.43573235        0.87701327       -0.22418692
H           1.43573234       -0.87701326        0.22418703
6
MD Time 1510.00
C          -0.78254019       -0.00000000       -0.00000002
C           0.78254019        0.00000000        0.00000002
H          -1.41195122        0.87875357        0.22900452
H          -1.41195118       -0.87875358       -0.22900463
H           1.41195122        0.87875360       -0.22900449
H           1.41195120       -0.87875358        0.22900460
6
MD Time 1520.00
C          -0.77420228       -0.00000000       -0.00000002
C           0.77420228        0.00000000        0.00000002
H          -1.38775984        0.88066052        0.23344718
H          -1.38775981       -0.88066053       -0.23344729
H           1.38775984        0.88066055       -0.23344715
H           1.38775983       -0.88066053        0.23344726
6
MD Time 1530.00
C          -0.76558547       -0.00000000       -0.00000002
C           0.76558547        0.00000000        0.00000002
H          -1.36328127        0.88279740        0.23751275
H          -1.36328124       -0.88279741       -0.23751286
H           1.36328127        0.88279742       -0.23751273
H           1.36328126       -0.88279741        0.23751283
6
MD Time 1540.00
C          -0.75668760       -0.00000000       -0.00000002
C           0.75668759        0.00000000        0.00000002
H          -1.33863837        0.88522797        0.24119926
H          -1.33863833       -0.88522799       -0.24119936
H           1.33863836        0.88522800       -0.24119923
H           1.33863835       -0.88522799        0.24119934
6
MD Time 1550.00
C          -0.74750959       -0.00000000       -0.00000002
C           0.74750959        0.00000000        0.00000002
H          -1.31395200        0.88801415        0.24450438
H          -1.31395196       -0.88801417       -0.24450448
H           1.31395199        0.88801418       -0.24450436
H           1.31395198       -0.88801417        0.24450447
6
MD Time 1560.00
C          -0.73805613       -0.00000000       -0.00000002
C           0.73805613        0.00000000        0.00000002
H          -1.28933924        0.89121342        0.24742486
H          -1.28933920       -0.89121344       -0.24742496
H           1.28933923        0.89121345       -0.24742484
H           1.28933922       -0.89121343        0.24742495
6
MD Time 1570.00
C          -0.72833641       -0.00000000       -0.00000002
C           0.72833641        0.00000000        0.00000002
H          -1.26491169        0.89487623        0.24995589
H          -1.26491165       -0.89487624       -0.24995600
H           1.26491168        0.89487625       -0.24995588
H           1.26491167       -0.89487624        0.24995599
6
MD Time 1580.00
C          -0.71836483       -0.00000000       -0.00000002
C           0.71836483        0.00000000        0.00000002
H          -1.24077402        0.89904347        0.25209060
H          -1.24077398       -0.89904348       -0.25209071
H           1.24077401        0.89904349       -0.25209060
H           1.24077400       -0.89904348        0.25209070
6
MD Time 1590.00
C          -0.70816177       -0.00000000       -0.00000002
C           0.70816177        0.00000000        0.00000002
H          -1.21702280        0.90374417        0.25381957
H          -1.21702276       -0.90374419       -0.25381967
H           1.21702279        0.90374419       -0.25381956
H           1.21702277       -0.90374418        0.25381967
6
MD Time 1600.00
C          -0.69775429       -0.00000000       -0.00000002
C           0.69775429        0.00000000        0.00000002
H          -1.19374570        0.90899364        0.25513053
H          -1.19374566       -0.90899366       -0.25513063
H           1.19374569        0.90899366       -0.25513053
H           1.19374567       -0.90899365        0.25513063
6
MD Time 1610.00
C          -0.68717683       -0.00000000       -0.00000002
C           0.68717683        0.00000000        0.00000002
H          -1.17102112        0.91479213        0.25600832
H          -1.17102108       -0.91479214       -0.25600842
H           1.17102111        0.91479214       -0.25600832
H           1.17102109       -0.91479214        0.25600843
6
MD Time 1620.00
C          -0.67647180       -0.00000000       -0.00000002
C           0.67647180        0.00000000        0.00000002
H          -1.14891819        0.92112412        0.25643496
H          -1.14891815       -0.92112413       -0.25643506
H           1.14891818        0.92112413       -0.25643497
H           1.14891816       -0.92112412        0.25643507
6
MD Time 1630.00
C          -0.66569020       -0.00000000       -0.00000002
C           0.66569020        0.00000000        0.00000002
H          -1.12749725        0.92795838        0.25639005
H          -1.12749721       -0.92795840       -0.25639015
H           1.12749723        0.92795839       -0.25639005
H           1.12749721       -0.92795838        0.25639016
6
MD Time 1640.00
C          -0.65489209       -0.00000000       -0.00000002
C           0.65489209        0.00000000        0.00000002
H          -1.10681055        0.93524864        0.25585131
H          -1.10681051       -0.93524866       -0.25585141
H           1.10681053        0.93524865       -0.25585132
H           1.10681051       -0.93524865        0.25585142
6
MD Time 1650.00
C          -0.64414685       -0.00000000       -0.00000002
C           0.64414685        0.00000000        0.00000002
H          -1.08690336        0.94293492        0.25479539
H          -1.08690332       -0.94293494       -0.25479548
H           1.08690334        0.94293493       -0.25479540
H           1.08690332       -0.94293493        0.25479550
6
MD Time 1660.00
C          -0.63353343       -0.00000000       -0.00000002
C           0.63353343        0.00000000        0.00000002
H          -1.06781520        0.95094535        0.25319870
H          -1.06781515       -0.95094536       -0.25319880
H           1.06781517        0.95094535       -0.25319872
H           1.06781515       -0.95094535        0.25319882
6
MD Time 1670.00
C          -0.62314015       -0.00000000       -0.00000002
C           0.62314015        0.00000000        0.00000002
H          -1.04958111        0.95919835        0.25103845
H          -1.04958107       -0.95919837       -0.25103855
H           1.04958109        0.95919836       -0.25103847
H           1.04958107       -0.95919835        0.25103857
6
MD Time 1680.00
C          -0.61306434       -0.00000000       -0.00000002
C           0.61306434        0.00000000        0.00000002
H          -1.03223307        0.96760514        0.24829355
H          -1.03223303       -0.96760515       -0.24829365
H           1.03223305        0.96760514       -0.24829357
H           1.03223303       -0.96760513        0.24829367
6
MD Time 1690.00
C          -0.60341136       -0.00000000       -0.00000002
C           0.60341136        0.00000000        0.00000002
H          -1.01580120        0.97607216        0.24494556
H          -1.01580115       -0.97607217       -0.24494565
H           1.01580117        0.97607216       -0.24494558
H           1.01580115       -0.97607215        0.24494568
6
MD Time 1700.00
C          -0.59429324       -0.00000000       -0.00000002
C           0.59429324        0.00000000        0.00000002
H          -1.00031484        0.98450365        0.24097950
H          -1.00031480       -0.98450367       -0.24097960
H           1.00031481        0.98450366       -0.24097952
H           1.00031479       -0.98450365        0.24097963
6
MD Time 1710.00
C          -0.58582658       -0.00000000       -0.00000002
C           0.58582658        0.00000000        0.00000002
H          -0.98580351        0.99280400        0.23638455
H          -0.98580346       -0.99280402       -0.23638464
H           0.98580348        0.99280401       -0.23638457
H           0.98580346       -0.99280400        0.23638468
6
MD Time 1720.00
C          -0.57812978       -0.00000000       -0.00000002
C           0.57812978        0.00000000        0.00000002
H          -0.97229749        1.00087988        0.23115451
H          -0.97229744       -1.00087989       -0.23115461
H           0.97229746        1.00087988       -0.23115454
H           0.97229744       -1.00087987        0.23115465
6
MD Time 1730.00
C          -0.57131961       -0.00000000       -0.00000002
C           0.57131961        0.00000000        0.00000002
H          -0.95982824        1.00864220        0.22528818
H          -0.95982820       -1.00864221       -0.22528828
H           0.95982821        1.00864220       -0.22528821
H           0.95982819       -1.00864219        0.22528832
6
MD Time 1740.00
C          -0.56550712       -0.00000000       -0.00000002
C           0.56550713        0.00000000        0.00000002
H          -0.94842852        1.01600776        0.21878949
H          -0.94842847       -1.01600778       -0.21878958
H           0.94842849        1.01600777       -0.21878952
H           0.94842846       -1.01600776        0.21878963
6
MD Time 1750.00
C          -0.56079319       -0.00000000       -0.00000002
C           0.56079319        0.00000000        0.00000002
H          -0.93813222        1.02290071        0.21166748
H          -0.93813217       -1.02290072       -0.21166757
H           0.93813218        1.02290071       -0.21166751
H           0.93813216       -1.02290070        0.21166762
6
MD Time 1760.00
C          -0.55726386       -0.00000000       -0.00000002
C           0.55726386        0.00000000        0.00000002
H          -0.92897404        1.02925362        0.20393619
H          -0.92897400       -1.02925363       -0.20393628
H           0.92897401        1.02925362       -0.20393622
H           0.92897399       -1.02925361        0.20393633
6
MD Time 1770.00
C          -0.55498606       -0.00000000       -0.00000002
C           0.55498607        0.00000000        0.00000002
H          -0.92098897        1.03500849        0.19561434
H          -0.92098893       -1.03500851       -0.19561443
H           0.92098894        1.03500850       -0.19561437
H           0.92098892       -1.03500849        0.19561448
6
MD Time 1780.00
C          -0.55400391       -0.00000000       -0.00000002
C           0.55400391        0.00000000        0.00000002
H          -0.91421161        1.04011743        0.18672498
H          -0.91421156       -1.04011744       -0.18672508
H           0.91421157        1.04011744       -0.18672502
H           0.91421155       -1.04011742        0.18672513
6
MD Time 1790.00
C          -0.55433616       -0.00000000       -0.00000002
C           0.55433616        0.00000000        0.00000002
H          -0.90867539        1.04454315        0.17729506
H          -0.90867534       -1.04454316       -0.17729515
H           0.90867536        1.04454315       -0.17729510
H           0.90867533       -1.04454314        0.17729521
6
MD Time 1800.00
C          -0.55597505       -0.00000000       -0.00000002
C           0.55597505        0.00000000        0.00000002
H          -0.90441186        1.04825930        0.16735489
H          -0.90441181       -1.04825931       -0.16735498
H           0.90441183        1.04825931       -0.16735493
H           0.90441180       -1.04825930        0.16735504
6
MD Time 1810.00
C          -0.55888672       -0.00000000       -0.00000002
C           0.55888672        0.00000000        0.00000002
H          -0.90144988        1.05125063        0.15693764
H          -0.90144984       -1.05125064       -0.15693773
H           0.90144985        1.05125064       -0.15693768
H           0.90144983       -1.05125063        0.15693779
6
MD Time 1820.00
C          -0.56301305       -0.00000000       -0.00000002
C           0.56301306        0.00000000        0.00000002
H          -0.89981494        1.05351291        0.14607879
H          -0.89981490       -1.05351292       -0.14607888
H           0.89981491        1.05351292       -0.14607883
H           0.89981489       -1.05351291        0.14607894
6
MD Time 1830.00
C          -0.56827488       -0.00000000       -0.00000002
C           0.56827488        0.00000000        0.00000002
H          -0.89952853        1.05505275        0.13481556
H          -0.89952848       -1.05505276       -0.13481566
H           0.89952850        1.05505276       -0.13481561
H           0.89952848       -1.05505275        0.13481572
6
MD Time 1840.00
C          -0.57457603       -0.00000000       -0.00000002
C           0.57457603        0.00000000        0.00000002
H          -0.90060763        1.05588719        0.12318639
H          -0.90060759       -1.05588721       -0.12318649
H           0.90060760        1.05588721       -0.12318643
H           0.90060758       -1.05588720        0.12318655
6
MD Time 1850.00
C          -0.58180785       -0.00000000       -0.00000002
C           0.58180786        0.00000000        0.00000002
H          -0.90306434        1.05604318        0.11123036
H          -0.90306430       -1.05604319       -0.11123045
H           0.90306431        1.05604320       -0.11123040
H           0.90306429       -1.05604319        0.11123051
6
MD Time 1860.00
C          -0.58985386       -0.00000000       -0.00000003
C           0.58985386        0.00000000        0.00000002
H          -0.90690563        1.05555676        0.09898670
H          -0.90690559       -1.05555678       -0.09898679
H           0.90690560        1.05555679       -0.09898674
H           0.90690559       -1.05555677        0.09898685
6
MD Time 1870.00
C          -0.59859400       -0.00000000       -0.00000003
C           0.59859400        0.00000000        0.00000002
H          -0.91213317        1.05447218        0.08649429
H          -0.91213313       -1.05447219       -0.08649439
H           0.91213314        1.05447220       -0.08649433
H           0.91213312       -1.05447219        0.08649445
6
MD Time 1880.00
C          -0.60790844       -0.00000000       -0.00000003
C           0.60790844        0.00000001        0.00000002
H          -0.91874330        1.05284068        0.07379125
H          -0.91874327       -1.05284069       -0.07379135
H           0.91874328        1.05284070       -0.07379129
H           0.91874326       -1.05284069        0.07379141
6
MD Time 1890.00
C          -0.61768068       -0.00000000       -0.00000003
C           0.61768069        0.00000001        0.00000002
H          -0.92672710        1.05071920        0.06091445
H          -0.92672706       -1.05071922       -0.06091455
H           0.92672707        1.05071923       -0.06091449
H           0.92672706       -1.05071922        0.06091461
6
MD Time 1900.00
C          -0.62779992       -0.00000001       -0.00000003
C           0.62779992        0.00000001        0.00000003
H          -0.93607043        1.04816881        0.04789925
H          -0.93607040       -1.04816883       -0.04789936
H           0.93607041        1.04816884       -0.04789929
H           0.93607039       -1.04816883        0.04789942
6
MD Time 1910.00
C          -0.63816272       -0.00000001       -0.00000003
C           0.63816272        0.00000001        0.00000003
H          -0.94675412        1.04525295        0.03477919
H          -0.94675408       -1.04525297       -0.03477929
H           0.94675409        1.04525298       -0.03477923
H           0.94675408       -1.04525297        0.03477935
6
MD Time 1920.00
C          -0.64867413       -0.00000001       -0.00000003
C           0.64867413        0.00000001        0.00000003
H          -0.95875402        1.04203555        0.02158577
H          -0.95875399       -1.04203557       -0.02158587
H           0.95875400        1.04203559       -0.02158580
H           0.95875399       -1.04203557        0.02158593
6
MD Time 1930.00
C          -0.65924820       -0.00000001       -0.00000003
C           0.65924820        0.00000001        0.00000003
H          -0.97204112        1.03857904        0.00834838
H          -0.97204108       -1.03857906       -0.00834848
H           0.97204109        1.03857907       -0.00834841
H           0.97204108       -1.03857906        0.00834854
6
MD Time 1940.00
C          -0.66980822       -0.00000001       -0.00000003
C           0.66980822        0.00000001        0.00000003
H          -0.98658150        1.03494225       -0.00490572
H          -0.98658147       -1.03494227        0.00490561
H           0.98658148        1.03494228        0.00490568
H           0.98658147       -1.03494227       -0.00490556
6
MD Time 1950.00
C          -0.68028657       -0.00000001       -0.00000003
C           0.68028657        0.00000001        0.00000003
H          -1.00233631        1.03117842       -0.01815129
H          -1.00233628       -1.03117844        0.01815118
H           1.00233629        1.03117845        0.01815126
H           1.00233628       -1.03117845       -0.01815113
6
MD Time 1960.00
C          -0.69062442       -0.00000001       -0.00000003
C           0.69062442        0.00000001        0.00000003
H          -1.01926149        1.02733327       -0.03136492
H          -1.01926147       -1.02733330        0.03136481
H           1.01926147        1.02733331        0.03136489
H           1.01926147       -1.02733330       -0.03136476
6
MD Time 1970.00
C          -0.70077129       -0.00000001       -0.00000003
C           0.70077129        0.00000001        0.00000003
H          -1.03730753        1.02344332       -0.04452472
H          -1.03730750       -1.02344334        0.04452461
H           1.03730751        1.02344335        0.04452470
H           1.03730751       -1.02344334       -0.04452456
6
MD Time 1980.00
C          -0.71068455       -0.00000001       -0.00000003
C           0.71068455        0.00000001        0.00000003
H          -1.05641907        1.01953448       -0.05760992
H          -1.05641904       -1.01953450        0.05760981
H           1.05641905        1.01953451        0.05760989
H           1.05641905       -1.01953450       -0.05760976
6
MD Time 1990.00
C          -0.72032888       -0.00000001       -0.00000003
C           0.72032889        0.00000001        0.00000003
H          -1.07653450        1.01562117       -0.07060042
H          -1.07653448       -1.01562119        0.07060030
H           1.07653448        1.01562120        0.07060039
H           1.07653448       -1.01562119       -0.07060025
6
MD Time 2000.00
C          -0.72967571       -0.00000001       -0.00000003
C           0.72967571        0.00000001        0.00000003
H          -1.09758558        1.01170580       -0.08347630
H          -1.09758556       -1.01170582        0.08347619
H           1.09758556        1.01170583        0.08347628
H           1.09758557       -1.01170582       -0.08347614
6
MD Time 2010.00
C          -0.73870265       -0.00000001       -0.00000003
C           0.73870265        0.00000001        0.00000003
H          -1.11949714        1.00777887       -0.09621740
H          -1.11949712       -1.00777890        0.09621728
H           1.11949712        1.00777890        0.09621738
H           1.11949713       -1.00777889       -0.09621723
6
MD Time 2020.00
C          -0.74739301       -0.00000001       -0.00000003
C           0.74739301        0.00000001        0.00000003
H          -1.14218691        1.00381957       -0.10880279
H          -1.14218689       -1.00381959        0.10880267
H           1.14218689        1.00381959        0.10880277
H           1.14218689       -1.00381959       -0.10880263
6
MD Time 2030.00
C          -0.75573522       -0.00000001       -0.00000003
C           0.75573522        0.00000001        0.00000003
H          -1.16556555        0.99979687       -0.12121052
H          -1.16556553       -0.99979690        0.12121040
H           1.16556553        0.99979690        0.12121051
H           1.16556554       -0.99979689       -0.12121036
6
MD Time 2040.00
C          -0.76372232       -0.00000001       -0.00000003
C           0.76372232        0.00000001        0.00000003
H          -1.18953697        0.99567111       -0.13341732
H          -1.18953695       -0.99567113        0.13341719
H           1.18953695        0.99567113        0.13341731
H           1.18953696       -0.99567113       -0.13341716
6
MD Time 2050.00
C          -0.77135147       -0.00000001       -0.00000003
C           0.77135147        0.00000001        0.00000003
H          -1.21399878        0.99139584       -0.14539850
H          -1.21399876       -0.99139587        0.14539837
H           1.21399876        0.99139586        0.14539850
H           1.21399877       -0.99139586       -0.14539834
6
MD Time 2060.00
C          -0.77862341       -0.00000001       -0.00000003
C           0.77862341        0.00000001        0.00000003
H          -1.23884307        0.98691999       -0.15712797
H          -1.23884306       -0.98692002        0.15712784
H           1.23884305        0.98692001        0.15712797
H           1.23884307       -0.98692001       -0.15712781
6
MD Time 2070.00
C          -0.78554198       -0.00000001       -0.00000003
C           0.78554198        0.00000001        0.00000003
H          -1.26395735        0.98219005       -0.16857839
H          -1.26395733       -0.98219008        0.16857825
H           1.26395732        0.98219007        0.16857839
H           1.26395734       -0.98219007       -0.16857823
6
MD Time 2080.00
C          -0.79211365       -0.00000001       -0.00000003
C           0.79211365        0.00000001        0.00000003
H          -1.28922558        0.97715235       -0.17972140
H          -1.28922557       -0.97715238        0.17972126
H           1.28922556        0.97715237        0.17972140
H           1.28922558       -0.97715236       -0.17972124
6
MD Time 2090.00
C          -0.79834700       -0.00000001       -0.00000003
C           0.79834700        0.00000001        0.00000003
H          -1.31452942        0.97175511       -0.19052800
H          -1.31452941       -0.97175514        0.19052786
H           1.31452940        0.97175513        0.19052801
H           1.31452942       -0.97175512       -0.19052784
6
MD Time 2100.00
C          -0.80425233       -0.00000001       -0.00000003
C           0.80425233        0.00000001        0.00000003
H          -1.33974943        0.96595043       -0.20096896
H          -1.33974942       -0.96595046        0.20096882
H           1.33974941        0.96595045        0.20096897
H           1.33974943       -0.96595044       -0.20096881
6
MD Time 2110.00
C          -0.80984121       -0.00000001       -0.00000003
C           0.80984121        0.00000001        0.00000003
H          -1.36476629        0.95969595       -0.21101527
H          -1.36476628       -0.95969598        0.21101513
H           1.36476627        0.95969596        0.21101529
H           1.36476629       -0.95969596       -0.21101512
6
MD Time 2120.00
C          -0.81512611       -0.00000001       -0.00000003
C           0.81512612        0.00000001        0.00000003
H          -1.38946200        0.95295625       -0.22063861
H          -1.38946200       -0.95295628        0.22063846
H           1.38946198        0.95295626        0.22063863
H           1.38946201       -0.95295626       -0.22063846
6
MD Time 2130.00
C          -0.82012004       -0.00000001       -0.00000003
C           0.82012004        0.00000001        0.00000003
H          -1.41372101        0.94570400       -0.22981180
H          -1.41372101       -0.94570403        0.22981165
H           1.41372099        0.94570401        0.22981182
H           1.41372102       -0.94570401       -0.22981165
6
MD Time 2140.00
C          -0.82483624       -0.00000001       -0.00000003
C           0.82483624        0.00000001        0.00000003
H          -1.43743120        0.93792079       -0.23850927
H          -1.43743120       -0.93792083        0.23850911
H           1.43743118        0.93792081        0.23850929
H           1.43743121       -0.93792080       -0.23850912
6
MD Time 2150.00
C          -0.82928791       -0.00000001       -0.00000003
C           0.82928791        0.00000001        0.00000003
H          -1.46048482        0.92959771       -0.24670746
H          -1.46048482       -0.92959775        0.24670730
H           1.46048481        0.92959772        0.24670749
H           1.46048484       -0.92959772       -0.24670731
6
MD Time 2160.00
C          -0.83348798       -0.00000001       -0.00000003
C           0.83348798        0.00000001        0.00000003
H          -1.48277932        0.92073571       -0.25438519
H          -1.48277932       -0.92073574        0.25438504
H           1.48277930        0.92073572        0.25438523
H           1.48277933       -0.92073571       -0.25438505
6
MD Time 2170.00
C          -0.83744890       -0.00000001       -0.00000003
C           0.83744890        0.00000001        0.00000003
H          -1.50421801        0.91134574       -0.26152400
H          -1.50421801       -0.91134578        0.26152384
H           1.50421799        0.91134575        0.26152404
H           1.50421802       -0.91134574       -0.26152386
6
MD Time 2180.00
C          -0.84118246       -0.00000001       -0.00000003
C           0.84118246        0.00000001        0.00000003
H          -1.52471068        0.90144882       -0.26810841
H          -1.52471069       -0.90144886        0.26810825
H           1.52471067        0.90144883        0.26810845
H           1.52471070       -0.90144882       -0.26810827
6
MD Time 2190.00
C          -0.84469968       -0.00000001       -0.00000003
C           0.84469968        0.00000001        0.00000003
H          -1.54417417        0.89107586       -0.27412617
H          -1.54417417       -0.89107589        0.27412601
H           1.54417415        0.89107587        0.27412622
H           1.54417419       -0.89107586       -0.27412604
6
MD Time 2200.00
C          -0.84801061       -0.00000001       -0.00000003
C           0.84801061        0.00000001        0.00000003
H          -1.56253275        0.88026748       -0.27956850
H          -1.56253276       -0.88026752        0.27956833
H           1.56253274        0.88026749        0.27956855
H           1.56253277       -0.88026748       -0.27956837
6
MD Time 2210.00
C          -0.85112433       -0.00000001       -0.00000003
C           0.85112433        0.00000001        0.00000003
H          -1.57971859        0.86907375       -0.28443021
H          -1.57971860       -0.86907379        0.28443004
H           1.57971858        0.86907376        0.28443027
H           1.57971862       -0.86907375       -0.28443008
6
MD Time 2220.00
C          -0.85404873       -0.00000001       -0.00000003
C           0.85404873        0.00000001        0.00000003
H          -1.59567210        0.85755384       -0.28870990
H          -1.59567210       -0.85755388        0.28870973
H           1.59567208        0.85755385        0.28870996
H           1.59567212       -0.85755384       -0.28870978
6
MD Time 2230.00
C          -0.85679055       -0.00000001       -0.00000003
C           0.85679055        0.00000001        0.00000003
H          -1.61034222        0.84577566       -0.29241001
H          -1.61034223       -0.84577570        0.29240984
H           1.61034221        0.84577567        0.29241008
H           1.61034225       -0.84577566       -0.29240989
6
MD Time 2240.00
C          -0.85935521       -0.00000001       -0.00000003
C           0.85935521        0.00000001        0.00000003
H          -1.62368681        0.83381547       -0.29553695
H          -1.62368682       -0.83381551        0.29553678
H           1.62368680        0.83381547        0.29553702
H           1.62368683       -0.83381546       -0.29553684
6
MD Time 2250.00
C          -0.86174679       -0.00000001       -0.00000003
C           0.86174679        0.00000001        0.00000003
H          -1.63567285        0.82175742       -0.29810111
H          -1.63567286       -0.82175746        0.29810094
H           1.63567284        0.82175742        0.29810119
H           1.63567287       -0.82175741       -0.29810100
6
MD Time 2260.00
C          -0.86396797       -0.00000001       -0.00000003
C           0.86396797        0.00000001        0.00000003
H          -1.64627675        0.80969309       -0.30011691
H          -1.64627676       -0.80969313        0.30011673
H           1.64627674        0.80969309        0.30011699
H           1.64627678       -0.80969308       -0.30011680
6
MD Time 2270.00
C          -0.86601993       -0.00000001       -0.00000003
C           0.86601993        0.00000001        0.00000003
H          -1.65548456        0.79772092       -0.30160270
H          -1.65548457       -0.79772096        0.30160253
H           1.65548456        0.79772092        0.30160278
H           1.65548459       -0.79772091       -0.30160260
6
MD Time 2280.00
C          -0.86790238       -0.00000001       -0.00000003
C           0.86790238        0.00000001        0.00000003
H          -1.66329217        0.78594561       -0.30258074
H          -1.66329217       -0.78594565        0.30258057
H           1.66329216        0.78594561        0.30258083
H           1.66329219       -0.78594560       -0.30258065
6
MD Time 2290.00
C          -0.86961346       -0.00000001       -0.00000003
C           0.86961346        0.00000001        0.00000003
H          -1.66970537        0.77447740       -0.30307702
H          -1.66970538       -0.77447744        0.30307685
H           1.66970536        0.77447740        0.30307712
H           1.66970539       -0.77447739       -0.30307693
6
MD Time 2300.00
C          -0.87114975       -0.00000001       -0.00000003
C           0.87114974        0.00000001        0.00000003
H          -1.67473996        0.76343126       -0.30312101
H          -1.67473996       -0.76343130        0.30312084
H           1.67473995        0.76343126        0.30312111
H           1.67473998       -0.76343125       -0.30312092
6
MD Time 2310.00
C          -0.87250627       -0.00000001       -0.00000003
C           0.87250627        0.00000001        0.00000003
H          -1.67842158        0.75292587       -0.30274536
H          -1.67842159       -0.75292591        0.30274519
H           1.67842157        0.75292587        0.30274546
H           1.67842160       -0.75292585       -0.30274528
6
MD Time 2320.00
C          -0.87367655       -0.00000001       -0.00000003
C           0.87367655        0.00000001        0.00000003
H          -1.68078551        0.74308251       -0.30198549
H          -1.68078552       -0.74308256        0.30198532
H           1.68078550        0.74308251        0.30198559
H           1.68078553       -0.74308250       -0.30198541
6
MD Time 2330.00
C          -0.87465261       -0.00000001       -0.00000003
C           0.87465261        0.00000001        0.00000003
H          -1.68187619        0.73402376       -0.30087903
H          -1.68187620       -0.73402380        0.30087886
H           1.68187619        0.73402375        0.30087914
H           1.68187622       -0.73402374       -0.30087895
6
MD Time 2340.00
C          -0.87542516       -0.00000001       -0.00000003
C           0.87542516        0.00000001        0.00000003
H          -1.68174656        0.72587188       -0.29946518
H          -1.68174656       -0.72587192        0.29946501
H           1.68174655        0.72587187        0.29946529
H           1.68174658       -0.72587186       -0.29946511
6
MD Time 2350.00
C          -0.87598367       -0.00000001       -0.00000003
C           0.87598367        0.00000001        0.00000003
H          -1.68045707        0.71874712       -0.29778394
H          -1.68045707       -0.71874716        0.29778377
H           1.68045706        0.71874711        0.29778406
H           1.68045708       -0.71874710       -0.29778387
6
MD Time 2360.00
C          -0.87631665       -0.00000001       -0.00000003
C           0.87631665        0.00000001        0.00000003
H          -1.67807445        0.71276571       -0.29587519
H          -1.67807446       -0.71276575        0.29587502
H           1.67807444        0.71276570        0.29587531
H           1.67807447       -0.71276569       -0.29587513
6
MD Time 2370.00
C          -0.87641187       -0.00000000       -0.00000003
C           0.87641187        0.00000001        0.00000003
H          -1.67467017        0.70803765       -0.29377772
H          -1.67467017       -0.70803770        0.29377755
H           1.67467016        0.70803765        0.29377784
H           1.67467018       -0.70803764       -0.29377766
6
MD Time 2380.00
C          -0.87625666       -0.00000000       -0.00000003
C           0.87625666        0.00000001        0.00000003
H          -1.67031848        0.70466436       -0.29152811
H          -1.67031849       -0.70466441        0.29152794
H           1.67031847        0.70466435        0.29152823
H           1.67031850       -0.70466435       -0.29152806
6
MD Time 2390.00
C          -0.87583831       -0.00000000       -0.00000003
C           0.87583831        0.00000001        0.00000003
H          -1.66509437        0.70273611       -0.28915962
H          -1.66509437       -0.70273616        0.28915945
H           1.66509436        0.70273610        0.28915975
H           1.66509438       -0.70273609       -0.28915957
6
MD Time 2400.00
C          -0.87514447       -0.00000000       -0.00000003
C           0.87514447        0.00000001        0.00000003
H          -1.65907115        0.70232945       -0.28670107
H          -1.65907115       -0.70232950        0.28670091
H           1.65907114        0.70232943        0.28670121
H           1.65907116       -0.70232943       -0.28670103
6
MD Time 2410.00
C          -0.87416352       -0.00000000       -0.00000003
C           0.87416352        0.00000001        0.00000003
H          -1.65231805        0.70350465       -0.28417578
H          -1.65231805       -0.70350471        0.28417561
H           1.65231803        0.70350464        0.28417592
H           1.65231805       -0.70350464       -0.28417574
6
MD Time 2420.00
C          -0.87288504       -0.00000000       -0.00000003
C           0.87288504        0.00000001        0.00000003
H          -1.64489783        0.70630328       -0.28160060
H          -1.64489783       -0.70630333        0.28160043
H           1.64489781        0.70630326        0.28160074
H           1.64489783       -0.70630326       -0.28160057
6
MD Time 2430.00
C          -0.87130013       -0.00000000       -0.00000003
C           0.87130014        0.00000001        0.00000003
H          -1.63686459        0.71074599       -0.27898520
H          -1.63686459       -0.71074605        0.27898503
H           1.63686457        0.71074597        0.27898534
H           1.63686459       -0.71074598       -0.27898517
6
MD Time 2440.00
C          -0.86940181       -0.00000000       -0.00000003
C           0.86940182        0.00000001        0.00000003
H          -1.62826200        0.71683085       -0.27633158
H          -1.62826199       -0.71683090        0.27633141
H           1.62826197        0.71683083        0.27633172
H           1.62826199       -0.71683083       -0.27633155
6
MD Time 2450.00
C          -0.86718518       -0.00000000       -0.00000003
C           0.86718518        0.00000001        0.00000003
H          -1.61912196        0.72453204       -0.27363388
H          -1.61912195       -0.72453210        0.27363371
H           1.61912194        0.72453202        0.27363403
H           1.61912195       -0.72453202       -0.27363386
6
MD Time 2460.00
C          -0.86464755       -0.00000000       -0.00000003
C           0.86464755        0.00000001        0.00000003
H          -1.60946408        0.73379938       -0.27087857
H          -1.60946407       -0.73379944        0.27087841
H           1.60946406        0.73379935        0.27087872
H           1.60946407       -0.73379936       -0.27087855
6
MD Time 2470.00
C          -0.86178849       -0.00000000       -0.00000003
C           0.86178849        0.00000001        0.00000003
H          -1.59929574        0.74455844       -0.26804495
H          -1.59929573       -0.74455850        0.26804479
H           1.59929571        0.74455842        0.26804511
H           1.59929573       -0.74455842       -0.26804494
6
MD Time 2480.00
C          -0.85860968       -0.00000000       -0.00000003
C           0.85860968        0.00000001        0.00000003
H          -1.58861292        0.75671157       -0.26510600
H          -1.58861291       -0.75671163        0.26510584
H           1.58861290        0.75671154        0.26510616
H           1.58861291       -0.75671155       -0.26510599
6
MD Time 2490.00
C          -0.85511466       -0.00000000       -0.00000003
C           0.85511466        0.00000001        0.00000002
H          -1.57740175        0.77013956       -0.26202945
H          -1.57740173       -0.77013962        0.26202929
H           1.57740172        0.77013953        0.26202962
H           1.57740173       -0.77013954       -0.26202945
6
MD Time 2500.00
C          -0.85130856       -0.00000000       -0.00000003
C           0.85130856        0.00000001        0.00000002
H          -1.56564047        0.78470410       -0.25877919
H          -1.56564045       -0.78470417        0.25877903
H           1.56564044        0.78470407        0.25877936
H           1.56564045       -0.78470409       -0.25877919
6
MD Time 2510.00
C          -0.84719770       -0.00000000       -0.00000002
C           0.84719770        0.00000001        0.00000002
H          -1.55330185        0.80025078       -0.25531661
H          -1.55330183       -0.80025085        0.25531645
H           1.55330182        0.80025075        0.25531678
H           1.55330183       -0.80025077       -0.25531662
6
MD Time 2520.00
C          -0.84278920       -0.00000000       -0.00000002
C           0.84278921        0.00000001        0.00000002
H          -1.54035572        0.81661246       -0.25160215
H          -1.54035569       -0.81661252        0.25160199
H           1.54035569        0.81661243        0.25160233
H           1.54035569       -0.81661244       -0.25160216
6
MD Time 2530.00
C          -0.83809063       -0.00000000       -0.00000002
C           0.83809063        0.00000001        0.00000002
H          -1.52677144        0.83361291       -0.24759668
H          -1.52677141       -0.83361297        0.24759652
H           1.52677141        0.83361288        0.24759686
H           1.52677141       -0.83361289       -0.24759669
6
MD Time 2540.00
C          -0.83310958       -0.00000000       -0.00000002
C           0.83310959        0.00000001        0.00000002
H          -1.51252028        0.85107048       -0.24326278
H          -1.51252025       -0.85107054        0.24326263
H           1.51252025        0.85107045        0.24326296
H           1.51252025       -0.85107047       -0.24326280
6
MD Time 2550.00
C          -0.82785348       -0.00000000       -0.00000002
C           0.82785349        0.00000001        0.00000002
H          -1.49757742        0.86880162       -0.23856587
H          -1.49757739       -0.86880169        0.23856572
H           1.49757739        0.86880159        0.23856605
H           1.49757739       -0.86880161       -0.23856589
6
MD Time 2560.00
C          -0.82232931       -0.00000000       -0.00000002
C           0.82232931        0.00000001        0.00000002
H          -1.48192361        0.88662416       -0.23347505
H          -1.48192357       -0.88662422        0.23347490
H           1.48192358        0.88662413        0.23347524
H           1.48192357       -0.88662415       -0.23347508
6
MD Time 2570.00
C          -0.81654347       -0.00000000       -0.00000002
C           0.81654348        0.00000001        0.00000002
H          -1.46554642        0.90436014       -0.22796382
H          -1.46554638       -0.90436021        0.22796367
H           1.46554639        0.90436012        0.22796401
H           1.46554638       -0.90436014       -0.22796385
6
MD Time 2580.00
C          -0.81050179       -0.00000000       -0.00000002
C           0.81050179        0.00000001        0.00000002
H          -1.44844113        0.92183835       -0.22201049
H          -1.44844108       -0.92183842        0.22201034
H           1.44844110        0.92183833        0.22201068
H           1.44844109       -0.92183835       -0.22201052
6
MD Time 2590.00
C          -0.80420948       -0.00000000       -0.00000002
C           0.80420948        0.00000001        0.00000002
H          -1.43061125        0.93889629       -0.21559845
H          -1.43061120       -0.93889635        0.21559830
H           1.43061122        0.93889626        0.21559864
H           1.43061120       -0.93889629       -0.21559848
6
MD Time 2600.00
C          -0.79767122       -0.00000000       -0.00000002
C           0.79767123        0.00000001        0.00000002
H          -1.41206876        0.95538178       -0.20871625
H          -1.41206871       -0.95538185        0.20871610
H           1.41206874        0.95538176        0.20871644
H           1.41206872       -0.95538179       -0.20871629
6
MD Time 2610.00
C          -0.79089137       -0.00000000       -0.00000002
C           0.79089137        0.00000001        0.00000002
H          -1.39283417        0.97115424       -0.20135757
H          -1.39283411       -0.97115430        0.20135743
H           1.39283414        0.97115422        0.20135777
H           1.39283412       -0.97115425       -0.20135761
6
MD Time 2620.00
C          -0.78387407       -0.00000000       -0.00000002
C           0.78387407        0.00000001        0.00000002
H          -1.37293628        0.98608550       -0.19352107
H          -1.37293622       -0.98608557        0.19352093
H           1.37293626        0.98608549        0.19352126
H           1.37293623       -0.98608551       -0.19352111
6
MD Time 2630.00
C          -0.77662354       -0.00000000       -0.00000002
C           0.77662354        0.00000001        0.00000002
H          -1.35241202        1.00006051       -0.18521015
H          -1.35241196       -1.00006057        0.18521001
H           1.35241200        1.00006049        0.18521034
H           1.35241197       -1.00006052       -0.18521019
6
MD Time 2640.00
C          -0.76914430       -0.00000000       -0.00000002
C           0.76914430        0.00000001        0.00000002
H          -1.33130607        1.01297770       -0.17643268
H          -1.33130601       -1.01297776        0.17643255
H           1.33130605        1.01297769        0.17643288
H           1.33130602       -1.01297772       -0.17643273
6
MD Time 2650.00
C          -0.76144149       -0.00000000       -0.00000002
C           0.76144149        0.00000001        0.00000002
H          -1.30967053        1.02474934       -0.16720074
H          -1.30967046       -1.02474940        0.16720061
H           1.30967050        1.02474933        0.16720093
H           1.30967047       -1.02474935       -0.16720079
6
MD Time 2660.00
C          -0.75352118       -0.00000000       -0.00000002
C           0.75352118        0.00000001        0.00000002
H          -1.28756456        1.03530164       -0.15753022
H          -1.28756449       -1.03530169        0.15753009
H           1.28756454        1.03530163        0.15753041
H           1.28756450       -1.03530165       -0.15753027
6
MD Time 2670.00
C          -0.74539069       -0.00000000       -0.00000002
C           0.74539069        0.00000001        0.00000002
H          -1.26505408        1.04457494       -0.14744054
H          -1.26505401       -1.04457499        0.14744042
H           1.26505406        1.04457493        0.14744073
H           1.26505403       -1.04457495       -0.14744059
6
MD Time 2680.00
C          -0.73705899       -0.00000000       -0.00000002
C           0.73705899        0.00000001        0.00000002
H          -1.24221147        1.05252379       -0.13695431
H          -1.24221139       -1.05252385        0.13695418
H           1.24221145        1.05252380        0.13695449
H           1.24221141       -1.05252382       -0.13695435
6
MD Time 2690.00
C          -0.72853708       -0.00000000       -0.00000002
C           0.72853708        0.00000001        0.00000002
H          -1.21911524        1.05911711       -0.12609693
H          -1.21911516       -1.05911716        0.12609681
H           1.21911522        1.05911712        0.12609712
H           1.21911518       -1.05911713       -0.12609698
6
MD Time 2700.00
C          -0.71983835       -0.00000000       -0.00000002
C           0.71983835        0.00000001        0.00000001
H          -1.19584986        1.06433827       -0.11489635
H          -1.19584978       -1.06433831        0.11489623
H           1.19584984        1.06433827        0.11489653
H           1.19584980       -1.06433829       -0.11489639
6
MD Time 2710.00
C          -0.71097908       -0.00000000       -0.00000002
C           0.71097908        0.00000001        0.00000001
H          -1.17250549        1.06818528       -0.10338261
H          -1.17250542       -1.06818533        0.10338250
H           1.17250548        1.06818529        0.10338279
H           1.17250543       -1.06818531       -0.10338266
6
MD Time 2720.00
C          -0.70197881       -0.00000000       -0.00000002
C           0.70197881        0.00000001        0.00000001
H          -1.14917782        1.07067104       -0.09158759
H          -1.14917774       -1.07067108        0.09158748
H           1.14917781        1.07067105        0.09158776
H           1.14917776       -1.07067107       -0.09158764
6
MD Time 2730.00
C          -0.69286086       -0.00000000       -0.00000001
C           0.69286086        0.00000001        0.00000001
H          -1.12596781        1.07182351       -0.07954458
H          -1.12596773       -1.07182356        0.07954447
H           1.12596780        1.07182353        0.07954474
H           1.12596775       -1.07182354       -0.07954462
6
MD Time 2740.00
C          -0.68365275       -0.00000000       -0.00000001
C           0.68365275        0.00000001        0.00000001
H          -1.10298153        1.07168600       -0.06728791
H          -1.10298145       -1.07168604        0.06728781
H           1.10298151        1.07168601        0.06728807
H           1.10298146       -1.07168603       -0.06728795
6
MD Time 2750.00
C          -0.67438668       -0.00000000       -0.00000001
C           0.67438668        0.00000001        0.00000001
H          -1.08032990        1.07031733       -0.05485261
H          -1.08032982       -1.07031737        0.05485251
H           1.08032989        1.07031735        0.05485276
H           1.08032984       -1.07031736       -0.05485265
6
MD Time 2760.00
C          -0.66509996       -0.00000000       -0.00000001
C           0.66509996        0.00000001        0.00000001
H          -1.05812846        1.06779206       -0.04227393
H          -1.05812838       -1.06779209        0.04227383
H           1.05812845        1.06779208        0.04227408
H           1.05812840       -1.06779209       -0.04227397
6
MD Time 2770.00
C          -0.65583538       -0.00000000       -0.00000001
C           0.65583538        0.00000001        0.00000001
H          -1.03649699        1.06420046       -0.02958696
H          -1.03649691       -1.06420049        0.02958687
H           1.03649698        1.06420048        0.02958711
H           1.03649693       -1.06420049       -0.02958700
6
MD Time 2780.00
C          -0.64664156       -0.00000000       -0.00000001
C           0.64664156        0.00000001        0.00000001
H          -1.01555911        1.05964841       -0.01682617
H          -1.01555903       -1.05964844        0.01682608
H           1.01555910        1.05964843        0.01682631
H           1.01555905       -1.05964844       -0.01682620
6
MD Time 2790.00
C          -0.63757313       -0.00000000       -0.00000001
C           0.63757313        0.00000001        0.00000001
H          -0.99544167        1.05425697       -0.00402492
H          -0.99544159       -1.05425699        0.00402484
H           0.99544166        1.05425699        0.00402505
H           0.99544161       -1.05425699       -0.00402495
6
MD Time 2800.00
C          -0.62869078       -0.00000000       -0.00000001
C           0.62869078        0.00000001        0.00000001
H          -0.97627402        1.04816158        0.00878495
H          -0.97627394       -1.04816161       -0.00878503
H           0.97627401        1.04816161       -0.00878483
H           0.97627396       -1.04816161        0.00878492
6
MD Time 2810.00
C          -0.62006111       -0.00000000       -0.00000001
C           0.62006111        0.00000001        0.00000001
H          -0.95818696        1.04151085        0.02157360
H          -0.95818689       -1.04151087       -0.02157367
H           0.95818695        1.04151087       -0.02157348
H           0.95818690       -1.04151087        0.02157358
6
MD Time 2820.00
C          -0.61175622       -0.00000000       -0.00000001
C           0.61175622        0.00000001        0.00000001
H          -0.94131152        1.03446462        0.03431357
H          -0.94131144       -1.03446464       -0.03431364
H           0.94131151        1.03446465       -0.03431346
H           0.94131146       -1.03446465        0.03431355
6
MD Time 2830.00
C          -0.60385297       -0.00000000       -0.00000001
C           0.60385296        0.00000001        0.00000001
H          -0.92577729        1.02719155        0.04698008
H          -0.92577722       -1.02719157       -0.04698015
H           0.92577728        1.02719158       -0.04697998
H           0.92577723       -1.02719158        0.04698007
6
MD Time 2840.00
C          -0.59643186       -0.00000000       -0.00000001
C           0.59643186        0.00000000        0.00000001
H          -0.91171058        1.01986579        0.05955125
H          -0.91171051       -1.01986581       -0.05955131
H           0.91171057        1.01986581       -0.05955116
H           0.91171052       -1.01986581        0.05955124
6
MD Time 2850.00
C          -0.58957561       -0.00000000       -0.00000001
C           0.58957561        0.00000000        0.00000001
H          -0.89923217        1.01266296        0.07200806
H          -0.89923210       -1.01266298       -0.07200812
H           0.89923216        1.01266299       -0.07200798
H           0.89923211       -1.01266299        0.07200806
6
MD Time 2860.00
C          -0.58336723       -0.00000000       -0.00000001
C           0.58336723        0.00000000        0.00000001
H          -0.88845484        1.00575553        0.08433421
H          -0.88845477       -1.00575555       -0.08433427
H           0.88845483        1.00575556       -0.08433413
H           0.88845479       -1.00575555        0.08433421
6
MD Time 2870.00
C          -0.57788777       -0.00000000       -0.00000001
C           0.57788777        0.00000000        0.00000001
H          -0.87948079        0.99930750        0.09651563
H          -0.87948073       -0.99930752       -0.09651568
H           0.87948078        0.99930753       -0.09651556
H           0.87948074       -0.99930752        0.09651563
6
MD Time 2880.00
C          -0.57321384       -0.00000000       -0.00000001
C           0.57321384        0.00000000        0.00000001
H          -0.87239895        0.99346893        0.10853983
H          -0.87239889       -0.99346894       -0.10853988
H           0.87239894        0.99346895       -0.10853977
H           0.87239889       -0.99346895        0.10853984
6
MD Time 2890.00
C          -0.56941484       -0.00000000       -0.00000001
C           0.56941485        0.00000000        0.00000001
H          -0.86728241        0.98837042        0.12039498
H          -0.86728236       -0.98837044       -0.12039502
H           0.86728240        0.98837045       -0.12039492
H           0.86728236       -0.98837044        0.12039499
6
MD Time 2900.00
C          -0.56655030       -0.00000000       -0.00000001
C           0.56655030        0.00000000        0.00000001
H          -0.86418620        0.98411809        0.13206881
H          -0.86418615       -0.98411811       -0.13206886
H           0.86418619        0.98411812       -0.13206877
H           0.86418616       -0.98411811        0.13206883
6
MD Time 2910.00
C          -0.56466734       -0.00000000       -0.00000001
C           0.56466734        0.00000000        0.00000001
H          -0.86314540        0.98078930        0.14354751
H          -0.86314535       -0.98078932       -0.14354755
H           0.86314538        0.98078933       -0.14354747
H           0.86314535       -0.98078932        0.14354753
6
MD Time 2920.00
C          -0.56379859       -0.00000000       -0.00000001
C           0.56379859        0.00000000        0.00000001
H          -0.86417388        0.97842965        0.15481451
H          -0.86417383       -0.97842966       -0.15481455
H           0.86417386        0.97842967       -0.15481448
H           0.86417383       -0.97842966        0.15481454
6
MD Time 2930.00
C          -0.56396066       -0.00000000       -0.00000001
C           0.56396066        0.00000000        0.00000001
H          -0.86726378        0.97705137        0.16584961
H          -0.86726374       -0.97705138       -0.16584965
H           0.86726376        0.97705139       -0.16584959
H           0.86726374       -0.97705138        0.16584964
6
MD Time 2940.00
C          -0.56515338       -0.00000000       -0.00000001
C           0.56515338        0.00000000        0.00000001
H          -0.87238566        0.97663336        0.17662818
H          -0.87238563       -0.97663338       -0.17662821
H           0.87238565        0.97663338       -0.17662816
H           0.87238562       -0.97663337        0.17662822
6
MD Time 2950.00
C          -0.56735988       -0.00000000       -0.00000001
C           0.56735988        0.00000000        0.00000001
H          -0.87948946        0.97712281        0.18712085
H          -0.87948943       -0.97712282       -0.18712088
H           0.87948945        0.97712283       -0.18712084
H           0.87948943       -0.97712282        0.18712089
6
MD Time 2960.00
C          -0.57054743       -0.00000000       -0.00000001
C           0.57054743        0.00000000        0.00000001
H          -0.88850607        0.97843816        0.19729350
H          -0.88850604       -0.97843817       -0.19729352
H           0.88850605        0.97843817       -0.19729350
H           0.88850603       -0.97843817        0.19729355
6
MD Time 2970.00
C          -0.57466904       -0.00000000       -0.00000001
C           0.57466904        0.00000000        0.00000001
H          -0.89934945        0.98047324        0.20710767
H          -0.89934943       -0.98047326       -0.20710769
H           0.89934943        0.98047326       -0.20710767
H           0.89934942       -0.98047325        0.20710772
6
MD Time 2980.00
C          -0.57966564       -0.00000000       -0.00000001
C           0.57966564        0.00000000        0.00000001
H          -0.91191920        0.98310217        0.21652130
H          -0.91191918       -0.98310219       -0.21652132
H           0.91191918        0.98310219       -0.21652131
H           0.91191917       -0.98310218        0.21652136
6
MD Time 2990.00
C          -0.58546861       -0.00000000       -0.00000001
C           0.58546861        0.00000000        0.00000001
H          -0.92610320        0.98618454        0.22548971
H          -0.92610318       -0.98618455       -0.22548973
H           0.92610317        0.98618455       -0.22548973
H           0.92610317       -0.98618454        0.22548978
