6
MD Time 0.00
C          -1.00424993        0.00000000        0.00000000
C           1.00424993        0.00000000        0.00000000
H          -1.57974221        0.85087473        0.35244385
H          -1.57974221       -0.85087473       -0.35244385
H           1.57974221        0.85087473       -0.35244385
H           1.57974221       -0.85087473        0.35244385
6
MD Time 10.00
C          -1.00410391       -0.00000000       -0.00000000
C           1.00410391       -0.00000000        0.00000000
H          -1.57963147        0.85108646        0.35234441
H          -1.57963147       -0.85108646       -0.35234441
H           1.57963147        0.85108646       -0.35234441
H           1.57963147       -0.85108646        0.35234441
6
MD Time 20.00
C          -1.00366611       -0.00000000       -0.00000000
C           1.00366611       -0.00000000        0.00000000
H          -1.57929736        0.85171790        0.35204521
H          -1.57929736       -0.85171790       -0.35204521
H           1.57929736        0.85171790       -0.35204521
H           1.57929736       -0.85171790        0.35204521
6
MD Time 30.00
C          -1.00293720       -0.00000000       -0.00000000
C           1.00293720       -0.00000000        0.00000000
H          -1.57873424        0.85275780        0.35154364
H          -1.57873424       -0.85275780       -0.35154364
H           1.57873424        0.85275780       -0.35154364
H           1.57873424       -0.85275780        0.35154364
6
MD Time 40.00
C          -1.00191828       -0.00000000       -0.00000000
C           1.00191828       -0.00000000        0.00000000
H          -1.57793299        0.85418783        0.35083548
H          -1.57793299       -0.85418783       -0.35083548
H           1.57793299        0.85418783       -0.35083548
H           1.57793299       -0.85418783        0.35083548
6
MD Time 50.00
C          -1.00061083       -0.00000000       -0.00000000
C           1.00061083       -0.00000000        0.00000000
H          -1.57688130        0.85598311        0.34991517
H          -1.57688130       -0.85598311       -0.34991517
H           1.57688130        0.85598311       -0.34991517
H           1.57688130       -0.85598311        0.34991517
6
MD Time 60.00
C          -0.99901659       -0.00000000       -0.00000000
C           0.99901659       -0.00000000        0.00000000
H          -1.57556420        0.85811291        0.34877602
H          -1.57556420       -0.85811291       -0.34877602
H           1.57556420        0.85811291       -0.34877602
H           1.57556420       -0.85811291        0.34877602
6
MD Time 70.00
C          -0.99713751       -0.00000000       -0.00000000
C           0.99713751       -0.00000000        0.00000000
H          -1.57396456        0.86054162        0.34741062
H          -1.57396456       -0.86054162       -0.34741062
H           1.57396456        0.86054162       -0.34741062
H           1.57396456       -0.86054162        0.34741062
6
MD Time 80.00
C          -0.99497560       -0.00000000       -0.00000000
C           0.99497560       -0.00000000        0.00000000
H          -1.57206377        0.86322966        0.34581117
H          -1.57206377       -0.86322966       -0.34581117
H           1.57206377        0.86322966       -0.34581117
H           1.57206377       -0.86322966        0.34581117
6
MD Time 90.00
C          -0.99253290       -0.00000000       -0.00000000
C           0.99253290       -0.00000000        0.00000000
H          -1.56984234        0.86613461        0.34396989
H          -1.56984234       -0.86613461       -0.34396989
H           1.56984234        0.86613461       -0.34396989
H           1.56984234       -0.86613461        0.34396989
6
MD Time 100.00
C          -0.98981127       -0.00000000       -0.00000000
C           0.98981127       -0.00000000        0.00000000
H          -1.56728064        0.86921228        0.34187940
H          -1.56728064       -0.86921228       -0.34187940
H           1.56728064        0.86921228       -0.34187940
H           1.56728064       -0.86921228        0.34187940
6
MD Time 110.00
C          -0.98681237       -0.00000000       -0.00000000
C           0.98681237       -0.00000000        0.00000000
H          -1.56435946        0.87241785        0.33953311
H          -1.56435946       -0.87241785       -0.33953311
H           1.56435946        0.87241785       -0.33953311
H           1.56435946       -0.87241785        0.33953311
6
MD Time 120.00
C          -0.98353754       -0.00000000       -0.00000000
C           0.98353754       -0.00000000        0.00000000
H          -1.56106074        0.87570690        0.33692558
H          -1.56106074       -0.87570690       -0.33692558
H           1.56106074        0.87570690       -0.33692558
H           1.56106074       -0.87570690        0.33692558
6
MD Time 130.00
C          -0.97998766       -0.00000000       -0.00000000
C           0.97998766       -0.00000000        0.00000000
H          -1.55736804        0.87903644        0.33405278
H          -1.55736804       -0.87903644       -0.33405278
H           1.55736804        0.87903644       -0.33405278
H           1.55736804       -0.87903644        0.33405278
6
MD Time 140.00
C          -0.97616313       -0.00000000       -0.00000000
C           0.97616313       -0.00000000        0.00000000
H          -1.55326710        0.88236580        0.33091239
H          -1.55326710       -0.88236580       -0.33091239
H           1.55326710        0.88236580       -0.33091239
H           1.55326710       -0.88236580        0.33091239
6
MD Time 150.00
C          -0.97206381       -0.00000000       -0.00000000
C           0.97206381       -0.00000000        0.00000000
H          -1.54874622        0.88565748        0.32750396
H          -1.54874622       -0.88565748       -0.32750396
H           1.54874622        0.88565748       -0.32750396
H           1.54874622       -0.88565748        0.32750396
6
MD Time 160.00
C          -0.96768890       -0.00000000       -0.00000000
C           0.96768890       -0.00000000        0.00000000
H          -1.54379661        0.88887783        0.32382908
H          -1.54379661       -0.88887783       -0.32382908
H           1.54379661        0.88887783       -0.32382908
H           1.54379661       -0.88887783        0.32382908
6
MD Time 170.00
C          -0.96303698       -0.00000000       -0.00000000
C           0.96303698       -0.00000000        0.00000000
H          -1.53841267        0.89199761        0.31989143
H          -1.53841267       -0.89199761       -0.31989143
H           1.53841267        0.89199761       -0.31989143
H           1.53841267       -0.89199761        0.31989143
6
MD Time 180.00
C          -0.95810596       -0.00000000       -0.00000000
C           0.95810596       -0.00000000        0.00000000
H          -1.53259212        0.89499252        0.31569679
H          -1.53259212       -0.89499252       -0.31569679
H           1.53259212        0.89499252       -0.31569679
H           1.53259212       -0.89499252        0.31569679
6
MD Time 190.00
C          -0.95289307       -0.00000000       -0.00000000
C           0.95289307       -0.00000000        0.00000000
H          -1.52633608        0.89784345        0.31125302
H          -1.52633608       -0.89784345       -0.31125302
H           1.52633608        0.89784345       -0.31125302
H           1.52633608       -0.89784345        0.31125302
6
MD Time 200.00
C          -0.94739486        0.00000000       -0.00000000
C           0.94739486       -0.00000000        0.00000000
H          -1.51964911        0.90053674        0.30656988
H          -1.51964911       -0.90053674       -0.30656988
H           1.51964911        0.90053674       -0.30656988
H           1.51964911       -0.90053674        0.30656988
6
MD Time 210.00
C          -0.94160728        0.00000000       -0.00000000
C           0.94160728       -0.00000000        0.00000000
H          -1.51253907        0.90306422        0.30165895
H          -1.51253907       -0.90306422       -0.30165895
H           1.51253907        0.90306422       -0.30165895
H           1.51253907       -0.90306422        0.30165895
6
MD Time 220.00
C          -0.93552563        0.00000000       -0.00000000
C           0.93552563       -0.00000000        0.00000000
H          -1.50501703        0.90542320        0.29653333
H          -1.50501703       -0.90542320       -0.29653333
H           1.50501703        0.90542320       -0.29653333
H           1.50501703       -0.90542320        0.29653333
6
MD Time 230.00
C          -0.92914472        0.00000000       -0.00000000
C           0.92914472       -0.00000000        0.00000000
H          -1.49709698        0.90761626        0.29120742
H          -1.49709698       -0.90761626       -0.29120742
H           1.49709698        0.90761626       -0.29120742
H           1.49709698       -0.90761626        0.29120742
6
MD Time 240.00
C          -0.92245884        0.00000000       -0.00000000
C           0.92245884       -0.00000000        0.00000000
H          -1.48879559        0.90965097        0.28569656
H          -1.48879559       -0.90965097       -0.28569656
H           1.48879559        0.90965097       -0.28569656
H           1.48879559       -0.90965097        0.28569656
6
MD Time 250.00
C          -0.91546194        0.00000000       -0.00000000
C           0.91546194       -0.00000000        0.00000000
H          -1.48013182        0.91153946        0.28001671
H          -1.48013182       -0.91153946       -0.28001671
H           1.48013182        0.91153946       -0.28001671
H           1.48013182       -0.91153946        0.28001671
6
MD Time 260.00
C          -0.90814765        0.00000000       -0.00000000
C           0.90814765       -0.00000000        0.00000000
H          -1.47112654        0.91329792        0.27418402
H          -1.47112654       -0.91329792       -0.27418402
H           1.47112654        0.91329792       -0.27418402
H           1.47112654       -0.91329792        0.27418402
6
MD Time 270.00
C          -0.90050946        0.00000000       -0.00000000
C           0.90050946       -0.00000000        0.00000000
H          -1.46180205        0.91494593        0.26821446
H          -1.46180205       -0.91494593       -0.26821446
H           1.46180205        0.91494593       -0.26821446
H           1.46180205       -0.91494593        0.26821446
6
MD Time 280.00
C          -0.89254084        0.00000000       -0.00000000
C           0.89254084       -0.00000000        0.00000000
H          -1.45218161        0.91650571        0.26212335
H          -1.45218161       -0.91650571       -0.26212335
H           1.45218161        0.91650571       -0.26212335
H           1.45218161       -0.91650571        0.26212335
6
MD Time 290.00
C          -0.88423540        0.00000000       -0.00000000
C           0.88423540       -0.00000000        0.00000000
H          -1.44228892        0.91800135        0.25592494
H          -1.44228892       -0.91800135       -0.25592494
H           1.44228892        0.91800135       -0.25592494
H           1.44228892       -0.91800135        0.25592494
6
MD Time 300.00
C          -0.87558705        0.00000000       -0.00000000
C           0.87558705       -0.00000000        0.00000000
H          -1.43214755        0.91945781        0.24963197
H          -1.43214755       -0.91945781       -0.24963197
H           1.43214755        0.91945781       -0.24963197
H           1.43214755       -0.91945781        0.24963197
6
MD Time 310.00
C          -0.86659025        0.00000000       -0.00000000
C           0.86659025       -0.00000000        0.00000000
H          -1.42178050        0.92090006        0.24325531
H          -1.42178050       -0.92090006       -0.24325531
H           1.42178050        0.92090006       -0.24325531
H           1.42178050       -0.92090006        0.24325531
6
MD Time 320.00
C          -0.85724018        0.00000000       -0.00000000
C           0.85724018       -0.00000000        0.00000000
H          -1.41120957        0.92235202        0.23680353
H          -1.41120957       -0.92235202       -0.23680353
H           1.41120957        0.92235202       -0.23680353
H           1.41120957       -0.92235202        0.23680353
6
MD Time 330.00
C          -0.84753302        0.00000000       -0.00000000
C           0.84753302       -0.00000000        0.00000000
H          -1.40045497        0.92383565        0.23028260
H          -1.40045497       -0.92383565       -0.23028260
H           1.40045497        0.92383565       -0.23028260
H           1.40045497       -0.92383565        0.23028260
6
MD Time 340.00
C          -0.83746623        0.00000000       -0.00000000
C           0.83746623       -0.00000000        0.00000000
H          -1.38953484        0.92536990        0.22369568
H          -1.38953484       -0.92536990       -0.22369568
H           1.38953484        0.92536990       -0.22369568
H           1.38953484       -0.92536990        0.22369568
6
MD Time 350.00
C          -0.82703888        0.00000000       -0.00000000
C           0.82703888       -0.00000000        0.00000000
H          -1.37846489        0.92696988        0.21704288
H          -1.37846489       -0.92696988       -0.21704288
H           1.37846489        0.92696988       -0.21704288
H           1.37846489       -0.92696988        0.21704288
6
MD Time 360.00
C          -0.81625195        0.00000000       -0.00000000
C           0.81625195       -0.00000000        0.00000000
H          -1.36725810        0.92864602        0.21032119
H          -1.36725810       -0.92864602       -0.21032119
H           1.36725810        0.92864602       -0.21032119
H           1.36725810       -0.92864602        0.21032119
6
MD Time 370.00
C          -0.80510879        0.00000000       -0.00000000
C           0.80510879       -0.00000000        0.00000000
H          -1.35592453        0.93040334        0.20352451
H          -1.35592453       -0.93040334       -0.20352451
H           1.35592453        0.93040334       -0.20352451
H           1.35592453       -0.93040334        0.20352451
6
MD Time 380.00
C          -0.79361551        0.00000000       -0.00000000
C           0.79361551       -0.00000000        0.00000000
H          -1.34447120        0.93224096        0.19664377
H          -1.34447120       -0.93224096       -0.19664377
H           1.34447120        0.93224096       -0.19664377
H           1.34447120       -0.93224096        0.19664377
6
MD Time 390.00
C          -0.78178149        0.00000000       -0.00000000
C           0.78178149       -0.00000000        0.00000000
H          -1.33290212        0.93415160        0.18966709
H          -1.33290212       -0.93415160       -0.18966709
H           1.33290212        0.93415160       -0.18966709
H           1.33290212       -0.93415160        0.18966709
6
MD Time 400.00
C          -0.76961995        0.00000000       -0.00000000
C           0.76961995       -0.00000000        0.00000000
H          -1.32121837        0.93612145        0.18258015
H          -1.32121837       -0.93612145       -0.18258015
H           1.32121837        0.93612145       -0.18258015
H           1.32121837       -0.93612145        0.18258015
6
MD Time 410.00
C          -0.75714856        0.00000000       -0.00000000
C           0.75714856       -0.00000000        0.00000000
H          -1.30941830        0.93813007        0.17536659
H          -1.30941830       -0.93813007       -0.17536659
H           1.30941830        0.93813007       -0.17536659
H           1.30941830       -0.93813007        0.17536659
6
MD Time 420.00
C          -0.74439010        0.00000000       -0.00000000
C           0.74439010       -0.00000000        0.00000000
H          -1.29749791        0.94015056        0.16800850
H          -1.29749791       -0.94015056       -0.16800850
H           1.29749791        0.94015056       -0.16800850
H           1.29749791       -0.94015056        0.16800850
6
MD Time 430.00
C          -0.73137327        0.00000000       -0.00000000
C           0.73137327       -0.00000000        0.00000000
H          -1.28545121        0.94214991        0.16048697
H          -1.28545121       -0.94214991       -0.16048697
H           1.28545121        0.94214991       -0.16048697
H           1.28545121       -0.94214991        0.16048697
6
MD Time 440.00
C          -0.71813349        0.00000000       -0.00000000
C           0.71813349       -0.00000000        0.00000000
H          -1.27327080        0.94408955        0.15278276
H          -1.27327080       -0.94408955       -0.15278276
H           1.27327080        0.94408955       -0.15278276
H           1.27327080       -0.94408955        0.15278276
6
MD Time 450.00
C          -0.70471380        0.00000000       -0.00000000
C           0.70471380       -0.00000000        0.00000000
H          -1.26094850        0.94592605        0.14487691
H          -1.26094850       -0.94592605       -0.14487691
H           1.26094850        0.94592605       -0.14487691
H           1.26094850       -0.94592605        0.14487691
6
MD Time 460.00
C          -0.69116579        0.00000000       -0.00000000
C           0.69116579       -0.00000000        0.00000000
H          -1.24847609        0.94761209        0.13675146
H          -1.24847609       -0.94761209       -0.13675146
H           1.24847609        0.94761209       -0.13675146
H           1.24847609       -0.94761209        0.13675146
6
MD Time 470.00
C          -0.67755058        0.00000000       -0.00000000
C           0.67755058       -0.00000000        0.00000000
H          -1.23584619        0.94909758        0.12839010
H          -1.23584619       -0.94909758       -0.12839010
H           1.23584619        0.94909758       -0.12839010
H           1.23584619       -0.94909758        0.12839010
6
MD Time 480.00
C          -0.66393977        0.00000000       -0.00000000
C           0.66393977       -0.00000000        0.00000000
H          -1.22305324        0.95033099        0.11977886
H          -1.22305324       -0.95033099       -0.11977886
H           1.22305324        0.95033099       -0.11977886
H           1.22305324       -0.95033099        0.11977886
6
MD Time 490.00
C          -0.65041625        0.00000000       -0.00000000
C           0.65041625       -0.00000000        0.00000000
H          -1.21009468        0.95126094        0.11090676
H          -1.21009468       -0.95126094       -0.11090676
H           1.21009468        0.95126094       -0.11090676
H           1.21009468       -0.95126094        0.11090676
6
MD Time 500.00
C          -0.63707494        0.00000000       -0.00000000
C           0.63707494       -0.00000000        0.00000000
H          -1.19697221        0.95183799        0.10176637
H          -1.19697221       -0.95183799       -0.10176637
H           1.19697221        0.95183799       -0.10176637
H           1.19697221       -0.95183799        0.10176637
6
MD Time 510.00
C          -0.62402313        0.00000000       -0.00000000
C           0.62402313       -0.00000000        0.00000000
H          -1.18369325        0.95201670        0.09235439
H          -1.18369325       -0.95201670       -0.09235439
H           1.18369325        0.95201670       -0.09235439
H           1.18369325       -0.95201670        0.09235439
6
MD Time 520.00
C          -0.61138042        0.00000000       -0.00000000
C           0.61138042       -0.00000000        0.00000000
H          -1.17027253        0.95175793        0.08267211
H          -1.17027253       -0.95175793       -0.08267211
H           1.17027253        0.95175793       -0.08267211
H           1.17027253       -0.95175793        0.08267211
6
MD Time 530.00
C          -0.59927801        0.00000000       -0.00000000
C           0.59927801       -0.00000000        0.00000000
H          -1.15673387        0.95103142        0.07272580
H          -1.15673387       -0.95103142       -0.07272580
H           1.15673387        0.95103142       -0.07272580
H           1.15673387       -0.95103142        0.07272580
6
MD Time 540.00
C          -0.58785706        0.00000000       -0.00000000
C           0.58785706       -0.00000000        0.00000000
H          -1.14311198        0.94981854        0.06252699
H          -1.14311198       -0.94981854       -0.06252699
H           1.14311198        0.94981854       -0.06252699
H           1.14311198       -0.94981854        0.06252699
6
MD Time 550.00
C          -0.57726604        0.00000000       -0.00000000
C           0.57726604       -0.00000000        0.00000000
H          -1.12945432        0.94811531        0.05209266
H          -1.12945432       -0.94811531       -0.05209266
H           1.12945432        0.94811531       -0.05209266
H           1.12945432       -0.94811531        0.05209266
6
MD Time 560.00
C          -0.56765677        0.00000000       -0.00000000
C           0.56765677       -0.00000000        0.00000000
H          -1.11582293        0.94593541        0.04144525
H          -1.11582293       -0.94593541       -0.04144525
H           1.11582293        0.94593541       -0.04144525
H           1.11582293       -0.94593541        0.04144525
6
MD Time 570.00
C          -0.55917914        0.00000000       -0.00000000
C           0.55917914       -0.00000000        0.00000000
H          -1.10229597        0.94331323        0.03061256
H          -1.10229597       -0.94331323       -0.03061256
H           1.10229597        0.94331323       -0.03061256
H           1.10229597       -0.94331323        0.03061256
6
MD Time 580.00
C          -0.55197463        0.00000000       -0.00000000
C           0.55197463       -0.00000000        0.00000000
H          -1.08896895        0.94030667        0.01962743
H          -1.08896895       -0.94030667       -0.01962743
H           1.08896895        0.94030667       -0.01962743
H           1.08896895       -0.94030667        0.01962743
6
MD Time 590.00
C          -0.54616897        0.00000000       -0.00000000
C           0.54616897       -0.00000000        0.00000000
H          -1.07595532        0.93699956        0.00852720
H          -1.07595532       -0.93699956       -0.00852720
H           1.07595532        0.93699956       -0.00852720
H           1.07595532       -0.93699956        0.00852720
6
MD Time 600.00
C          -0.54186456        0.00000000       -0.00000000
C           0.54186456       -0.00000000        0.00000000
H          -1.06338616        0.93350324       -0.00264699
H          -1.06338616       -0.93350324        0.00264699
H           1.06338616        0.93350324        0.00264699
H           1.06338616       -0.93350324       -0.00264699
6
MD Time 610.00
C          -0.53913346        0.00000000       -0.00000000
C           0.53913346       -0.00000000        0.00000000
H          -1.05140886        0.92995709       -0.01385124
H          -1.05140886       -0.92995709        0.01385124
H           1.05140886        0.92995709        0.01385124
H           1.05140886       -0.92995709       -0.01385124
6
MD Time 620.00
C          -0.53801194        0.00000000       -0.00000000
C           0.53801194       -0.00000000        0.00000000
H          -1.04018440        0.92652747       -0.02504007
H          -1.04018440       -0.92652747        0.02504007
H           1.04018440        0.92652747        0.02504007
H           1.04018440       -0.92652747       -0.02504007
6
MD Time 630.00
C          -0.53849745        0.00000000       -0.00000000
C           0.53849745       -0.00000000        0.00000000
H          -1.02988316        0.92340460       -0.03616777
H          -1.02988316       -0.92340460        0.03616777
H           1.02988316        0.92340460        0.03616777
H           1.02988316       -0.92340460       -0.03616777
6
MD Time 640.00
C          -0.54054843        0.00000000       -0.00000000
C           0.54054843       -0.00000000        0.00000000
H          -1.02067919        0.92079709       -0.04718981
H          -1.02067919       -0.92079709        0.04718981
H           1.02067919        0.92079709        0.04718981
H           1.02067919       -0.92079709       -0.04718981
6
MD Time 650.00
C          -0.54408732        0.00000000       -0.00000000
C           0.54408732       -0.00000000        0.00000000
H          -1.01274316        0.91892374       -0.05806421
H          -1.01274316       -0.91892374        0.05806421
H           1.01274316        0.91892374        0.05806421
H           1.01274316       -0.91892374       -0.05806421
6
MD Time 660.00
C          -0.54900611        0.00000000       -0.00000000
C           0.54900611       -0.00000000        0.00000000
H          -1.00623436        0.91800279       -0.06875257
H          -1.00623436       -0.91800279        0.06875257
H           1.00623436        0.91800279        0.06875257
H           1.00623436       -0.91800279       -0.06875257
6
MD Time 670.00
C          -0.55517385        0.00000000       -0.00000000
C           0.55517385       -0.00000000        0.00000000
H          -1.00129243        0.91823909       -0.07922068
H          -1.00129243       -0.91823909        0.07922068
H           1.00129243        0.91823909        0.07922068
H           1.00129243       -0.91823909       -0.07922068
6
MD Time 680.00
C          -0.56244502        0.00000000       -0.00000000
C           0.56244502       -0.00000000        0.00000000
H          -0.99802975        0.91981025       -0.08943860
H          -0.99802975       -0.91981025        0.08943860
H           0.99802975        0.91981025        0.08943860
H           0.99802975       -0.91981025       -0.08943860
6
MD Time 690.00
C          -0.57066772        0.00000000       -0.00000000
C           0.57066772       -0.00000000        0.00000000
H          -0.99652524        0.92285305       -0.09938011
H          -0.99652524       -0.92285305        0.09938011
H           0.99652524        0.92285305        0.09938011
H           0.99652524       -0.92285305       -0.09938011
6
MD Time 700.00
C          -0.57969089        0.00000000       -0.00000000
C           0.57969089       -0.00000000        0.00000000
H          -0.99682051        0.92745189       -0.10902170
H          -0.99682051       -0.92745189        0.10902170
H           0.99682051        0.92745189        0.10902170
H           0.99682051       -0.92745189       -0.10902170
6
MD Time 710.00
C          -0.58936992        0.00000000       -0.00000000
C           0.58936992       -0.00000000        0.00000000
H          -0.99891875        0.93363076       -0.11834133
H          -0.99891875       -0.93363076        0.11834133
H           0.99891875        0.93363076        0.11834133
H           0.99891875       -0.93363076       -0.11834133
6
MD Time 720.00
C          -0.59957066        0.00000000       -0.00000000
C           0.59957066       -0.00000000        0.00000000
H          -1.00278636        0.94134978       -0.12731710
H          -1.00278636       -0.94134978        0.12731710
H           1.00278636        0.94134978        0.12731710
H           1.00278636       -0.94134978       -0.12731710
6
MD Time 730.00
C          -0.61017154        0.00000000       -0.00000000
C           0.61017154       -0.00000000        0.00000000
H          -1.00835701        0.95050669       -0.13592625
H          -1.00835701       -0.95050669        0.13592625
H           1.00835701        0.95050669        0.13592625
H           1.00835701       -0.95050669       -0.13592625
6
MD Time 740.00
C          -0.62106445        0.00000000       -0.00000000
C           0.62106445       -0.00000000        0.00000000
H          -1.01553741        0.96094297       -0.14414457
H          -1.01553741       -0.96094297        0.14414457
H           1.01553741        0.96094297        0.14414457
H           1.01553741       -0.96094297       -0.14414457
6
MD Time 750.00
C          -0.63215446        0.00000000       -0.00000000
C           0.63215446       -0.00000000        0.00000000
H          -1.02421388        0.97245349       -0.15194620
H          -1.02421388       -0.97245349        0.15194620
H           1.02421388        0.97245349        0.15194620
H           1.02421388       -0.97245349       -0.15194620
6
MD Time 760.00
C          -0.64335887        0.00000000       -0.00000000
C           0.64335887       -0.00000000        0.00000000
H          -1.03425903        0.98479822       -0.15930399
H          -1.03425903       -0.98479822        0.15930399
H           1.03425903        0.98479822        0.15930399
H           1.03425903       -0.98479822       -0.15930399
6
MD Time 770.00
C          -0.65460596        0.00000000       -0.00000000
C           0.65460596       -0.00000000        0.00000000
H          -1.04553778        0.99771476       -0.16619003
H          -1.04553778       -0.99771476        0.16619003
H           1.04553778        0.99771476        0.16619003
H           1.04553778       -0.99771476       -0.16619003
6
MD Time 780.00
C          -0.66583353        0.00000000       -0.00000000
C           0.66583353       -0.00000000        0.00000000
H          -1.05791249        1.01093016       -0.17257646
H          -1.05791249       -1.01093016        0.17257646
H           1.05791249        1.01093016        0.17257646
H           1.05791249       -1.01093016       -0.17257646
6
MD Time 790.00
C          -0.67698764        0.00000000       -0.00000000
C           0.67698764       -0.00000000        0.00000000
H          -1.07124691        1.02417141       -0.17843624
H          -1.07124691       -1.02417141        0.17843624
H           1.07124691        1.02417141        0.17843624
H           1.07124691       -1.02417141       -0.17843624
6
MD Time 800.00
C          -0.68802135        0.00000000       -0.00000000
C           0.68802135       -0.00000000        0.00000000
H          -1.08540897        1.03717394       -0.18374390
H          -1.08540897       -1.03717394        0.18374390
H           1.08540897        1.03717394        0.18374390
H           1.08540897       -1.03717394       -0.18374390
6
MD Time 810.00
C          -0.69889370        0.00000000       -0.00000000
C           0.69889370       -0.00000000        0.00000000
H          -1.10027267        1.04968812       -0.18847608
H          -1.10027267       -1.04968812        0.18847608
H           1.10027267        1.04968812        0.18847608
H           1.10027267       -1.04968812       -0.18847608
6
MD Time 820.00
C          -0.70956895        0.00000000       -0.00000000
C           0.70956895       -0.00000000        0.00000000
H          -1.11571911        1.06148380       -0.19261205
H          -1.11571911       -1.06148380        0.19261205
H           1.11571911        1.06148380        0.19261205
H           1.11571911       -1.06148380       -0.19261205
6
MD Time 830.00
C          -0.72001580        0.00000000       -0.00000000
C           0.72001580       -0.00000000        0.00000000
H          -1.13163698        1.07235321       -0.19613392
H          -1.13163698       -1.07235321        0.19613392
H           1.13163698        1.07235321        0.19613392
H           1.13163698       -1.07235321       -0.19613392
6
MD Time 840.00
C          -0.73020692        0.00000000       -0.00000000
C           0.73020692       -0.00000000        0.00000000
H          -1.14792264        1.08211253       -0.19902684
H          -1.14792264       -1.08211253        0.19902684
H           1.14792264        1.08211253        0.19902684
H           1.14792264       -1.08211253       -0.19902684
6
MD Time 850.00
C          -0.74011843        0.00000000       -0.00000000
C           0.74011843       -0.00000000        0.00000000
H          -1.16447990        1.09060247       -0.20127907
H          -1.16447990       -1.09060247        0.20127907
H           1.16447990        1.09060247        0.20127907
H           1.16447990       -1.09060247       -0.20127907
6
MD Time 860.00
C          -0.74972957        0.00000000       -0.00000000
C           0.74972957       -0.00000000        0.00000000
H          -1.18121973        1.09768819       -0.20288189
H          -1.18121973       -1.09768819        0.20288189
H           1.18121973        1.09768819        0.20288189
H           1.18121973       -1.09768819       -0.20288189
6
MD Time 870.00
C          -0.75902230        0.00000000       -0.00000000
C           0.75902230       -0.00000000        0.00000000
H          -1.19805986        1.10325878       -0.20382959
H          -1.19805986       -1.10325878        0.20382959
H           1.19805986        1.10325878        0.20382959
H           1.19805986       -1.10325878       -0.20382959
6
MD Time 880.00
C          -0.76798105        0.00000000       -0.00000000
C           0.76798105       -0.00000000        0.00000000
H          -1.21492440        1.10722652       -0.20411933
H          -1.21492440       -1.10722652        0.20411933
H           1.21492440        1.10722652        0.20411933
H           1.21492440       -1.10722652       -0.20411933
6
MD Time 890.00
C          -0.77659241        0.00000000       -0.00000000
C           0.77659241       -0.00000000        0.00000000
H          -1.23174355        1.10952610       -0.20375102
H          -1.23174355       -1.10952610        0.20375102
H           1.23174355        1.10952610        0.20375102
H           1.23174355       -1.10952610       -0.20375102
6
MD Time 900.00
C          -0.78484487        0.00000000       -0.00000000
C           0.78484487       -0.00000000        0.00000000
H          -1.24845335        1.11011383       -0.20272721
H          -1.24845335       -1.11011383        0.20272721
H           1.24845335        1.11011383        0.20272721
H           1.24845335       -1.11011383       -0.20272721
6
MD Time 910.00
C          -0.79272855       -0.00000000       -0.00000000
C           0.79272855       -0.00000000        0.00000000
H          -1.26499553        1.10896697       -0.20105295
H          -1.26499553       -1.10896697        0.20105295
H           1.26499553        1.10896697        0.20105295
H           1.26499553       -1.10896697       -0.20105295
6
MD Time 920.00
C          -0.80023497       -0.00000000       -0.00000000
C           0.80023497        0.00000000        0.00000000
H          -1.28131748        1.10608330       -0.19873570
H          -1.28131748       -1.10608330        0.19873570
H           1.28131748        1.10608330        0.19873570
H           1.28131748       -1.10608330       -0.19873570
6
MD Time 930.00
C          -0.80735679       -0.00000000       -0.00000000
C           0.80735679        0.00000000        0.00000000
H          -1.29737236        1.10148068       -0.19578521
H          -1.29737236       -1.10148068        0.19578521
H           1.29737236        1.10148068        0.19578521
H           1.29737236       -1.10148068       -0.19578521
6
MD Time 940.00
C          -0.81408753       -0.00000000       -0.00000000
C           0.81408753        0.00000000        0.00000000
H          -1.31311928        1.09519692       -0.19221339
H          -1.31311928       -1.09519692        0.19221339
H           1.31311928        1.09519692        0.19221339
H           1.31311928       -1.09519692       -0.19221339
6
MD Time 950.00
C          -0.82042138       -0.00000000       -0.00000000
C           0.82042138        0.00000000        0.00000000
H          -1.32852369        1.08728970       -0.18803425
H          -1.32852369       -1.08728970        0.18803425
H           1.32852369        1.08728970        0.18803425
H           1.32852369       -1.08728970       -0.18803425
6
MD Time 960.00
C          -0.82635288       -0.00000000       -0.00000000
C           0.82635288        0.00000000        0.00000000
H          -1.34355779        1.07783659       -0.18326373
H          -1.34355779       -1.07783659        0.18326373
H           1.34355779        1.07783659        0.18326373
H           1.34355779       -1.07783659       -0.18326373
6
MD Time 970.00
C          -0.83187674       -0.00000000       -0.00000000
C           0.83187674        0.00000000        0.00000000
H          -1.35820112        1.06693506       -0.17791957
H          -1.35820112       -1.06693506        0.17791957
H           1.35820112        1.06693506        0.17791957
H           1.35820112       -1.06693506       -0.17791957
6
MD Time 980.00
C          -0.83698752       -0.00000000       -0.00000000
C           0.83698752        0.00000000        0.00000000
H          -1.37244115        1.05470243       -0.17202108
H          -1.37244115       -1.05470243        0.17202108
H           1.37244115        1.05470243        0.17202108
H           1.37244115       -1.05470243       -0.17202108
6
MD Time 990.00
C          -0.84167948       -0.00000000       -0.00000000
C           0.84167948        0.00000000        0.00000000
H          -1.38627397        1.04127562       -0.16558892
H          -1.38627397       -1.04127562        0.16558892
H           1.38627397        1.04127562        0.16558892
H           1.38627397       -1.04127562       -0.16558892
6
MD Time 1000.00
C          -0.84594633       -0.00000000       -0.00000000
C           0.84594633        0.00000000        0.00000000
H          -1.39970485        1.02681058       -0.15864475
H          -1.39970485       -1.02681058        0.15864475
H           1.39970485        1.02681058        0.15864475
H           1.39970485       -1.02681058       -0.15864475
6
MD Time 1010.00
C          -0.84978105       -0.00000000       -0.00000000
C           0.84978105        0.00000000        0.00000000
H          -1.41274878        1.01148120       -0.15121084
H          -1.41274878       -1.01148120        0.15121084
H           1.41274878        1.01148120        0.15121084
H           1.41274878       -1.01148120       -0.15121084
6
MD Time 1020.00
C          -0.85317579       -0.00000000       -0.00000000
C           0.85317579        0.00000000        0.00000000
H          -1.42543060        0.99547767       -0.14330956
H          -1.42543060       -0.99547767        0.14330956
H           1.42543060        0.99547767        0.14330956
H           1.42543060       -0.99547767       -0.14330956
6
MD Time 1030.00
C          -0.85612187       -0.00000000       -0.00000000
C           0.85612187        0.00000000        0.00000000
H          -1.43778496        0.97900397       -0.13496285
H          -1.43778496       -0.97900397        0.13496285
H           1.43778496        0.97900397        0.13496285
H           1.43778496       -0.97900397       -0.13496285
6
MD Time 1040.00
C          -0.85860976       -0.00000000       -0.00000000
C           0.85860976        0.00000000        0.00000000
H          -1.44985550        0.96227448       -0.12619156
H          -1.44985550       -0.96227448        0.12619156
H           1.44985550        0.96227448        0.12619156
H           1.44985550       -0.96227448       -0.12619156
6
MD Time 1050.00
C          -0.86062936       -0.00000000       -0.00000000
C           0.86062936        0.00000000        0.00000000
H          -1.46169352        0.94550961       -0.11701479
H          -1.46169352       -0.94550961        0.11701479
H           1.46169352        0.94550961        0.11701479
H           1.46169352       -0.94550961       -0.11701479
6
MD Time 1060.00
C          -0.86217029       -0.00000000       -0.00000000
C           0.86217029        0.00000000        0.00000000
H          -1.47335570        0.92893038       -0.10744935
H          -1.47335570       -0.92893038        0.10744935
H           1.47335570        0.92893038        0.10744935
H           1.47335570       -0.92893038       -0.10744935
6
MD Time 1070.00
C          -0.86322241       -0.00000000       -0.00000000
C           0.86322241        0.00000000        0.00000000
H          -1.48490102        0.91275227       -0.09750920
H          -1.48490102       -0.91275227        0.09750920
H           1.48490102        0.91275227        0.09750920
H           1.48490102       -0.91275227       -0.09750920
6
MD Time 1080.00
C          -0.86377645       -0.00000000       -0.00000000
C           0.86377645        0.00000000        0.00000000
H          -1.49638673        0.89717838       -0.08720522
H          -1.49638673       -0.89717838        0.08720522
H           1.49638673        0.89717838        0.08720522
H           1.49638673       -0.89717838       -0.08720522
6
MD Time 1090.00
C          -0.86382481       -0.00000000       -0.00000000
C           0.86382481        0.00000000       -0.00000000
H          -1.50786363        0.88239248       -0.07654520
H          -1.50786363       -0.88239248        0.07654520
H           1.50786363        0.88239248        0.07654520
H           1.50786363       -0.88239248       -0.07654520
6
MD Time 1100.00
C          -0.86336235       -0.00000000       -0.00000000
C           0.86336235        0.00000000       -0.00000000
H          -1.51937092        0.86855241       -0.06553425
H          -1.51937092       -0.86855241        0.06553425
H           1.51937092        0.86855241        0.06553425
H           1.51937092       -0.86855241       -0.06553425
6
MD Time 1110.00
C          -0.86238733       -0.00000000       -0.00000000
C           0.86238733        0.00000000       -0.00000000
H          -1.53093107        0.85578452       -0.05417560
H          -1.53093107       -0.85578452        0.05417560
H           1.53093107        0.85578452        0.05417560
H           1.53093107       -0.85578452       -0.05417560
6
MD Time 1120.00
C          -0.86090208       -0.00000000        0.00000000
C           0.86090208        0.00000000       -0.00000000
H          -1.54254511        0.84417952       -0.04247179
H          -1.54254511       -0.84417952        0.04247179
H           1.54254511        0.84417952        0.04247179
H           1.54254511       -0.84417952       -0.04247179
6
MD Time 1130.00
C          -0.85891362       -0.00000000        0.00000000
C           0.85891362        0.00000000       -0.00000000
H          -1.55418909        0.83379041       -0.03042617
H          -1.55418909       -0.83379041        0.03042617
H           1.55418909        0.83379041        0.03042617
H           1.55418909       -0.83379041       -0.03042617
6
MD Time 1140.00
C          -0.85643399       -0.00000000        0.00000000
C           0.85643399        0.00000000       -0.00000000
H          -1.56581190        0.82463263       -0.01804462
H          -1.56581190       -0.82463263        0.01804462
H           1.56581190        0.82463263        0.01804462
H           1.56581190       -0.82463263       -0.01804462
6
MD Time 1150.00
C          -0.85348031       -0.00000000        0.00000000
C           0.85348031        0.00000000       -0.00000000
H          -1.57733499        0.81668626       -0.00533716
H          -1.57733499       -0.81668626        0.00533716
H           1.57733499        0.81668626        0.00533716
H           1.57733499       -0.81668626       -0.00533716
6
MD Time 1160.00
C          -0.85007443       -0.00000000        0.00000000
C           0.85007443        0.00000000       -0.00000000
H          -1.58865386        0.80990020        0.00768054
H          -1.58865386       -0.80990020       -0.00768054
H           1.58865386        0.80990020       -0.00768054
H           1.58865386       -0.80990020        0.00768054
6
MD Time 1170.00
C          -0.84624249       -0.00000000        0.00000000
C           0.84624249        0.00000000       -0.00000000
H          -1.59964127        0.80419763        0.02098607
H          -1.59964127       -0.80419763       -0.02098607
H           1.59964127        0.80419763       -0.02098607
H           1.59964127       -0.80419763        0.02098607
6
MD Time 1180.00
C          -0.84201406       -0.00000000        0.00000000
C           0.84201406        0.00000000       -0.00000000
H          -1.61015183        0.79948225        0.03454969
H          -1.61015183       -0.79948225       -0.03454969
H           1.61015183        0.79948225       -0.03454969
H           1.61015183       -0.79948225        0.03454969
6
MD Time 1190.00
C          -0.83742132       -0.00000000        0.00000000
C           0.83742132        0.00000000       -0.00000000
H          -1.62002730        0.79564460        0.04833414
H          -1.62002730       -0.79564460       -0.04833414
H           1.62002730        0.79564460       -0.04833414
H           1.62002730       -0.79564460        0.04833414
6
MD Time 1200.00
C          -0.83249814       -0.00000000        0.00000000
C           0.83249814        0.00000000       -0.00000000
H          -1.62910237        0.79256814        0.06229510
H          -1.62910237       -0.79256814       -0.06229510
H           1.62910237        0.79256814       -0.06229510
H           1.62910237       -0.79256814        0.06229510
6
MD Time 1210.00
C          -0.82727915       -0.00000000        0.00000000
C           0.82727915        0.00000000       -0.00000000
H          -1.63721017        0.79013445        0.07638190
H          -1.63721017       -0.79013445       -0.07638190
H           1.63721017        0.79013445       -0.07638190
H           1.63721017       -0.79013445        0.07638190
6
MD Time 1220.00
C          -0.82179898       -0.00000000        0.00000000
C           0.82179898        0.00000000       -0.00000000
H          -1.64418733        0.78822764        0.09053859
H          -1.64418733       -0.78822764       -0.09053859
H           1.64418733        0.78822764       -0.09053859
H           1.64418733       -0.78822764        0.09053859
6
MD Time 1230.00
C          -0.81609159       -0.00000000        0.00000000
C           0.81609159        0.00000000       -0.00000000
H          -1.64987835        0.78673763        0.10470517
H          -1.64987835       -0.78673763       -0.10470517
H           1.64987835        0.78673763       -0.10470517
H           1.64987835       -0.78673763        0.10470517
6
MD Time 1240.00
C          -0.81018975       -0.00000000        0.00000000
C           0.81018975        0.00000000       -0.00000000
H          -1.65413904        0.78556260        0.11881891
H          -1.65413904       -0.78556260       -0.11881891
H           1.65413904        0.78556260       -0.11881891
H           1.65413904       -0.78556260        0.11881891
6
MD Time 1250.00
C          -0.80412469       -0.00000000        0.00000000
C           0.80412469        0.00000000       -0.00000000
H          -1.65683919        0.78461062        0.13281554
H          -1.65683919       -0.78461062       -0.13281554
H           1.65683919        0.78461062       -0.13281554
H           1.65683919       -0.78461062        0.13281554
6
MD Time 1260.00
C          -0.79792578       -0.00000000        0.00000000
C           0.79792578        0.00000000       -0.00000000
H          -1.65786446        0.78380059        0.14663050
H          -1.65786446       -0.78380059       -0.14663050
H           1.65786446        0.78380059       -0.14663050
H           1.65786446       -0.78380059        0.14663050
6
MD Time 1270.00
C          -0.79162045       -0.00000000        0.00000000
C           0.79162045        0.00000000       -0.00000000
H          -1.65711768        0.78306279        0.16019994
H          -1.65711768       -0.78306279       -0.16019994
H           1.65711768        0.78306279       -0.16019994
H           1.65711768       -0.78306279        0.16019994
6
MD Time 1280.00
C          -0.78523405       -0.00000000        0.00000000
C           0.78523405        0.00000000       -0.00000000
H          -1.65451958        0.78233907        0.17346167
H          -1.65451958       -0.78233907       -0.17346167
H           1.65451958        0.78233907       -0.17346167
H           1.65451958       -0.78233907        0.17346167
6
MD Time 1290.00
C          -0.77878984       -0.00000000        0.00000000
C           0.77878984        0.00000000       -0.00000000
H          -1.65000928        0.78158295        0.18635601
H          -1.65000928       -0.78158295       -0.18635601
H           1.65000928        0.78158295       -0.18635601
H           1.65000928       -0.78158295        0.18635601
6
MD Time 1300.00
C          -0.77230900       -0.00000000        0.00000000
C           0.77230900        0.00000000       -0.00000000
H          -1.64354450        0.78075958        0.19882643
H          -1.64354450       -0.78075958       -0.19882643
H           1.64354450        0.78075958       -0.19882643
H           1.64354450       -0.78075958        0.19882643
6
MD Time 1310.00
C          -0.76581060       -0.00000000        0.00000000
C           0.76581060        0.00000000       -0.00000000
H          -1.63510170        0.77984585        0.21082027
H          -1.63510170       -0.77984585       -0.21082027
H           1.63510170        0.77984585       -0.21082027
H           1.63510170       -0.77984585        0.21082027
6
MD Time 1320.00
C          -0.75931159       -0.00000000        0.00000000
C           0.75931159        0.00000000       -0.00000000
H          -1.62467622        0.77883051        0.22228932
H          -1.62467622       -0.77883051       -0.22228932
H           1.62467622        0.77883051       -0.22228932
H           1.62467622       -0.77883051        0.22228932
6
MD Time 1330.00
C          -0.75282680       -0.00000000        0.00000000
C           0.75282680        0.00000000       -0.00000000
H          -1.61228240        0.77771453        0.23319038
H          -1.61228240       -0.77771453       -0.23319038
H           1.61228240        0.77771453       -0.23319038
H           1.61228240       -0.77771453        0.23319038
6
MD Time 1340.00
C          -0.74636889       -0.00000000        0.00000000
C           0.74636889       -0.00000000       -0.00000000
H          -1.59795388        0.77651157        0.24348593
H          -1.59795388       -0.77651157       -0.24348593
H           1.59795388        0.77651157       -0.24348593
H           1.59795388       -0.77651157        0.24348593
6
MD Time 1350.00
C          -0.73994831       -0.00000000        0.00000000
C           0.73994831       -0.00000000       -0.00000000
H          -1.58174386        0.77524867        0.25314470
H          -1.58174386       -0.77524867       -0.25314470
H           1.58174386        0.77524867       -0.25314470
H           1.58174386       -0.77524867        0.25314470
6
MD Time 1360.00
C          -0.73357321       -0.00000000        0.00000000
C           0.73357321       -0.00000000       -0.00000000
H          -1.56372548        0.77396700        0.26214236
H          -1.56372548       -0.77396700       -0.26214236
H           1.56372549        0.77396700       -0.26214236
H           1.56372548       -0.77396700        0.26214236
6
MD Time 1370.00
C          -0.72724939        0.00000000        0.00000000
C           0.72724939       -0.00000000       -0.00000000
H          -1.54399215        0.77272284        0.27046219
H          -1.54399215       -0.77272284       -0.27046219
H           1.54399215        0.77272284       -0.27046219
H           1.54399215       -0.77272284        0.27046219
6
MD Time 1380.00
C          -0.72098029        0.00000000        0.00000000
C           0.72098029       -0.00000000       -0.00000000
H          -1.52265771        0.77158844        0.27809577
H          -1.52265771       -0.77158844       -0.27809577
H           1.52265771        0.77158844       -0.27809577
H           1.52265771       -0.77158844        0.27809577
6
MD Time 1390.00
C          -0.71476700        0.00000000        0.00000000
C           0.71476700       -0.00000000       -0.00000000
H          -1.49985647        0.77065282        0.28504360
H          -1.49985647       -0.77065282       -0.28504360
H           1.49985647        0.77065282       -0.28504360
H           1.49985647       -0.77065282        0.28504360
6
MD Time 1400.00
C          -0.70860835        0.00000000        0.00000000
C           0.70860835       -0.00000000       -0.00000000
H          -1.47574260        0.77002224        0.29131559
H          -1.47574260       -0.77002224       -0.29131559
H           1.47574260        0.77002224       -0.29131559
H           1.47574260       -0.77002224        0.29131559
6
MD Time 1410.00
C          -0.70250120        0.00000000        0.00000000
C           0.70250120       -0.00000000       -0.00000000
H          -1.45048905        0.76982009        0.29693131
H          -1.45048905       -0.76982009       -0.29693131
H           1.45048905        0.76982009       -0.29693131
H           1.45048905       -0.76982009        0.29693131
6
MD Time 1420.00
C          -0.69644078        0.00000000        0.00000000
C           0.69644078       -0.00000000       -0.00000000
H          -1.42428551        0.77018593        0.30191982
H          -1.42428551       -0.77018593       -0.30191982
H           1.42428551        0.77018593       -0.30191982
H           1.42428551       -0.77018593        0.30191982
6
MD Time 1430.00
C          -0.69042136        0.00000000        0.00000000
C           0.69042136       -0.00000000       -0.00000000
H          -1.39733530        0.77127334        0.30631903
H          -1.39733530       -0.77127334       -0.30631903
H           1.39733530        0.77127334       -0.30631903
H           1.39733530       -0.77127334        0.30631903
6
MD Time 1440.00
C          -0.68443707        0.00000000        0.00000000
C           0.68443707       -0.00000000       -0.00000000
H          -1.36985112        0.77324630        0.31017427
H          -1.36985112       -0.77324630       -0.31017427
H           1.36985112        0.77324630       -0.31017427
H           1.36985112       -0.77324630        0.31017427
6
MD Time 1450.00
C          -0.67848297        0.00000000        0.00000000
C           0.67848297       -0.00000000       -0.00000000
H          -1.34204946        0.77627363        0.31353604
H          -1.34204946       -0.77627363       -0.31353604
H           1.34204946        0.77627363       -0.31353604
H           1.34204946       -0.77627363        0.31353604
6
MD Time 1460.00
C          -0.67255639        0.00000000        0.00000000
C           0.67255639       -0.00000000       -0.00000000
H          -1.31414402        0.78052174        0.31645696
H          -1.31414402       -0.78052174       -0.31645696
H           1.31414402        0.78052174       -0.31645696
H           1.31414402       -0.78052174        0.31645696
6
MD Time 1470.00
C          -0.66665833        0.00000000        0.00000000
C           0.66665833       -0.00000000       -0.00000000
H          -1.28633841        0.78614543        0.31898780
H          -1.28633841       -0.78614543       -0.31898780
H           1.28633841        0.78614543       -0.31898780
H           1.28633841       -0.78614543        0.31898780
6
MD Time 1480.00
C          -0.66079494        0.00000000        0.00000000
C           0.66079494       -0.00000000       -0.00000000
H          -1.25881874        0.79327746        0.32117303
H          -1.25881874       -0.79327746       -0.32117303
H           1.25881874        0.79327746       -0.32117303
H           1.25881874       -0.79327746        0.32117303
6
MD Time 1490.00
C          -0.65497893        0.00000000        0.00000000
C           0.65497893       -0.00000000       -0.00000000
H          -1.23174698        0.80201761        0.32304620
H          -1.23174698       -0.80201761       -0.32304620
H           1.23174698        0.80201761       -0.32304620
H           1.23174698       -0.80201761        0.32304620
6
MD Time 1500.00
C          -0.64923057        0.00000000        0.00000000
C           0.64923057       -0.00000000       -0.00000000
H          -1.20525587        0.81242229        0.32462575
H          -1.20525587       -0.81242229       -0.32462575
H           1.20525587        0.81242229       -0.32462575
H           1.20525587       -0.81242229        0.32462575
6
MD Time 1510.00
C          -0.64357839        0.00000000        0.00000000
C           0.64357839       -0.00000000       -0.00000000
H          -1.17944618        0.82449602        0.32591184
H          -1.17944618       -0.82449602       -0.32591184
H           1.17944618        0.82449602       -0.32591184
H           1.17944618       -0.82449602        0.32591184
6
MD Time 1520.00
C          -0.63805918        0.00000000        0.00000000
C           0.63805918       -0.00000000       -0.00000000
H          -1.15438679        0.83818595        0.32688470
H          -1.15438679       -0.83818595       -0.32688470
H           1.15438679        0.83818595       -0.32688470
H           1.15438679       -0.83818595        0.32688470
6
MD Time 1530.00
C          -0.63271755        0.00000000        0.00000000
C           0.63271755       -0.00000000       -0.00000000
H          -1.13011757        0.85338019        0.32750484
H          -1.13011757       -0.85338019       -0.32750484
H           1.13011757        0.85338019       -0.32750484
H           1.13011757       -0.85338019        0.32750484
6
MD Time 1540.00
C          -0.62760467        0.00000000        0.00000000
C           0.62760467       -0.00000000       -0.00000000
H          -1.10665483        0.86991046        0.32771519
H          -1.10665483       -0.86991046       -0.32771519
H           1.10665483        0.86991046       -0.32771519
H           1.10665483       -0.86991046        0.32771519
6
MD Time 1550.00
C          -0.62277679        0.00000000        0.00000000
C           0.62277679       -0.00000000       -0.00000000
H          -1.08399823        0.88755846        0.32744475
H          -1.08399823       -0.88755846       -0.32744475
H           1.08399823        0.88755846       -0.32744475
H           1.08399823       -0.88755846        0.32744475
6
MD Time 1560.00
C          -0.61829316        0.00000000        0.00000000
C           0.61829316       -0.00000000       -0.00000000
H          -1.06213851        0.90606553        0.32661344
H          -1.06213851       -0.90606553       -0.32661344
H           1.06213851        0.90606553       -0.32661344
H           1.06213851       -0.90606553        0.32661344
6
MD Time 1570.00
C          -0.61421399        0.00000000        0.00000000
C           0.61421399       -0.00000000       -0.00000000
H          -1.04106481        0.92514416        0.32513735
H          -1.04106481       -0.92514416       -0.32513735
H           1.04106481        0.92514416       -0.32513735
H           1.04106481       -0.92514416        0.32513735
6
MD Time 1580.00
C          -0.61059818        0.00000000        0.00000000
C           0.61059818       -0.00000000        0.00000000
H          -1.02077093        0.94449020        0.32293396
H          -1.02077093       -0.94449020       -0.32293396
H           1.02077093        0.94449020       -0.32293396
H           1.02077093       -0.94449020        0.32293396
6
MD Time 1590.00
C          -0.60750133        0.00000000       -0.00000000
C           0.60750133       -0.00000000        0.00000000
H          -1.00125998        0.96379473        0.31992667
H          -1.00125998       -0.96379473       -0.31992667
H           1.00125998        0.96379473       -0.31992667
H           1.00125998       -0.96379473        0.31992667
6
MD Time 1600.00
C          -0.60497373        0.00000000       -0.00000000
C           0.60497373       -0.00000000        0.00000000
H          -0.98254738        0.98275454        0.31604842
H          -0.98254738       -0.98275454       -0.31604842
H           0.98254738        0.98275454       -0.31604842
H           0.98254738       -0.98275454        0.31604842
6
MD Time 1610.00
C          -0.60305879        0.00000000       -0.00000000
C           0.60305879       -0.00000000        0.00000000
H          -0.96466218        1.00108097        0.31124437
H          -0.96466218       -1.00108097       -0.31124437
H           0.96466218        1.00108097       -0.31124437
H           0.96466218       -1.00108097        0.31124437
6
MD Time 1620.00
C          -0.60179155        0.00000000       -0.00000000
C           0.60179155       -0.00000000        0.00000000
H          -0.94764698        1.01850663        0.30547335
H          -0.94764698       -1.01850663       -0.30547335
H           0.94764698        1.01850663       -0.30547335
H           0.94764698       -1.01850663        0.30547335
6
MD Time 1630.00
C          -0.60119773        0.00000000       -0.00000000
C           0.60119773       -0.00000000        0.00000000
H          -0.93155683        1.03479035        0.29870861
H          -0.93155683       -1.03479035       -0.29870861
H           0.93155683        1.03479035       -0.29870861
H           0.93155683       -1.03479035        0.29870861
6
MD Time 1640.00
C          -0.60129287        0.00000000       -0.00000000
C           0.60129287       -0.00000000        0.00000000
H          -0.91645735        1.04972033        0.29093762
H          -0.91645735       -1.04972033       -0.29093762
H           0.91645735        1.04972033       -0.29093762
H           0.91645735       -1.04972033        0.29093762
6
MD Time 1650.00
C          -0.60208205        0.00000000       -0.00000000
C           0.60208205       -0.00000000        0.00000000
H          -0.90242248        1.06311596        0.28216151
H          -0.90242248       -1.06311596       -0.28216151
H           0.90242248        1.06311596       -0.28216151
H           0.90242248       -1.06311596        0.28216151
6
MD Time 1660.00
C          -0.60355983        0.00000000       -0.00000000
C           0.60355983       -0.00000000        0.00000000
H          -0.88953187        1.07482869        0.27239406
H          -0.88953187       -1.07482869       -0.27239406
H           0.88953187        1.07482869       -0.27239406
H           0.88953187       -1.07482869        0.27239406
6
MD Time 1670.00
C          -0.60571052        0.00000000       -0.00000000
C           0.60571052       -0.00000000        0.00000000
H          -0.87786828        1.08474209        0.26166048
H          -0.87786828       -1.08474209       -0.26166048
H           0.87786828        1.08474209       -0.26166048
H           0.87786828       -1.08474209        0.26166048
6
MD Time 1680.00
C          -0.60850883        0.00000000       -0.00000000
C           0.60850883       -0.00000000        0.00000000
H          -0.86751496        1.09277168        0.24999618
H          -0.86751496       -1.09277168       -0.24999618
H           0.86751496        1.09277168       -0.24999618
H           0.86751496       -1.09277168        0.24999618
6
MD Time 1690.00
C          -0.61192072        0.00000000       -0.00000000
C           0.61192072       -0.00000000        0.00000000
H          -0.85855316        1.09886452        0.23744558
H          -0.85855316       -1.09886452       -0.23744558
H           0.85855316        1.09886452       -0.23744558
H           0.85855316       -1.09886452        0.23744558
6
MD Time 1700.00
C          -0.61590436        0.00000000       -0.00000000
C           0.61590436       -0.00000000        0.00000000
H          -0.85105977        1.10299892        0.22406092
H          -0.85105977       -1.10299892       -0.22406092
H           0.85105977        1.10299892       -0.22406092
H           0.85105977       -1.10299892        0.22406092
6
MD Time 1710.00
C          -0.62041138        0.00000000       -0.00000000
C           0.62041138       -0.00000000        0.00000000
H          -0.84510517        1.10518436        0.20990139
H          -0.84510517       -1.10518436       -0.20990139
H           0.84510517        1.10518436       -0.20990139
H           0.84510517       -1.10518436        0.20990139
6
MD Time 1720.00
C          -0.62538794        0.00000000       -0.00000000
C           0.62538794       -0.00000000        0.00000000
H          -0.84075141        1.10546170        0.19503231
H          -0.84075141       -1.10546170       -0.19503231
H           0.84075141        1.10546170       -0.19503231
H           0.84075141       -1.10546170        0.19503231
6
MD Time 1730.00
C          -0.63077601        0.00000000       -0.00000000
C           0.63077601       -0.00000000        0.00000000
H          -0.83805075        1.10390362        0.17952456
H          -0.83805075       -1.10390362       -0.17952456
H           0.83805075        1.10390362       -0.17952456
H           0.83805075       -1.10390362        0.17952456
6
MD Time 1740.00
C          -0.63651438        0.00000000       -0.00000000
C           0.63651438       -0.00000000        0.00000000
H          -0.83704461        1.10061535        0.16345403
H          -0.83704461       -1.10061535       -0.16345403
H           0.83704461        1.10061535       -0.16345403
H           0.83704461       -1.10061535        0.16345403
6
MD Time 1750.00
C          -0.64253973        0.00000000       -0.00000000
C           0.64253973       -0.00000000        0.00000000
H          -0.83776310        1.09573550        0.14690125
H          -0.83776310       -1.09573550       -0.14690125
H           0.83776310        1.09573550       -0.14690125
H           0.83776310       -1.09573550        0.14690125
6
MD Time 1760.00
C          -0.64878749        0.00000000       -0.00000000
C           0.64878749       -0.00000000        0.00000000
H          -0.84022515        1.08943665        0.12995090
H          -0.84022515       -1.08943665       -0.12995090
H           0.84022515        1.08943665       -0.12995090
H           0.84022515       -1.08943665        0.12995090
6
MD Time 1770.00
C          -0.65519265        0.00000000       -0.00000000
C           0.65519265       -0.00000000        0.00000000
H          -0.84443919        1.08192544        0.11269106
H          -0.84443919       -1.08192544       -0.11269106
H           0.84443919        1.08192544       -0.11269106
H           0.84443919       -1.08192544        0.11269106
6
MD Time 1780.00
C          -0.66169039        0.00000000       -0.00000000
C           0.66169039       -0.00000000        0.00000000
H          -0.85040454        1.07344174        0.09521232
H          -0.85040454       -1.07344174       -0.09521232
H           0.85040454        1.07344174       -0.09521232
H           0.85040454       -1.07344174        0.09521232
6
MD Time 1790.00
C          -0.66821671        0.00000000       -0.00000000
C           0.66821671       -0.00000000        0.00000000
H          -0.85811320        1.06425614        0.07760630
H          -0.85811320       -1.06425614       -0.07760630
H           0.85811320        1.06425614       -0.07760630
H           0.85811320       -1.06425614        0.07760630
6
MD Time 1800.00
C          -0.67470893        0.00000000       -0.00000000
C           0.67470893       -0.00000000        0.00000000
H          -0.86755203        1.05466547        0.05996379
H          -0.86755203       -1.05466547       -0.05996379
H           0.86755203        1.05466547       -0.05996379
H           0.86755203       -1.05466547        0.05996379
6
MD Time 1810.00
C          -0.68110619        0.00000000       -0.00000000
C           0.68110619       -0.00000000        0.00000000
H          -0.87870496        1.04498548        0.04237247
H          -0.87870496       -1.04498548       -0.04237247
H           0.87870496        1.04498548       -0.04237247
H           0.87870496       -1.04498548        0.04237247
6
MD Time 1820.00
C          -0.68734997        0.00000000       -0.00000000
C           0.68734997       -0.00000000        0.00000000
H          -0.89155491        1.03554064        0.02491429
H          -0.89155491       -1.03554064       -0.02491429
H           0.89155491        1.03554064       -0.02491429
H           0.89155491       -1.03554064        0.02491429
6
MD Time 1830.00
C          -0.69338465        0.00000000       -0.00000000
C           0.69338465       -0.00000000        0.00000000
H          -0.90608509        1.02665076        0.00766283
H          -0.90608509       -1.02665076       -0.00766283
H           0.90608509        1.02665076       -0.00766283
H           0.90608509       -1.02665076        0.00766283
6
MD Time 1840.00
C          -0.69915811        0.00000000       -0.00000000
C           0.69915811       -0.00000000        0.00000000
H          -0.92227916        1.01861512       -0.00931899
H          -0.92227916       -1.01861512        0.00931899
H           0.92227916        1.01861512        0.00931899
H           0.92227916       -1.01861512       -0.00931899
6
MD Time 1850.00
C          -0.70462254        0.00000000       -0.00000000
C           0.70462254       -0.00000000        0.00000000
H          -0.94012009        1.01169510       -0.02598044
H          -0.94012009       -1.01169510        0.02598044
H           0.94012009        1.01169510        0.02598044
H           0.94012009       -1.01169510       -0.02598044
6
MD Time 1860.00
C          -0.70973522        0.00000000       -0.00000000
C           0.70973522       -0.00000000        0.00000000
H          -0.95958742        1.00609706       -0.04228361
H          -0.95958742       -1.00609706        0.04228361
H           0.95958742        1.00609706        0.04228361
H           0.95958742       -1.00609706       -0.04228361
6
MD Time 1870.00
C          -0.71445957        0.00000000       -0.00000000
C           0.71445957       -0.00000000        0.00000000
H          -0.98065302        1.00195758       -0.05820264
H          -0.98065302       -1.00195758        0.05820264
H           0.98065302        1.00195758        0.05820264
H           0.98065302       -1.00195758       -0.05820264
6
MD Time 1880.00
C          -0.71876601        0.00000000       -0.00000000
C           0.71876601       -0.00000000        0.00000000
H          -1.00327588        0.99933313       -0.07372188
H          -1.00327588       -0.99933313        0.07372188
H           1.00327588        0.99933313        0.07372188
H           1.00327588       -0.99933313       -0.07372188
6
MD Time 1890.00
C          -0.72263294        0.00000000       -0.00000000
C           0.72263294       -0.00000000        0.00000000
H          -1.02739642        0.99819594       -0.08883313
H          -1.02739642       -0.99819594        0.08883313
H           1.02739642        0.99819594        0.08883313
H           1.02739642       -0.99819594       -0.08883313
6
MD Time 1900.00
C          -0.72604731        0.00000000       -0.00000000
C           0.72604731       -0.00000000        0.00000000
H          -1.05293149        0.99843666       -0.10353237
H          -1.05293149       -0.99843666        0.10353237
H           1.05293149        0.99843666        0.10353237
H           1.05293149       -0.99843666       -0.10353237
6
MD Time 1910.00
C          -0.72900503        0.00000000       -0.00000000
C           0.72900503       -0.00000000        0.00000000
H          -1.07977066        0.99987359       -0.11781666
H          -1.07977066       -0.99987359        0.11781666
H           1.07977066        0.99987359        0.11781666
H           1.07977066       -0.99987359       -0.11781666
6
MD Time 1920.00
C          -0.73151082        0.00000000       -0.00000000
C           0.73151082       -0.00000000        0.00000000
H          -1.10777475        1.00226698       -0.13168151
H          -1.10777475       -1.00226698        0.13168151
H           1.10777475        1.00226698        0.13168151
H           1.10777475       -1.00226698       -0.13168151
6
MD Time 1930.00
C          -0.73357777        0.00000000       -0.00000000
C           0.73357777       -0.00000000        0.00000000
H          -1.13677678        1.00533633       -0.14511911
H          -1.13677678       -1.00533633        0.14511911
H           1.13677678        1.00533633        0.14511911
H           1.13677678       -1.00533633       -0.14511911
6
MD Time 1940.00
C          -0.73522641        0.00000000       -0.00000000
C           0.73522641       -0.00000000        0.00000000
H          -1.16658506        1.00877854       -0.15811742
H          -1.16658506       -1.00877854        0.15811742
H           1.16658506        1.00877854        0.15811742
H           1.16658506       -1.00877854       -0.15811742
6
MD Time 1950.00
C          -0.73648353        0.00000000       -0.00000000
C           0.73648353       -0.00000000        0.00000000
H          -1.19698823        1.01228482       -0.17066013
H          -1.19698823       -1.01228482        0.17066012
H           1.19698823        1.01228482        0.17066013
H           1.19698823       -1.01228482       -0.17066013
6
MD Time 1960.00
C          -0.73738085        0.00000000       -0.00000000
C           0.73738085       -0.00000000        0.00000000
H          -1.22776111        1.01555511       -0.18272713
H          -1.22776111       -1.01555511        0.18272713
H           1.22776111        1.01555511        0.18272713
H           1.22776111       -1.01555511       -0.18272713
6
MD Time 1970.00
C          -0.73795365        0.00000000       -0.00000000
C           0.73795365       -0.00000000        0.00000000
H          -1.25867102        1.01830920       -0.19429549
H          -1.25867102       -1.01830920        0.19429549
H           1.25867102        1.01830920        0.19429549
H           1.25867102       -1.01830920       -0.19429549
6
MD Time 1980.00
C          -0.73823943        0.00000000       -0.00000000
C           0.73823943       -0.00000000        0.00000000
H          -1.28948362        1.02029451       -0.20534042
H          -1.28948362       -1.02029451        0.20534042
H           1.28948362        1.02029451        0.20534042
H           1.28948362       -1.02029451       -0.20534042
6
MD Time 1990.00
C          -0.73827680        0.00000000       -0.00000000
C           0.73827680       -0.00000000        0.00000000
H          -1.31996808        1.02129079       -0.21583631
H          -1.31996808       -1.02129079        0.21583631
H           1.31996808        1.02129079        0.21583631
H           1.31996808       -1.02129079       -0.21583631
6
MD Time 2000.00
C          -0.73810440        0.00000000       -0.00000000
C           0.73810440       -0.00000000        0.00000000
H          -1.34990117        1.02111228       -0.22575764
H          -1.34990117       -1.02111228        0.22575764
H           1.34990117        1.02111228        0.22575764
H           1.34990117       -1.02111228       -0.22575764
6
MD Time 2010.00
C          -0.73776016        0.00000000       -0.00000000
C           0.73776016       -0.00000000        0.00000000
H          -1.37907039        1.01960793       -0.23507969
H          -1.37907039       -1.01960793        0.23507969
H           1.37907039        1.01960793        0.23507969
H           1.37907039       -1.01960793       -0.23507969
6
MD Time 2020.00
C          -0.73728063        0.00000000       -0.00000000
C           0.73728063       -0.00000000        0.00000000
H          -1.40727611        1.01666031       -0.24377913
H          -1.40727611       -1.01666031        0.24377913
H           1.40727611        1.01666031        0.24377913
H           1.40727611       -1.01666031       -0.24377913
6
MD Time 2030.00
C          -0.73670051        0.00000000       -0.00000000
C           0.73670051       -0.00000000        0.00000000
H          -1.43433293        1.01218382       -0.25183441
H          -1.43433293       -1.01218382        0.25183441
H           1.43433293        1.01218382        0.25183441
H           1.43433293       -1.01218382       -0.25183441
6
MD Time 2040.00
C          -0.73605229        0.00000000       -0.00000000
C           0.73605229       -0.00000000        0.00000000
H          -1.46007041        1.00612232       -0.25922606
H          -1.46007041       -1.00612232        0.25922606
H           1.46007041        1.00612232        0.25922606
H           1.46007041       -1.00612232       -0.25922606
6
MD Time 2050.00
C          -0.73536599        0.00000000       -0.00000000
C           0.73536599       -0.00000000        0.00000000
H          -1.48433334        0.99844686       -0.26593686
H          -1.48433334       -0.99844686        0.26593686
H           1.48433334        0.99844686        0.26593686
H           1.48433334       -0.99844686       -0.26593686
6
MD Time 2060.00
C          -0.73466894        0.00000000       -0.00000000
C           0.73466894       -0.00000000        0.00000000
H          -1.50698179        0.98915338       -0.27195199
H          -1.50698179       -0.98915338        0.27195199
H           1.50698179        0.98915338        0.27195199
H           1.50698179       -0.98915338       -0.27195199
6
MD Time 2070.00
C          -0.73398564        0.00000000       -0.00000000
C           0.73398564       -0.00000000        0.00000000
H          -1.52789097        0.97826080       -0.27725912
H          -1.52789097       -0.97826080        0.27725912
H           1.52789097        0.97826080        0.27725912
H           1.52789097       -0.97826080       -0.27725912
6
MD Time 2080.00
C          -0.73333761        0.00000000       -0.00000000
C           0.73333761       -0.00000000        0.00000000
H          -1.54695112        0.96580938       -0.28184847
H          -1.54695112       -0.96580938        0.28184847
H           1.54695112        0.96580938        0.28184847
H           1.54695112       -0.96580938       -0.28184847
6
MD Time 2090.00
C          -0.73274324        0.00000000       -0.00000000
C           0.73274324       -0.00000000        0.00000000
H          -1.56406742        0.95185946       -0.28571294
H          -1.56406742       -0.95185946        0.28571294
H           1.56406742        0.95185946        0.28571294
H           1.56406742       -0.95185946       -0.28571294
6
MD Time 2100.00
C          -0.73221766        0.00000000       -0.00000000
C           0.73221766       -0.00000000        0.00000000
H          -1.57916008        0.93649072       -0.28884818
H          -1.57916008       -0.93649072        0.28884818
H           1.57916008        0.93649072        0.28884818
H           1.57916008       -0.93649072       -0.28884818
6
MD Time 2110.00
C          -0.73177257        0.00000000       -0.00000000
C           0.73177257       -0.00000000        0.00000000
H          -1.59216467        0.91980177       -0.29125275
H          -1.59216467       -0.91980177        0.29125275
H           1.59216467        0.91980177        0.29125275
H           1.59216467       -0.91980177       -0.29125275
6
MD Time 2120.00
C          -0.73141605       -0.00000000       -0.00000000
C           0.73141605       -0.00000000        0.00000000
H          -1.60303260        0.90191018       -0.29292834
H          -1.60303260       -0.90191018        0.29292834
H           1.60303260        0.90191018        0.29292834
H           1.60303260       -0.90191018       -0.29292834
6
MD Time 2130.00
C          -0.73115231       -0.00000000       -0.00000000
C           0.73115231       -0.00000000        0.00000000
H          -1.61173206        0.88295291       -0.29387997
H          -1.61173206       -0.88295291        0.29387997
H           1.61173206        0.88295291        0.29387997
H           1.61173206       -0.88295291       -0.29387997
6
MD Time 2140.00
C          -0.73098148       -0.00000000       -0.00000000
C           0.73098148       -0.00000000        0.00000000
H          -1.61824908        0.86308713       -0.29411635
H          -1.61824908       -0.86308713        0.29411635
H           1.61824908        0.86308713        0.29411635
H           1.61824908       -0.86308713       -0.29411635
6
MD Time 2150.00
C          -0.73089926       -0.00000000       -0.00000000
C           0.73089926        0.00000000        0.00000000
H          -1.62258915        0.84249127       -0.29365025
H          -1.62258915       -0.84249127        0.29365025
H           1.62258915        0.84249127        0.29365025
H           1.62258915       -0.84249127       -0.29365025
6
MD Time 2160.00
C          -0.73089662       -0.00000000       -0.00000000
C           0.73089662        0.00000000        0.00000000
H          -1.62477901        0.82136633       -0.29249890
H          -1.62477901       -0.82136633        0.29249890
H           1.62477901        0.82136633        0.29249890
H           1.62477901       -0.82136633       -0.29249890
6
MD Time 2170.00
C          -0.73095945       -0.00000000       -0.00000000
C           0.73095945        0.00000000       -0.00000000
H          -1.62486883        0.79993723       -0.29068450
H          -1.62486883       -0.79993723        0.29068450
H           1.62486883        0.79993723        0.29068450
H           1.62486883       -0.79993723       -0.29068450
6
MD Time 2180.00
C          -0.73106820       -0.00000000       -0.00000000
C           0.73106820        0.00000000       -0.00000000
H          -1.62293466        0.77845407       -0.28823466
H          -1.62293466       -0.77845407        0.28823466
H           1.62293466        0.77845407        0.28823466
H           1.62293466       -0.77845407       -0.28823466
6
MD Time 2190.00
C          -0.73119750       -0.00000000        0.00000000
C           0.73119750        0.00000000       -0.00000000
H          -1.61908094        0.75719302       -0.28518287
H          -1.61908094       -0.75719302        0.28518287
H           1.61908094        0.75719302        0.28518287
H           1.61908094       -0.75719302       -0.28518287
6
MD Time 2200.00
C          -0.73131595       -0.00000000        0.00000000
C           0.73131595        0.00000000       -0.00000000
H          -1.61344285        0.73645656       -0.28156877
H          -1.61344285       -0.73645656        0.28156877
H           1.61344285        0.73645656        0.28156877
H           1.61344285       -0.73645656       -0.28156877
6
MD Time 2210.00
C          -0.73138592       -0.00000000        0.00000000
C           0.73138592        0.00000000       -0.00000000
H          -1.60618834        0.71657267       -0.27743825
H          -1.60618834       -0.71657267        0.27743825
H           1.60618834        0.71657267        0.27743825
H           1.60618834       -0.71657267       -0.27743825
6
MD Time 2220.00
C          -0.73136365       -0.00000000        0.00000000
C           0.73136365        0.00000000       -0.00000000
H          -1.59751897        0.69789243       -0.27284325
H          -1.59751897       -0.69789243        0.27284325
H           1.59751897        0.69789243        0.27284325
H           1.59751897       -0.69789243       -0.27284325
6
MD Time 2230.00
C          -0.73119968       -0.00000000        0.00000000
C           0.73119968        0.00000000       -0.00000000
H          -1.58766934        0.68078567       -0.26784107
H          -1.58766934       -0.68078567        0.26784107
H           1.58766934        0.68078567        0.26784107
H           1.58766934       -0.68078567       -0.26784107
6
MD Time 2240.00
C          -0.73083965       -0.00000000        0.00000000
C           0.73083965        0.00000000       -0.00000000
H          -1.57690396        0.66563385       -0.26249304
H          -1.57690396       -0.66563385        0.26249304
H           1.57690396        0.66563385        0.26249304
H           1.57690396       -0.66563385       -0.26249304
6
MD Time 2250.00
C          -0.73022588       -0.00000000        0.00000000
C           0.73022588        0.00000000       -0.00000000
H          -1.56551109        0.65281985       -0.25686250
H          -1.56551109       -0.65281985        0.25686250
H           1.56551109        0.65281985        0.25686250
H           1.56551109       -0.65281985       -0.25686250
6
MD Time 2260.00
C          -0.72929946       -0.00000000        0.00000000
C           0.72929946        0.00000000       -0.00000000
H          -1.55379265        0.64271434       -0.25101193
H          -1.55379265       -0.64271434        0.25101193
H           1.55379265        0.64271434        0.25101193
H           1.55379265       -0.64271434       -0.25101193
6
MD Time 2270.00
C          -0.72800319       -0.00000000        0.00000000
C           0.72800319        0.00000000       -0.00000000
H          -1.54205021        0.63565883       -0.24499944
H          -1.54205021       -0.63565883        0.24499944
H           1.54205021        0.63565883        0.24499944
H           1.54205021       -0.63565883       -0.24499944
6
MD Time 2280.00
C          -0.72628507       -0.00000000        0.00000000
C           0.72628507        0.00000000       -0.00000000
H          -1.53056747        0.63194632       -0.23887471
H          -1.53056747       -0.63194632        0.23887471
H           1.53056747        0.63194632        0.23887471
H           1.53056747       -0.63194632       -0.23887471
6
MD Time 2290.00
C          -0.72410222       -0.00000000        0.00000000
C           0.72410222        0.00000000       -0.00000000
H          -1.51959058        0.63180123       -0.23267525
H          -1.51959058       -0.63180123        0.23267525
H           1.51959058        0.63180123        0.23267525
H           1.51959058       -0.63180123       -0.23267525
6
MD Time 2300.00
C          -0.72142462       -0.00000000        0.00000000
C           0.72142462        0.00000000       -0.00000000
H          -1.50930883        0.63536102       -0.22642340
H          -1.50930883       -0.63536102        0.22642340
H           1.50930883        0.63536102        0.22642340
H           1.50930883       -0.63536102       -0.22642340
6
MD Time 2310.00
C          -0.71823842       -0.00000000        0.00000000
C           0.71823842        0.00000000       -0.00000000
H          -1.49983848        0.64266220       -0.22012489
H          -1.49983848       -0.64266220        0.22012489
H           1.49983848        0.64266220        0.22012489
H           1.49983848       -0.64266220       -0.22012489
6
MD Time 2320.00
C          -0.71454800       -0.00000000        0.00000000
C           0.71454800        0.00000000       -0.00000000
H          -1.49121281        0.65363328       -0.21376948
H          -1.49121281       -0.65363328        0.21376948
H           1.49121281        0.65363328        0.21376948
H           1.49121281       -0.65363328       -0.21376948
6
MD Time 2330.00
C          -0.71037666       -0.00000000        0.00000000
C           0.71037666        0.00000000       -0.00000000
H          -1.48338012        0.66809603       -0.20733352
H          -1.48338012       -0.66809603        0.20733352
H           1.48338012        0.66809603        0.20733352
H           1.48338012       -0.66809603       -0.20733352
6
MD Time 2340.00
C          -0.70576571       -0.00000000        0.00000000
C           0.70576571        0.00000000       -0.00000000
H          -1.47621046        0.68577505       -0.20078406
H          -1.47621046       -0.68577505        0.20078406
H           1.47621046        0.68577505        0.20078406
H           1.47621046       -0.68577505       -0.20078406
6
MD Time 2350.00
C          -0.70077225       -0.00000000        0.00000000
C           0.70077225        0.00000000       -0.00000000
H          -1.46950949        0.70631410       -0.19408364
H          -1.46950949       -0.70631410        0.19408364
H           1.46950949        0.70631410        0.19408364
H           1.46950949       -0.70631410       -0.19408364
6
MD Time 2360.00
C          -0.69546595       -0.00000000        0.00000000
C           0.69546595        0.00000000       -0.00000000
H          -1.46303723        0.72929670       -0.18719494
H          -1.46303723       -0.72929670        0.18719494
H           1.46303723        0.72929670        0.18719494
H           1.46303723       -0.72929670       -0.18719494
6
MD Time 2370.00
C          -0.68992546       -0.00000000        0.00000000
C           0.68992546        0.00000000       -0.00000000
H          -1.45652842        0.75426812       -0.18008457
H          -1.45652842       -0.75426812        0.18008457
H           1.45652842        0.75426812        0.18008457
H           1.45652842       -0.75426812       -0.18008457
6
MD Time 2380.00
C          -0.68423482       -0.00000000        0.00000000
C           0.68423482        0.00000000       -0.00000000
H          -1.44971182        0.78075628       -0.17272581
H          -1.44971182       -0.78075628        0.17272581
H           1.44971182        0.78075628        0.17272581
H           1.44971182       -0.78075628       -0.17272581
6
MD Time 2390.00
C          -0.67848029       -0.00000000        0.00000000
C           0.67848029        0.00000000       -0.00000000
H          -1.44232643        0.80828978       -0.16509995
H          -1.44232643       -0.80828978        0.16509995
H           1.44232643        0.80828978        0.16509995
H           1.44232643       -0.80828978       -0.16509995
6
MD Time 2400.00
C          -0.67274775       -0.00000000        0.00000000
C           0.67274775        0.00000000       -0.00000000
H          -1.43413373        0.83641206       -0.15719683
H          -1.43413373       -0.83641206        0.15719683
H           1.43413373        0.83641206        0.15719683
H           1.43413373       -0.83641206       -0.15719683
6
MD Time 2410.00
C          -0.66712065       -0.00000000        0.00000000
C           0.66712065        0.00000000       -0.00000000
H          -1.42492576        0.86469152       -0.14901436
H          -1.42492576       -0.86469152        0.14901436
H           1.42492576        0.86469152        0.14901436
H           1.42492576       -0.86469152       -0.14901436
6
MD Time 2420.00
C          -0.66167846       -0.00000000        0.00000000
C           0.66167846        0.00000000       -0.00000000
H          -1.41452962        0.89272794       -0.14055779
H          -1.41452962       -0.89272794        0.14055779
H           1.41452962        0.89272794        0.14055779
H           1.41452962       -0.89272794       -0.14055779
6
MD Time 2430.00
C          -0.65649563       -0.00000000        0.00000000
C           0.65649563        0.00000000       -0.00000000
H          -1.40280910        0.92015587       -0.13183859
H          -1.40280910       -0.92015587        0.13183859
H           1.40280910        0.92015587        0.13183859
H           1.40280910       -0.92015587       -0.13183859
6
MD Time 2440.00
C          -0.65164069       -0.00000000        0.00000000
C           0.65164069        0.00000000       -0.00000000
H          -1.38966430        0.94664571       -0.12287332
H          -1.38966430       -0.94664571        0.12287332
H           1.38966430        0.94664571        0.12287332
H           1.38966430       -0.94664571       -0.12287332
6
MD Time 2450.00
C          -0.64717557       -0.00000000        0.00000000
C           0.64717557        0.00000000       -0.00000000
H          -1.37502994        0.97190338       -0.11368259
H          -1.37502994       -0.97190338        0.11368259
H           1.37502994        0.97190338        0.11368259
H           1.37502994       -0.97190338       -0.11368259
6
MD Time 2460.00
C          -0.64315506       -0.00000000        0.00000000
C           0.64315506        0.00000000       -0.00000000
H          -1.35887308        0.99566897       -0.10429006
H          -1.35887308       -0.99566897        0.10429006
H           1.35887308        0.99566897        0.10429006
H           1.35887308       -0.99566897       -0.10429006
6
MD Time 2470.00
C          -0.63962625       -0.00000000        0.00000000
C           0.63962625        0.00000000       -0.00000000
H          -1.34119048        1.01771513       -0.09472167
H          -1.34119048       -1.01771513        0.09472167
H           1.34119048        1.01771513        0.09472167
H           1.34119048       -1.01771513       -0.09472167
6
MD Time 2480.00
C          -0.63662801       -0.00000000        0.00000000
C           0.63662801        0.00000000       -0.00000000
H          -1.32200614        1.03784532       -0.08500490
H          -1.32200614       -1.03784532        0.08500490
H           1.32200614        1.03784532        0.08500490
H           1.32200614       -1.03784532       -0.08500490
6
MD Time 2490.00
C          -0.63419058       -0.00000000        0.00000000
C           0.63419058        0.00000000       -0.00000000
H          -1.30136895        1.05589232       -0.07516820
H          -1.30136895       -1.05589232        0.07516820
H           1.30136895        1.05589232        0.07516820
H           1.30136895       -1.05589232       -0.07516820
6
MD Time 2500.00
C          -0.63233510       -0.00000000        0.00000000
C           0.63233510        0.00000000       -0.00000000
H          -1.27935070        1.07171706       -0.06524042
H          -1.27935070       -1.07171706        0.06524042
H           1.27935070        1.07171706        0.06524042
H           1.27935070       -1.07171706       -0.06524042
6
MD Time 2510.00
C          -0.63107338       -0.00000000        0.00000000
C           0.63107338        0.00000000       -0.00000000
H          -1.25604442        1.08520793       -0.05525043
H          -1.25604442       -1.08520793        0.05525043
H           1.25604442        1.08520793        0.05525043
H           1.25604442       -1.08520793       -0.05525043
6
MD Time 2520.00
C          -0.63040772       -0.00000000        0.00000000
C           0.63040772        0.00000000       -0.00000000
H          -1.23156299        1.09628058       -0.04522658
H          -1.23156299       -1.09628058        0.04522658
H           1.23156299        1.09628058        0.04522658
H           1.23156299       -1.09628058       -0.04522658
6
MD Time 2530.00
C          -0.63033091       -0.00000000        0.00000000
C           0.63033091        0.00000000       -0.00000000
H          -1.20603796        1.10487830       -0.03519628
H          -1.20603796       -1.10487830        0.03519628
H           1.20603796        1.10487830        0.03519628
H           1.20603796       -1.10487830       -0.03519628
6
MD Time 2540.00
C          -0.63082646       -0.00000000        0.00000000
C           0.63082646        0.00000000       -0.00000000
H          -1.17961855        1.11097289       -0.02518557
H          -1.17961855       -1.11097289        0.02518557
H           1.17961855        1.11097289        0.02518557
H           1.17961855       -1.11097289       -0.02518557
6
MD Time 2550.00
C          -0.63186903       -0.00000000        0.00000000
C           0.63186903        0.00000000       -0.00000000
H          -1.15247063        1.11456614       -0.01521852
H          -1.15247063       -1.11456614        0.01521852
H           1.15247063        1.11456614        0.01521852
H           1.15247063       -1.11456614       -0.01521852
6
MD Time 2560.00
C          -0.63342509       -0.00000000        0.00000000
C           0.63342509        0.00000000       -0.00000000
H          -1.12477565        1.11569174       -0.00531673
H          -1.12477565       -1.11569174        0.00531673
H           1.12477566        1.11569174        0.00531673
H           1.12477566       -1.11569174       -0.00531673
6
MD Time 2570.00
C          -0.63545373       -0.00000000        0.00000000
C           0.63545373        0.00000000        0.00000000
H          -1.09672939        1.11441765        0.00450132
H          -1.09672939       -1.11441765       -0.00450132
H           1.09672939        1.11441765       -0.00450132
H           1.09672939       -1.11441765        0.00450132
6
MD Time 2580.00
C          -0.63790778       -0.00000000        0.00000000
C           0.63790778        0.00000000        0.00000000
H          -1.06854024        1.11084879        0.01422099
H          -1.06854024       -1.11084879       -0.01422099
H           1.06854025        1.11084879       -0.01422099
H           1.06854025       -1.11084879        0.01422099
6
MD Time 2590.00
C          -0.64073500       -0.00000000        0.00000000
C           0.64073500        0.00000000        0.00000000
H          -1.04042720        1.10512987        0.02383223
H          -1.04042720       -1.10512987       -0.02383223
H           1.04042720        1.10512987       -0.02383223
H           1.04042720       -1.10512987        0.02383223
6
MD Time 2600.00
C          -0.64387943       -0.00000000        0.00000000
C           0.64387943        0.00000000        0.00000000
H          -1.01261716        1.09744817        0.03333032
H          -1.01261716       -1.09744817       -0.03333032
H           1.01261716        1.09744817       -0.03333032
H           1.01261716       -1.09744817        0.03333032
6
MD Time 2610.00
C          -0.64728282       -0.00000000        0.00000000
C           0.64728282        0.00000000        0.00000000
H          -0.98534176        1.08803583        0.04271663
H          -0.98534176       -1.08803583       -0.04271663
H           0.98534176        1.08803583       -0.04271663
H           0.98534176       -1.08803583        0.04271663
6
MD Time 2620.00
C          -0.65088603       -0.00000000        0.00000000
C           0.65088603        0.00000000        0.00000000
H          -0.95883360        1.07717147        0.05199926
H          -0.95883360       -1.07717147       -0.05199926
H           0.95883360        1.07717147       -0.05199926
H           0.95883360       -1.07717147        0.05199926
6
MD Time 2630.00
C          -0.65463045       -0.00000000        0.00000000
C           0.65463045        0.00000000        0.00000000
H          -0.93332213        1.06518037        0.06119350
H          -0.93332213       -1.06518037       -0.06119350
H           0.93332213        1.06518037       -0.06119350
H           0.93332213       -1.06518037        0.06119350
6
MD Time 2640.00
C          -0.65845912       -0.00000000        0.00000000
C           0.65845912        0.00000000        0.00000000
H          -0.90902936        1.05243272        0.07032184
H          -0.90902936       -1.05243272       -0.07032184
H           0.90902936        1.05243272       -0.07032184
H           0.90902936       -1.05243272        0.07032184
6
MD Time 2650.00
C          -0.66231785       -0.00000000        0.00000000
C           0.66231785        0.00000000        0.00000000
H          -0.88616586        1.03933919        0.07941365
H          -0.88616586       -1.03933919       -0.07941365
H           0.88616586        1.03933919       -0.07941365
H           0.88616586       -1.03933919        0.07941365
6
MD Time 2660.00
C          -0.66615590       -0.00000000       -0.00000000
C           0.66615590        0.00000000        0.00000000
H          -0.86492722        1.02634287        0.08850407
H          -0.86492722       -1.02634287       -0.08850407
H           0.86492722        1.02634287       -0.08850407
H           0.86492722       -1.02634287        0.08850407
6
MD Time 2670.00
C          -0.66992658       -0.00000000       -0.00000000
C           0.66992658        0.00000000        0.00000000
H          -0.84549133        1.01390696        0.09763229
H          -0.84549133       -1.01390696       -0.09763229
H           0.84549133        1.01390696       -0.09763229
H           0.84549133       -1.01390696        0.09763229
6
MD Time 2680.00
C          -0.67358754       -0.00000000       -0.00000000
C           0.67358754        0.00000000        0.00000000
H          -0.82801657        1.00249770        0.10683899
H          -0.82801657       -1.00249770       -0.10683899
H           0.82801657        1.00249770       -0.10683899
H           0.82801657       -1.00249770        0.10683899
6
MD Time 2690.00
C          -0.67710100        0.00000000       -0.00000000
C           0.67710100        0.00000000        0.00000000
H          -0.81264079        0.99256270        0.11616301
H          -0.81264079       -0.99256270       -0.11616301
H           0.81264079        0.99256270       -0.11616301
H           0.81264079       -0.99256270        0.11616301
6
MD Time 2700.00
C          -0.68043382        0.00000000       -0.00000000
C           0.68043382        0.00000000        0.00000000
H          -0.79948105        0.98450589        0.12563743
H          -0.79948105       -0.98450589       -0.12563743
H           0.79948105        0.98450589       -0.12563743
H           0.79948105       -0.98450589        0.12563743
6
MD Time 2710.00
C          -0.68355760        0.00000000       -0.00000000
C           0.68355760        0.00000000        0.00000000
H          -0.78863372        0.97866133        0.13528543
H          -0.78863372       -0.97866133       -0.13528543
H           0.78863372        0.97866133       -0.13528543
H           0.78863372       -0.97866133        0.13528543
6
MD Time 2720.00
C          -0.68644865        0.00000000       -0.00000000
C           0.68644865       -0.00000000        0.00000000
H          -0.78017488        0.97526936        0.14511621
H          -0.78017488       -0.97526936       -0.14511621
H           0.78017488        0.97526936       -0.14511621
H           0.78017488       -0.97526936        0.14511621
6
MD Time 2730.00
C          -0.68908796        0.00000000       -0.00000000
C           0.68908796       -0.00000000        0.00000000
H          -0.77416071        0.97445851        0.15512177
H          -0.77416071       -0.97445851       -0.15512177
H           0.77416071        0.97445851       -0.15512177
H           0.77416071       -0.97445851        0.15512177
6
MD Time 2740.00
C          -0.69146109        0.00000000       -0.00000000
C           0.69146109       -0.00000000        0.00000000
H          -0.77062767        0.97623648        0.16527481
H          -0.77062767       -0.97623648       -0.16527481
H           0.77062767        0.97623648       -0.16527481
H           0.77062767       -0.97623648        0.16527481
6
MD Time 2750.00
C          -0.69355801        0.00000000       -0.00000000
C           0.69355801       -0.00000000        0.00000000
H          -0.76959249        0.98049156        0.17552843
H          -0.76959249       -0.98049156       -0.17552843
H           0.76959249        0.98049156       -0.17552843
H           0.76959249       -0.98049156        0.17552843
6
MD Time 2760.00
C          -0.69537291        0.00000000       -0.00000000
C           0.69537291       -0.00000000        0.00000000
H          -0.77105197        0.98700424        0.18581746
H          -0.77105197       -0.98700424       -0.18581746
H           0.77105197        0.98700424       -0.18581746
H           0.77105197       -0.98700424        0.18581746
6
MD Time 2770.00
C          -0.69690391        0.00000000       -0.00000000
C           0.69690391       -0.00000000        0.00000000
H          -0.77498270        0.99546670        0.19606137
H          -0.77498270       -0.99546670       -0.19606137
H           0.77498270        0.99546670       -0.19606137
H           0.77498270       -0.99546670        0.19606137
6
MD Time 2780.00
C          -0.69815278        0.00000000       -0.00000000
C           0.69815278       -0.00000000        0.00000000
H          -0.78134104        1.00550704        0.20616830
H          -0.78134104       -1.00550704       -0.20616830
H           0.78134104        1.00550704       -0.20616830
H           0.78134104       -1.00550704        0.20616830
6
MD Time 2790.00
C          -0.69912462        0.00000000       -0.00000000
C           0.69912462       -0.00000000        0.00000000
H          -0.79006343        1.01671450        0.21603945
H          -0.79006343       -1.01671450       -0.21603945
H           0.79006343        1.01671450       -0.21603945
H           0.79006343       -1.01671450        0.21603945
6
MD Time 2800.00
C          -0.69982748        0.00000000       -0.00000000
C           0.69982748       -0.00000000        0.00000000
H          -0.80106728        1.02866288        0.22557355
H          -0.80106728       -1.02866288       -0.22557355
H           0.80106728        1.02866288       -0.22557355
H           0.80106728       -1.02866288        0.22557355
6
MD Time 2810.00
C          -0.70027207        0.00000000       -0.00000000
C           0.70027207       -0.00000000        0.00000000
H          -0.81425223        1.04093019        0.23467063
H          -0.81425223       -1.04093019       -0.23467063
H           0.81425223        1.04093019       -0.23467063
H           0.81425223       -1.04093019        0.23467063
6
MD Time 2820.00
C          -0.70047137        0.00000000       -0.00000000
C           0.70047137       -0.00000000        0.00000000
H          -0.82950186        1.05311346        0.24323519
H          -0.82950186       -1.05311346       -0.24323519
H           0.82950186        1.05311346       -0.24323519
H           0.82950186       -1.05311346        0.24323519
6
MD Time 2830.00
C          -0.70044045        0.00000000       -0.00000000
C           0.70044045       -0.00000000        0.00000000
H          -0.84668549        1.06483898        0.25117845
H          -0.84668549       -1.06483898       -0.25117845
H           0.84668549        1.06483898       -0.25117845
H           0.84668549       -1.06483898        0.25117845
6
MD Time 2840.00
C          -0.70019621        0.00000000       -0.00000000
C           0.70019621       -0.00000000        0.00000000
H          -0.86566019        1.07576835        0.25841979
H          -0.86566019       -1.07576835       -0.25841979
H           0.86566019        1.07576835       -0.25841979
H           0.86566019       -1.07576835        0.25841979
6
MD Time 2850.00
C          -0.69975723        0.00000000       -0.00000000
C           0.69975723       -0.00000000        0.00000000
H          -0.88627255        1.08560139        0.26488760
H          -0.88627255       -1.08560139       -0.26488760
H           0.88627255        1.08560139       -0.26488760
H           0.88627255       -1.08560139        0.26488760
6
MD Time 2860.00
C          -0.69914367        0.00000000       -0.00000000
C           0.69914367       -0.00000000        0.00000000
H          -0.90836048        1.09407665        0.27051959
H          -0.90836048       -1.09407665       -0.27051959
H           0.90836048        1.09407665       -0.27051959
H           0.90836048       -1.09407665        0.27051959
6
MD Time 2870.00
C          -0.69837716        0.00000000       -0.00000000
C           0.69837716       -0.00000000        0.00000000
H          -0.93175485        1.10097057        0.27526276
H          -0.93175485       -1.10097057       -0.27526276
H           0.93175485        1.10097057       -0.27526276
H           0.93175485       -1.10097057        0.27526276
6
MD Time 2880.00
C          -0.69748062        0.00000000       -0.00000000
C           0.69748062       -0.00000000        0.00000000
H          -0.95628105        1.10609579        0.27907318
H          -0.95628105       -1.10609579       -0.27907318
H           0.95628105        1.10609579       -0.27907318
H           0.95628105       -1.10609579        0.27907318
6
MD Time 2890.00
C          -0.69647814        0.00000000       -0.00000000
C           0.69647814       -0.00000000        0.00000000
H          -0.98176047        1.10929922        0.28191566
H          -0.98176047       -1.10929922       -0.28191566
H           0.98176047        1.10929922       -0.28191566
H           0.98176047       -1.10929922        0.28191566
6
MD Time 2900.00
C          -0.69539477        0.00000000       -0.00000000
C           0.69539477       -0.00000000        0.00000000
H          -1.00801198        1.11046000        0.28376334
H          -1.00801198       -1.11046000       -0.28376334
H           1.00801198        1.11046000       -0.28376334
H           1.00801198       -1.11046000        0.28376334
6
MD Time 2910.00
C          -0.69425622        0.00000000       -0.00000000
C           0.69425622       -0.00000000        0.00000000
H          -1.03485338        1.10948782        0.28459741
H          -1.03485338       -1.10948782       -0.28459741
H           1.03485338        1.10948782       -0.28459741
H           1.03485338       -1.10948782        0.28459741
6
MD Time 2920.00
C          -0.69308855        0.00000000       -0.00000000
C           0.69308855       -0.00000000        0.00000000
H          -1.06210295        1.10632132        0.28440669
H          -1.06210295       -1.10632132       -0.28440669
H           1.06210295        1.10632132       -0.28440669
H           1.06210295       -1.10632132        0.28440669
6
MD Time 2930.00
C          -0.69191783        0.00000000       -0.00000000
C           0.69191783       -0.00000000        0.00000000
H          -1.08958099        1.10092692        0.28318745
H          -1.08958099       -1.10092692       -0.28318745
H           1.08958099        1.10092692       -0.28318745
H           1.08958099       -1.10092692        0.28318745
6
MD Time 2940.00
C          -0.69076968        0.00000000       -0.00000000
C           0.69076968       -0.00000000        0.00000000
H          -1.11711146        1.09329785        0.28094309
H          -1.11711146       -1.09329785       -0.28094309
H           1.11711146        1.09329785       -0.28094309
H           1.11711146       -1.09329785        0.28094309
6
MD Time 2950.00
C          -0.68966887        0.00000000       -0.00000000
C           0.68966887       -0.00000000        0.00000000
H          -1.14452372        1.08345342        0.27768398
H          -1.14452372       -1.08345342       -0.27768398
H           1.14452372        1.08345342       -0.27768398
H           1.14452372       -1.08345342        0.27768398
6
MD Time 2960.00
C          -0.68863880        0.00000000       -0.00000000
C           0.68863880       -0.00000000        0.00000000
H          -1.17165437        1.07143847        0.27342729
H          -1.17165437       -1.07143847       -0.27342729
H           1.17165437        1.07143847       -0.27342729
H           1.17165437       -1.07143847        0.27342729
6
MD Time 2970.00
C          -0.68770104        0.00000000       -0.00000000
C           0.68770104       -0.00000000        0.00000000
H          -1.19834921        1.05732296        0.26819675
H          -1.19834921       -1.05732296       -0.26819675
H           1.19834921        1.05732296       -0.26819675
H           1.19834921       -1.05732296        0.26819675
6
MD Time 2980.00
C          -0.68687476        0.00000000       -0.00000000
C           0.68687476       -0.00000000        0.00000000
H          -1.22446528        1.04120156        0.26202244
H          -1.22446528       -1.04120156       -0.26202244
H           1.22446528        1.04120156       -0.26202244
H           1.22446528       -1.04120156        0.26202244
6
MD Time 2990.00
C          -0.68617624        0.00000000       -0.00000000
C           0.68617624       -0.00000000        0.00000000
H          -1.24987305        1.02319329        0.25494059
H          -1.24987305       -1.02319329       -0.25494059
H           1.24987305        1.02319329       -0.25494059
H           1.24987305       -1.02319329        0.25494059
