6
MD Time 0.00
C          -1.00424993        0.00000000        0.00000000
C           1.00424993        0.00000000        0.00000000
H          -1.57974221        0.85087473        0.35244385
H          -1.57974221       -0.85087473       -0.35244385
H           1.57974221        0.85087473       -0.35244385
H           1.57974221       -0.85087473        0.35244385
6
MD Time 10.00
C          -1.00410675       -0.00000000       -0.00000000
C           1.00410675       -0.00000000       -0.00000000
H          -1.57963302        0.85106494        0.35237947
H          -1.57963302       -0.85106494       -0.35237947
H           1.57963302        0.85106494       -0.35237947
H           1.57963302       -0.85106494        0.35237947
6
MD Time 20.00
C          -1.00367745       -0.00000000       -0.00000000
C           1.00367745       -0.00000000       -0.00000000
H          -1.57930357        0.85163141        0.35218569
H          -1.57930357       -0.85163141       -0.35218569
H           1.57930357        0.85163141       -0.35218569
H           1.57930357       -0.85163141        0.35218569
6
MD Time 30.00
C          -1.00296277       -0.00000000       -0.00000000
C           1.00296277       -0.00000000       -0.00000000
H          -1.57874822        0.85256178        0.35186063
H          -1.57874822       -0.85256178       -0.35186063
H           1.57874822        0.85256178       -0.35186063
H           1.57874822       -0.85256178        0.35186063
6
MD Time 40.00
C          -1.00196388       -0.00000000       -0.00000000
C           1.00196388       -0.00000000       -0.00000000
H          -1.57795784        0.85383588        0.35140129
H          -1.57795784       -0.85383588       -0.35140129
H           1.57795784        0.85383588       -0.35140129
H           1.57795784       -0.85383588        0.35140129
6
MD Time 50.00
C          -1.00068235       -0.00000000       -0.00000000
C           1.00068235       -0.00000000       -0.00000000
H          -1.57692021        0.85542636        0.35080374
H          -1.57692021       -0.85542636       -0.35080374
H           1.57692021        0.85542636       -0.35080374
H           1.57692021       -0.85542636        0.35080374
6
MD Time 60.00
C          -0.99912004       -0.00000000       -0.00000000
C           0.99912004       -0.00000000       -0.00000000
H          -1.57562045        0.85729953        0.35006343
H          -1.57562045       -0.85729953       -0.35006343
H           1.57562045        0.85729953       -0.35006343
H           1.57562045       -0.85729953        0.35006343
6
MD Time 70.00
C          -0.99727902       -0.00000000       -0.00000000
C           0.99727902       -0.00000000       -0.00000000
H          -1.57404171        0.85941635        0.34917545
H          -1.57404171       -0.85941635       -0.34917545
H           1.57404171        0.85941635       -0.34917545
H           1.57404171       -0.85941635        0.34917545
6
MD Time 80.00
C          -0.99516144       -0.00000000       -0.00000000
C           0.99516144       -0.00000000       -0.00000000
H          -1.57216576        0.86173358        0.34813491
H          -1.57216576       -0.86173358       -0.34813491
H           1.57216576        0.86173358       -0.34813491
H           1.57216576       -0.86173358        0.34813491
6
MD Time 90.00
C          -0.99276946        0.00000000       -0.00000000
C           0.99276946       -0.00000000       -0.00000000
H          -1.56997374        0.86420500        0.34693729
H          -1.56997374       -0.86420500       -0.34693729
H           1.56997374        0.86420500       -0.34693729
H           1.56997374       -0.86420500        0.34693729
6
MD Time 100.00
C          -0.99010508        0.00000000       -0.00000000
C           0.99010508       -0.00000000       -0.00000000
H          -1.56744685        0.86678262        0.34557879
H          -1.56744685       -0.86678262       -0.34557879
H           1.56744685        0.86678262       -0.34557879
H           1.56744685       -0.86678262        0.34557879
6
MD Time 110.00
C          -0.98717006        0.00000000       -0.00000000
C           0.98717006       -0.00000000       -0.00000000
H          -1.56456706        0.86941798        0.34405667
H          -1.56456706       -0.86941798       -0.34405667
H           1.56456706        0.86941798       -0.34405667
H           1.56456706       -0.86941798        0.34405667
6
MD Time 120.00
C          -0.98396582        0.00000000       -0.00000000
C           0.98396582       -0.00000000       -0.00000000
H          -1.56131778        0.87206333        0.34236957
H          -1.56131778       -0.87206333       -0.34236957
H           1.56131778        0.87206333       -0.34236957
H           1.56131778       -0.87206333        0.34236957
6
MD Time 130.00
C          -0.98049331        0.00000000       -0.00000000
C           0.98049331       -0.00000000       -0.00000000
H          -1.55768444        0.87467276        0.34051777
H          -1.55768444       -0.87467276       -0.34051777
H           1.55768444        0.87467276       -0.34051777
H           1.55768444       -0.87467276        0.34051777
6
MD Time 140.00
C          -0.97675296        0.00000000       -0.00000000
C           0.97675296       -0.00000000       -0.00000000
H          -1.55365503        0.87720323        0.33850342
H          -1.55365503       -0.87720323       -0.33850342
H           1.55365503        0.87720323       -0.33850342
H           1.55365503       -0.87720323        0.33850342
6
MD Time 150.00
C          -0.97274458        0.00000000       -0.00000000
C           0.97274458       -0.00000000       -0.00000000
H          -1.54922056        0.87961550        0.33633066
H          -1.54922056       -0.87961550       -0.33633066
H           1.54922056        0.87961550       -0.33633066
H           1.54922056       -0.87961550        0.33633066
6
MD Time 160.00
C          -0.96846733        0.00000000       -0.00000000
C           0.96846733       -0.00000000       -0.00000000
H          -1.54437536        0.88187492        0.33400578
H          -1.54437536       -0.88187492       -0.33400578
H           1.54437536        0.88187492       -0.33400578
H           1.54437536       -0.88187492        0.33400578
6
MD Time 170.00
C          -0.96391969        0.00000000       -0.00000000
C           0.96391969       -0.00000000       -0.00000000
H          -1.53911741        0.88395205        0.33153721
H          -1.53911741       -0.88395205       -0.33153721
H           1.53911741        0.88395205       -0.33153721
H           1.53911741       -0.88395205        0.33153721
6
MD Time 180.00
C          -0.95909939        0.00000000       -0.00000000
C           0.95909939       -0.00000000       -0.00000000
H          -1.53344846        0.88582322        0.32893556
H          -1.53344846       -0.88582322       -0.32893556
H           1.53344846        0.88582322       -0.32893556
H           1.53344846       -0.88582322        0.32893556
6
MD Time 190.00
C          -0.95400347        0.00000000       -0.00000000
C           0.95400347       -0.00000000       -0.00000000
H          -1.52737411        0.88747082        0.32621349
H          -1.52737411       -0.88747082       -0.32621349
H           1.52737411        0.88747082       -0.32621349
H           1.52737411       -0.88747082        0.32621349
6
MD Time 200.00
C          -0.94862824        0.00000000       -0.00000000
C           0.94862824       -0.00000000       -0.00000000
H          -1.52090376        0.88888356        0.32338559
H          -1.52090376       -0.88888356       -0.32338559
H           1.52090376        0.88888356       -0.32338559
H           1.52090376       -0.88888356        0.32338559
6
MD Time 210.00
C          -0.94296931        0.00000000       -0.00000000
C           0.94296931       -0.00000000       -0.00000000
H          -1.51405055        0.89005650        0.32046819
H          -1.51405055       -0.89005650       -0.32046819
H           1.51405055        0.89005650       -0.32046819
H           1.51405055       -0.89005650        0.32046819
6
MD Time 220.00
C          -0.93702168        0.00000000       -0.00000000
C           0.93702168       -0.00000000       -0.00000000
H          -1.50683110        0.89099098        0.31747911
H          -1.50683110       -0.89099098       -0.31747911
H           1.50683110        0.89099098       -0.31747911
H           1.50683110       -0.89099098        0.31747911
6
MD Time 230.00
C          -0.93077976        0.00000000       -0.00000000
C           0.93077976       -0.00000000       -0.00000000
H          -1.49926521        0.89169435        0.31443733
H          -1.49926521       -0.89169435       -0.31443733
H           1.49926521        0.89169435       -0.31443733
H           1.49926521       -0.89169435        0.31443733
6
MD Time 240.00
C          -0.92423745        0.00000000       -0.00000000
C           0.92423745       -0.00000000       -0.00000000
H          -1.49137553        0.89217959        0.31136264
H          -1.49137553       -0.89217959       -0.31136264
H           1.49137553        0.89217959       -0.31136264
H           1.49137553       -0.89217959        0.31136264
6
MD Time 250.00
C          -0.91738829        0.00000000       -0.00000000
C           0.91738829       -0.00000000       -0.00000000
H          -1.48318705        0.89246481        0.30827524
H          -1.48318705       -0.89246481       -0.30827524
H           1.48318705        0.89246481       -0.30827524
H           1.48318705       -0.89246481        0.30827524
6
MD Time 260.00
C          -0.91022548        0.00000000       -0.00000000
C           0.91022548       -0.00000000       -0.00000000
H          -1.47472658        0.89257255        0.30519528
H          -1.47472658       -0.89257255       -0.30519528
H           1.47472658        0.89257255       -0.30519528
H           1.47472658       -0.89257255        0.30519528
6
MD Time 270.00
C          -0.90274212        0.00000000       -0.00000000
C           0.90274212       -0.00000000       -0.00000000
H          -1.46602219        0.89252900        0.30214235
H          -1.46602219       -0.89252900       -0.30214235
H           1.46602219        0.89252900       -0.30214235
H           1.46602219       -0.89252900        0.30214235
6
MD Time 280.00
C          -0.89493130        0.00000000       -0.00000000
C           0.89493130       -0.00000000       -0.00000000
H          -1.45710251        0.89236308        0.29913497
H          -1.45710251       -0.89236308       -0.29913497
H           1.45710251        0.89236308       -0.29913497
H           1.45710251       -0.89236308        0.29913497
6
MD Time 290.00
C          -0.88678627        0.00000000       -0.00000000
C           0.88678627       -0.00000000       -0.00000000
H          -1.44799609        0.89210550        0.29619005
H          -1.44799609       -0.89210550       -0.29619005
H           1.44799609        0.89210550       -0.29619005
H           1.44799609       -0.89210550        0.29619005
6
MD Time 300.00
C          -0.87830070        0.00000000       -0.00000000
C           0.87830070       -0.00000000       -0.00000000
H          -1.43873066        0.89178762        0.29332228
H          -1.43873066       -0.89178762       -0.29332228
H           1.43873066        0.89178762       -0.29332228
H           1.43873066       -0.89178762        0.29332228
6
MD Time 310.00
C          -0.86946879        0.00000000       -0.00000000
C           0.86946879       -0.00000000       -0.00000000
H          -1.42933244        0.89144046        0.29054366
H          -1.42933244       -0.89144046       -0.29054366
H           1.42933244        0.89144046       -0.29054366
H           1.42933244       -0.89144046        0.29054366
6
MD Time 320.00
C          -0.86028560        0.00000000       -0.00000000
C           0.86028560       -0.00000000       -0.00000000
H          -1.41982544        0.89109350        0.28786286
H          -1.41982544       -0.89109350       -0.28786286
H           1.41982544        0.89109350       -0.28786286
H           1.41982544       -0.89109350        0.28786286
6
MD Time 330.00
C          -0.85074723        0.00000000       -0.00000000
C           0.85074723       -0.00000000       -0.00000000
H          -1.41023084        0.89077376        0.28528479
H          -1.41023084       -0.89077376       -0.28528479
H           1.41023084        0.89077376       -0.28528479
H           1.41023084       -0.89077376        0.28528479
6
MD Time 340.00
C          -0.84085118        0.00000000       -0.00000000
C           0.84085118       -0.00000000       -0.00000000
H          -1.40056636        0.89050472        0.28281006
H          -1.40056636       -0.89050472       -0.28281006
H           1.40056636        0.89050472       -0.28281006
H           1.40056636       -0.89050472        0.28281006
6
MD Time 350.00
C          -0.83059656        0.00000000       -0.00000000
C           0.83059656       -0.00000000       -0.00000000
H          -1.39084586        0.89030559        0.28043463
H          -1.39084586       -0.89030559       -0.28043463
H           1.39084586        0.89030559       -0.28043463
H           1.39084586       -0.89030559        0.28043463
6
MD Time 360.00
C          -0.81998449        0.00000000       -0.00000000
C           0.81998449       -0.00000000       -0.00000000
H          -1.38107888        0.89019061        0.27814948
H          -1.38107888       -0.89019061       -0.27814948
H           1.38107888        0.89019061       -0.27814948
H           1.38107888       -0.89019061        0.27814948
6
MD Time 370.00
C          -0.80901848        0.00000000       -0.00000000
C           0.80901848       -0.00000000       -0.00000000
H          -1.37127043        0.89016856        0.27594032
H          -1.37127043       -0.89016856       -0.27594032
H           1.37127043        0.89016856       -0.27594032
H           1.37127043       -0.89016856        0.27594032
6
MD Time 380.00
C          -0.79770478        0.00000000       -0.00000000
C           0.79770478       -0.00000000       -0.00000000
H          -1.36142089        0.89024257        0.27378748
H          -1.36142089       -0.89024257       -0.27378748
H           1.36142089        0.89024257       -0.27378748
H           1.36142089       -0.89024257        0.27378748
6
MD Time 390.00
C          -0.78605290        0.00000000       -0.00000000
C           0.78605290       -0.00000000       -0.00000000
H          -1.35152603        0.89041008        0.27166589
H          -1.35152603       -0.89041008       -0.27166589
H           1.35152603        0.89041008       -0.27166589
H           1.35152603       -0.89041008        0.27166589
6
MD Time 400.00
C          -0.77407613        0.00000000       -0.00000000
C           0.77407613       -0.00000000       -0.00000000
H          -1.34157717        0.89066311        0.26954509
H          -1.34157717       -0.89066311       -0.26954509
H           1.34157717        0.89066311       -0.26954509
H           1.34157717       -0.89066311        0.26954509
6
MD Time 410.00
C          -0.76179208        0.00000000       -0.00000000
C           0.76179208       -0.00000000       -0.00000000
H          -1.33156152        0.89098865        0.26738943
H          -1.33156152       -0.89098865       -0.26738943
H           1.33156152        0.89098865       -0.26738943
H           1.33156152       -0.89098865        0.26738943
6
MD Time 420.00
C          -0.74922342        0.00000000       -0.00000000
C           0.74922342       -0.00000000       -0.00000000
H          -1.32146258        0.89136944        0.26515834
H          -1.32146258       -0.89136944       -0.26515834
H           1.32146258        0.89136944       -0.26515834
H           1.32146258       -0.89136944        0.26515834
6
MD Time 430.00
C          -0.73639856        0.00000000       -0.00000000
C           0.73639856       -0.00000000       -0.00000000
H          -1.31126073        0.89178473        0.26280674
H          -1.31126073       -0.89178473       -0.26280674
H           1.31126073        0.89178473       -0.26280674
H           1.31126073       -0.89178473        0.26280674
6
MD Time 440.00
C          -0.72335250        0.00000000       -0.00000000
C           0.72335250       -0.00000000       -0.00000000
H          -1.30093389        0.89221138        0.26028546
H          -1.30093389       -0.89221138       -0.26028546
H           1.30093389        0.89221138       -0.26028546
H           1.30093389       -0.89221138        0.26028546
6
MD Time 450.00
C          -0.71012776        0.00000000       -0.00000000
C           0.71012776       -0.00000000       -0.00000000
H          -1.29045823        0.89262495        0.25754187
H          -1.29045823       -0.89262495       -0.25754187
H           1.29045823        0.89262495       -0.25754187
H           1.29045823       -0.89262495        0.25754187
6
MD Time 460.00
C          -0.69677529        0.00000000       -0.00000000
C           0.69677529       -0.00000000       -0.00000000
H          -1.27980910        0.89300092        0.25452050
H          -1.27980910       -0.89300092       -0.25452050
H           1.27980910        0.89300092       -0.25452050
H           1.27980910       -0.89300092        0.25452050
6
MD Time 470.00
C          -0.68335549        0.00000000       -0.00000000
C           0.68335549       -0.00000000       -0.00000000
H          -1.26896190        0.89331600        0.25116387
H          -1.26896190       -0.89331600       -0.25116387
H           1.26896190        0.89331600       -0.25116387
H           1.26896190       -0.89331600        0.25116387
6
MD Time 480.00
C          -0.66993916        0.00000000       -0.00000000
C           0.66993916       -0.00000000       -0.00000000
H          -1.25789319        0.89354941        0.24741329
H          -1.25789319       -0.89354941       -0.24741329
H           1.25789319        0.89354941       -0.24741329
H           1.25789319       -0.89354941        0.24741329
6
MD Time 490.00
C          -0.65660838        0.00000000       -0.00000000
C           0.65660838       -0.00000000       -0.00000000
H          -1.24658183        0.89368416        0.24320988
H          -1.24658183       -0.89368416       -0.24320988
H           1.24658183        0.89368416       -0.24320988
H           1.24658183       -0.89368416        0.24320988
6
MD Time 500.00
C          -0.64345716        0.00000000       -0.00000000
C           0.64345716       -0.00000000       -0.00000000
H          -1.23501025        0.89370835        0.23849567
H          -1.23501025       -0.89370835       -0.23849567
H           1.23501025        0.89370835       -0.23849567
H           1.23501025       -0.89370835        0.23849567
6
MD Time 510.00
C          -0.63059178        0.00000000       -0.00000000
C           0.63059178       -0.00000000       -0.00000000
H          -1.22316592        0.89361638        0.23321476
H          -1.22316592       -0.89361638       -0.23321476
H           1.22316592        0.89361638       -0.23321476
H           1.22316592       -0.89361638        0.23321476
6
MD Time 520.00
C          -0.61813060        0.00000000       -0.00000000
C           0.61813060       -0.00000000       -0.00000000
H          -1.21104291        0.89341010        0.22731473
H          -1.21104291       -0.89341010       -0.22731473
H           1.21104291        0.89341010       -0.22731473
H           1.21104291       -0.89341010        0.22731473
6
MD Time 530.00
C          -0.60620319        0.00000000       -0.00000000
C           0.60620319       -0.00000000       -0.00000000
H          -1.19864363        0.89309998        0.22074810
H          -1.19864363       -0.89309998       -0.22074810
H           1.19864363        0.89309998       -0.22074810
H           1.19864363       -0.89309998        0.22074810
6
MD Time 540.00
C          -0.59494851        0.00000000       -0.00000000
C           0.59494851       -0.00000000       -0.00000000
H          -1.18598070        0.89270604        0.21347392
H          -1.18598070       -0.89270604       -0.21347392
H           1.18598070        0.89270604       -0.21347392
H           1.18598070       -0.89270604        0.21347392
6
MD Time 550.00
C          -0.58451196        0.00000000       -0.00000000
C           0.58451196       -0.00000000       -0.00000000
H          -1.17307888        0.89225887        0.20545947
H          -1.17307888       -0.89225887       -0.20545947
H           1.17307888        0.89225887       -0.20545947
H           1.17307888       -0.89225887        0.20545947
6
MD Time 560.00
C          -0.57504122        0.00000000       -0.00000000
C           0.57504122       -0.00000000       -0.00000000
H          -1.15997712        0.89180040        0.19668206
H          -1.15997712       -0.89180040       -0.19668206
H           1.15997712        0.89180040       -0.19668206
H           1.15997712       -0.89180040        0.19668206
6
MD Time 570.00
C          -0.56668074        0.00000000       -0.00000000
C           0.56668074       -0.00000000       -0.00000000
H          -1.14673040        0.89138459        0.18713078
H          -1.14673040       -0.89138459       -0.18713078
H           1.14673040        0.89138459       -0.18713078
H           1.14673040       -0.89138459        0.18713078
6
MD Time 580.00
C          -0.55956518        0.00000000       -0.00000000
C           0.55956518       -0.00000000       -0.00000000
H          -1.13341147        0.89107787        0.17680818
H          -1.13341147       -0.89107787       -0.17680818
H           1.13341147        0.89107787       -0.17680818
H           1.13341147       -0.89107787        0.17680818
6
MD Time 590.00
C          -0.55381200        0.00000000       -0.00000000
C           0.55381200       -0.00000000       -0.00000000
H          -1.12011204        0.89095927        0.16573175
H          -1.12011204       -0.89095927       -0.16573175
H           1.12011204        0.89095927       -0.16573175
H           1.12011204       -0.89095927        0.16573175
6
MD Time 600.00
C          -0.54951403        0.00000000       -0.00000000
C           0.54951403       -0.00000000       -0.00000000
H          -1.10694346        0.89112003        0.15393519
H          -1.10694346       -0.89112003       -0.15393519
H           1.10694346        0.89112003       -0.15393519
H           1.10694346       -0.89112003        0.15393519
6
MD Time 610.00
C          -0.54673263        0.00000000       -0.00000000
C           0.54673263       -0.00000000       -0.00000000
H          -1.09403638        0.89166253        0.14146908
H          -1.09403638       -0.89166253       -0.14146908
H           1.09403638        0.89166253       -0.14146908
H           1.09403638       -0.89166253        0.14146908
6
MD Time 620.00
C          -0.54549247        0.00000000       -0.00000000
C           0.54549247       -0.00000000        0.00000000
H          -1.08153937        0.89269820        0.12840111
H          -1.08153937       -0.89269820       -0.12840111
H           1.08153937        0.89269820       -0.12840111
H           1.08153937       -0.89269820        0.12840111
6
MD Time 630.00
C          -0.54577863        0.00000000       -0.00000000
C           0.54577863       -0.00000000        0.00000000
H          -1.06961620        0.89434420        0.11481562
H          -1.06961620       -0.89434420       -0.11481562
H           1.06961620        0.89434420       -0.11481562
H           1.06961620       -0.89434420        0.11481562
6
MD Time 640.00
C          -0.54753655        0.00000000       -0.00000000
C           0.54753655       -0.00000000        0.00000000
H          -1.05844171        0.89671856        0.10081231
H          -1.05844171       -0.89671856       -0.10081231
H           1.05844171        0.89671856       -0.10081231
H           1.05844171       -0.89671856        0.10081231
6
MD Time 650.00
C          -0.55067492        0.00000000       -0.00000000
C           0.55067492       -0.00000000        0.00000000
H          -1.04819639        0.89993377        0.08650437
H          -1.04819639       -0.89993377       -0.08650437
H           1.04819639        0.89993377       -0.08650437
H           1.04819639       -0.89993377        0.08650437
6
MD Time 660.00
C          -0.55507123        0.00000000       -0.00000000
C           0.55507123       -0.00000000        0.00000000
H          -1.03905987        0.90408889        0.07201586
H          -1.03905987       -0.90408889       -0.07201586
H           1.03905987        0.90408889       -0.07201586
H           1.03905987       -0.90408889        0.07201586
6
MD Time 670.00
C          -0.56057907        0.00000000       -0.00000000
C           0.56057907       -0.00000000        0.00000000
H          -1.03120398        0.90926081        0.05747871
H          -1.03120398       -0.90926081       -0.05747871
H           1.03120398        0.90926081       -0.05747871
H           1.03120398       -0.90926081        0.05747871
6
MD Time 680.00
C          -0.56703652        0.00000000       -0.00000000
C           0.56703652       -0.00000000        0.00000000
H          -1.02478575        0.91549541        0.04302950
H          -1.02478575       -0.91549541       -0.04302950
H           1.02478575        0.91549541       -0.04302950
H           1.02478575       -0.91549541        0.04302950
6
MD Time 690.00
C          -0.57427445        0.00000000       -0.00000000
C           0.57427445       -0.00000000        0.00000000
H          -1.01994128        0.92279968        0.02880626
H          -1.01994128       -0.92279968       -0.02880626
H           1.01994128        0.92279968       -0.02880626
H           1.01994128       -0.92279968        0.02880626
6
MD Time 700.00
C          -0.58212407        0.00000000       -0.00000000
C           0.58212407       -0.00000000        0.00000000
H          -1.01678089        0.93113617        0.01494557
H          -1.01678089       -0.93113617       -0.01494557
H           1.01678089        0.93113617       -0.01494557
H           1.01678089       -0.93113617        0.01494557
6
MD Time 710.00
C          -0.59042315        0.00000000       -0.00000000
C           0.59042315       -0.00000000        0.00000000
H          -1.01538606        0.94042038        0.00157999
H          -1.01538606       -0.94042038       -0.00157999
H           1.01538606        0.94042038       -0.00157999
H           1.01538606       -0.94042038        0.00157999
6
MD Time 720.00
C          -0.59902063        0.00000000       -0.00000000
C           0.59902063       -0.00000000        0.00000000
H          -1.01580811        0.95052191       -0.01116409
H          -1.01580811       -0.95052191        0.01116409
H           1.01580811        0.95052191        0.01116409
H           1.01580811       -0.95052191       -0.01116409
6
MD Time 730.00
C          -0.60777972        0.00000000       -0.00000000
C           0.60777972       -0.00000000        0.00000000
H          -1.01806863        0.96126892       -0.02316813
H          -1.01806863       -0.96126892        0.02316813
H           1.01806863        0.96126892        0.02316813
H           1.01806863       -0.96126892       -0.02316813
6
MD Time 740.00
C          -0.61657953        0.00000000       -0.00000000
C           0.61657953       -0.00000000        0.00000000
H          -1.02216118        0.97245553       -0.03432284
H          -1.02216118       -0.97245553        0.03432284
H           1.02216118        0.97245553        0.03432284
H           1.02216118       -0.97245553       -0.03432284
6
MD Time 750.00
C          -0.62531552        0.00000000       -0.00000000
C           0.62531552       -0.00000000        0.00000000
H          -1.02805386        0.98385091       -0.04452922
H          -1.02805386       -0.98385091        0.04452922
H           1.02805386        0.98385091        0.04452922
H           1.02805386       -0.98385091       -0.04452922
6
MD Time 760.00
C          -0.63389914        0.00000000       -0.00000000
C           0.63389914       -0.00000000        0.00000000
H          -1.03569246        0.99520911       -0.05369930
H          -1.03569246       -0.99520911        0.05369930
H           1.03569246        0.99520911        0.05369930
H           1.03569246       -0.99520911       -0.05369930
6
MD Time 770.00
C          -0.64225693        0.00000000       -0.00000000
C           0.64225693       -0.00000000        0.00000000
H          -1.04500371        1.00627854       -0.06175669
H          -1.04500371       -1.00627854        0.06175669
H           1.04500371        1.00627854        0.06175669
H           1.04500371       -1.00627854       -0.06175669
6
MD Time 780.00
C          -0.65032915        0.00000000       -0.00000000
C           0.65032915       -0.00000000        0.00000000
H          -1.05589844        1.01681034       -0.06863678
H          -1.05589844       -1.01681034        0.06863678
H           1.05589844        1.01681034        0.06863678
H           1.05589844       -1.01681034       -0.06863678
6
MD Time 790.00
C          -0.65806842        0.00000000       -0.00000000
C           0.65806842       -0.00000000        0.00000000
H          -1.06827455        1.02656528       -0.07428680
H          -1.06827455       -1.02656528        0.07428680
H           1.06827455        1.02656528        0.07428680
H           1.06827455       -1.02656528       -0.07428680
6
MD Time 800.00
C          -0.66543815        0.00000000       -0.00000000
C           0.66543815       -0.00000000        0.00000000
H          -1.08201967        1.03531918       -0.07866560
H          -1.08201967       -1.03531918        0.07866560
H           1.08201967        1.03531918        0.07866560
H           1.08201967       -1.03531918       -0.07866560
6
MD Time 810.00
C          -0.67241117        0.00000000       -0.00000000
C           0.67241117       -0.00000000        0.00000000
H          -1.09701344        1.04286665       -0.08174336
H          -1.09701344       -1.04286665        0.08174336
H           1.09701344        1.04286665        0.08174336
H           1.09701344       -1.04286665       -0.08174336
6
MD Time 820.00
C          -0.67896837        0.00000000       -0.00000000
C           0.67896837       -0.00000000        0.00000000
H          -1.11312957        1.04902369       -0.08350109
H          -1.11312957       -1.04902369        0.08350109
H           1.11312957        1.04902369        0.08350109
H           1.11312957       -1.04902369       -0.08350109
6
MD Time 830.00
C          -0.68509754        0.00000000       -0.00000000
C           0.68509754       -0.00000000        0.00000000
H          -1.13023751        1.05362927       -0.08393018
H          -1.13023751       -1.05362927        0.08393018
H           1.13023751        1.05362927        0.08393018
H           1.13023751       -1.05362927       -0.08393018
6
MD Time 840.00
C          -0.69079226        0.00000000       -0.00000000
C           0.69079226       -0.00000000        0.00000000
H          -1.14820390        1.05654613       -0.08303183
H          -1.14820390       -1.05654613        0.08303183
H           1.14820390        1.05654613        0.08303183
H           1.14820390       -1.05654613       -0.08303183
6
MD Time 850.00
C          -0.69605106        0.00000000       -0.00000000
C           0.69605106       -0.00000000        0.00000000
H          -1.16689392        1.05766117       -0.08081652
H          -1.16689392       -1.05766117        0.08081652
H           1.16689392        1.05766117        0.08081652
H           1.16689392       -1.05766117       -0.08081652
6
MD Time 860.00
C          -0.70087658        0.00000000       -0.00000000
C           0.70087658       -0.00000000        0.00000000
H          -1.18617235        1.05688558       -0.07730359
H          -1.18617235       -1.05688558        0.07730359
H           1.18617235        1.05688558        0.07730359
H           1.18617235       -1.05688558       -0.07730359
6
MD Time 870.00
C          -0.70527490        0.00000000       -0.00000000
C           0.70527490       -0.00000000        0.00000000
H          -1.20590463        1.05415476       -0.07252074
H          -1.20590463       -1.05415476        0.07252074
H           1.20590463        1.05415476        0.07252074
H           1.20590463       -1.05415476       -0.07252074
6
MD Time 880.00
C          -0.70925494        0.00000000       -0.00000000
C           0.70925494       -0.00000000        0.00000000
H          -1.22595788        1.04942837       -0.06650367
H          -1.22595788       -1.04942837        0.06650367
H           1.22595788        1.04942837        0.06650367
H           1.22595788       -1.04942837       -0.06650367
6
MD Time 890.00
C          -0.71282799        0.00000000       -0.00000000
C           0.71282799       -0.00000000        0.00000000
H          -1.24620193        1.04269029       -0.05929574
H          -1.24620193       -1.04269029        0.05929574
H           1.24620193        1.04269029        0.05929574
H           1.24620193       -1.04269029       -0.05929574
6
MD Time 900.00
C          -0.71600719        0.00000000       -0.00000000
C           0.71600719       -0.00000000        0.00000000
H          -1.26651031        1.03394878       -0.05094763
H          -1.26651031       -1.03394878        0.05094763
H           1.26651031        1.03394878        0.05094763
H           1.26651031       -1.03394878       -0.05094763
6
MD Time 910.00
C          -0.71880718        0.00000000       -0.00000000
C           0.71880718       -0.00000000        0.00000000
H          -1.28676142        1.02323666       -0.04151701
H          -1.28676142       -1.02323666        0.04151701
H           1.28676142        1.02323666        0.04151701
H           1.28676142       -1.02323666       -0.04151701
6
MD Time 920.00
C          -0.72124367        0.00000000       -0.00000000
C           0.72124367       -0.00000000        0.00000000
H          -1.30683972        1.01061151       -0.03106824
H          -1.30683972       -1.01061151        0.03106824
H           1.30683972        1.01061151        0.03106824
H           1.30683972       -1.01061151       -0.03106824
6
MD Time 930.00
C          -0.72333314        0.00000000       -0.00000000
C           0.72333314       -0.00000000        0.00000000
H          -1.32663703        0.99615596       -0.01967195
H          -1.32663703       -0.99615596        0.01967195
H           1.32663703        0.99615596        0.01967195
H           1.32663703       -0.99615596       -0.01967195
6
MD Time 940.00
C          -0.72509247        0.00000000       -0.00000000
C           0.72509247       -0.00000000        0.00000000
H          -1.34605389        0.97997780       -0.00740461
H          -1.34605389       -0.97997780        0.00740461
H           1.34605389        0.97997780        0.00740461
H           1.34605389       -0.97997780       -0.00740461
6
MD Time 950.00
C          -0.72653865        0.00000000       -0.00000000
C           0.72653865       -0.00000000        0.00000000
H          -1.36500098        0.96220999        0.00565206
H          -1.36500098       -0.96220999       -0.00565206
H           1.36500098        0.96220999       -0.00565206
H           1.36500098       -0.96220999        0.00565206
6
MD Time 960.00
C          -0.72768849        0.00000000       -0.00000000
C           0.72768849       -0.00000000        0.00000000
H          -1.38340043        0.94301037        0.01941175
H          -1.38340043       -0.94301037       -0.01941175
H           1.38340043        0.94301037       -0.01941175
H           1.38340043       -0.94301037        0.01941175
6
MD Time 970.00
C          -0.72855841        0.00000000       -0.00000000
C           0.72855841       -0.00000000        0.00000000
H          -1.40118705        0.92256100        0.03378440
H          -1.40118705       -0.92256100       -0.03378440
H           1.40118705        0.92256100       -0.03378440
H           1.40118705       -0.92256100        0.03378440
6
MD Time 980.00
C          -0.72916421       -0.00000000       -0.00000000
C           0.72916421        0.00000000        0.00000000
H          -1.41830925        0.90106694        0.04867719
H          -1.41830925       -0.90106694       -0.04867719
H           1.41830925        0.90106694       -0.04867719
H           1.41830925       -0.90106694        0.04867719
6
MD Time 990.00
C          -0.72952101       -0.00000000       -0.00000000
C           0.72952101        0.00000000        0.00000000
H          -1.43472952        0.87875456        0.06399561
H          -1.43472952       -0.87875456       -0.06399561
H           1.43472952        0.87875456       -0.06399561
H           1.43472952       -0.87875456        0.06399561
6
MD Time 1000.00
C          -0.72964319       -0.00000000       -0.00000000
C           0.72964319        0.00000000        0.00000000
H          -1.45042436        0.85586897        0.07964475
H          -1.45042436       -0.85586897       -0.07964475
H           1.45042436        0.85586897       -0.07964475
H           1.45042436       -0.85586897        0.07964475
6
MD Time 1010.00
C          -0.72954453       -0.00000000       -0.00000000
C           0.72954453        0.00000000        0.00000000
H          -1.46538336        0.83267081        0.09553050
H          -1.46538336       -0.83267081       -0.09553050
H           1.46538336        0.83267081       -0.09553050
H           1.46538336       -0.83267081        0.09553050
6
MD Time 1020.00
C          -0.72923840       -0.00000000       -0.00000000
C           0.72923840        0.00000000        0.00000000
H          -1.47960744        0.80943230        0.11156086
H          -1.47960744       -0.80943230       -0.11156086
H           1.47960744        0.80943230       -0.11156086
H           1.47960744       -0.80943230        0.11156086
6
MD Time 1030.00
C          -0.72873811       -0.00000000       -0.00000000
C           0.72873811        0.00000000        0.00000000
H          -1.49310620        0.78643254        0.12764701
H          -1.49310620       -0.78643254       -0.12764701
H           1.49310620        0.78643254       -0.12764701
H           1.49310620       -0.78643254        0.12764701
6
MD Time 1040.00
C          -0.72805734       -0.00000000       -0.00000000
C           0.72805734        0.00000000        0.00000000
H          -1.50589435        0.76395238        0.14370431
H          -1.50589435       -0.76395238       -0.14370431
H           1.50589435        0.76395238       -0.14370431
H           1.50589435       -0.76395238        0.14370431
6
MD Time 1050.00
C          -0.72721066       -0.00000000       -0.00000000
C           0.72721066        0.00000000        0.00000000
H          -1.51798762        0.74226890        0.15965287
H          -1.51798762       -0.74226890       -0.15965287
H           1.51798762        0.74226890       -0.15965287
H           1.51798762       -0.74226890        0.15965287
6
MD Time 1060.00
C          -0.72621400       -0.00000000       -0.00000000
C           0.72621400        0.00000000        0.00000000
H          -1.52939834        0.72164990        0.17541789
H          -1.52939834       -0.72164990       -0.17541789
H           1.52939834        0.72164990       -0.17541789
H           1.52939834       -0.72164990        0.17541789
6
MD Time 1070.00
C          -0.72508509       -0.00000000       -0.00000000
C           0.72508509        0.00000000        0.00000000
H          -1.54013134        0.70234839        0.19092963
H          -1.54013134       -0.70234839       -0.19092963
H           1.54013134        0.70234839       -0.19092963
H           1.54013134       -0.70234839        0.19092963
6
MD Time 1080.00
C          -0.72384377       -0.00000000       -0.00000000
C           0.72384377        0.00000000        0.00000000
H          -1.55018047        0.68459748        0.20612303
H          -1.55018047       -0.68459748       -0.20612303
H           1.55018047        0.68459748       -0.20612303
H           1.55018047       -0.68459748        0.20612303
6
MD Time 1090.00
C          -0.72251208       -0.00000000       -0.00000000
C           0.72251208        0.00000000       -0.00000000
H          -1.55952621        0.66860558        0.22093710
H          -1.55952621       -0.66860558       -0.22093710
H           1.55952621        0.66860558       -0.22093710
H           1.55952621       -0.66860558        0.22093710
6
MD Time 1100.00
C          -0.72111422       -0.00000000       -0.00000000
C           0.72111422        0.00000000       -0.00000000
H          -1.56813457        0.65455213        0.23531398
H          -1.56813457       -0.65455213       -0.23531398
H           1.56813457        0.65455213       -0.23531398
H           1.56813457       -0.65455213        0.23531398
6
MD Time 1110.00
C          -0.71967623       -0.00000000       -0.00000000
C           0.71967623        0.00000000       -0.00000000
H          -1.57595730        0.64258411        0.24919790
H          -1.57595730       -0.64258411       -0.24919790
H           1.57595730        0.64258411       -0.24919790
H           1.57595730       -0.64258411        0.24919790
6
MD Time 1120.00
C          -0.71822555       -0.00000000       -0.00000000
C           0.71822555        0.00000000       -0.00000000
H          -1.58293330        0.63281329        0.26253397
H          -1.58293330       -0.63281329       -0.26253397
H           1.58293330        0.63281329       -0.26253397
H           1.58293330       -0.63281329        0.26253397
6
MD Time 1130.00
C          -0.71679044       -0.00000000       -0.00000000
C           0.71679044        0.00000000       -0.00000000
H          -1.58899090        0.62531466        0.27526710
H          -1.58899090       -0.62531466       -0.27526710
H           1.58899090        0.62531466       -0.27526710
H           1.58899090       -0.62531466        0.27526710
6
MD Time 1140.00
C          -0.71539936       -0.00000000       -0.00000000
C           0.71539936        0.00000000       -0.00000000
H          -1.59405082        0.62012605        0.28734109
H          -1.59405082       -0.62012605       -0.28734109
H           1.59405082        0.62012605       -0.28734109
H           1.59405082       -0.62012605        0.28734109
6
MD Time 1150.00
C          -0.71408022       -0.00000000       -0.00000000
C           0.71408022        0.00000000       -0.00000000
H          -1.59802936        0.61724905        0.29869803
H          -1.59802936       -0.61724905       -0.29869803
H           1.59802936        0.61724905       -0.29869803
H           1.59802936       -0.61724905        0.29869803
6
MD Time 1160.00
C          -0.71285981       -0.00000000       -0.00000000
C           0.71285981        0.00000000       -0.00000000
H          -1.60084157        0.61665109        0.30927825
H          -1.60084157       -0.61665109       -0.30927825
H           1.60084157        0.61665109       -0.30927825
H           1.60084157       -0.61665109        0.30927825
6
MD Time 1170.00
C          -0.71176314       -0.00000000       -0.00000000
C           0.71176314       -0.00000000       -0.00000000
H          -1.60240423        0.61826856        0.31902072
H          -1.60240423       -0.61826856       -0.31902072
H           1.60240423        0.61826856       -0.31902072
H           1.60240423       -0.61826856        0.31902072
6
MD Time 1180.00
C          -0.71081292       -0.00000000       -0.00000000
C           0.71081292       -0.00000000       -0.00000000
H          -1.60263849        0.62201072        0.32786393
H          -1.60263849       -0.62201072       -0.32786393
H           1.60263849        0.62201072       -0.32786393
H           1.60263849       -0.62201072        0.32786393
6
MD Time 1190.00
C          -0.71002912        0.00000000       -0.00000000
C           0.71002912       -0.00000000       -0.00000000
H          -1.60147207        0.62776389        0.33574715
H          -1.60147207       -0.62776389       -0.33574715
H           1.60147207        0.62776389       -0.33574715
H           1.60147207       -0.62776389        0.33574715
6
MD Time 1200.00
C          -0.70942860        0.00000000       -0.00000000
C           0.70942860       -0.00000000       -0.00000000
H          -1.59884106        0.63539598        0.34261203
H          -1.59884106       -0.63539598       -0.34261203
H           1.59884106        0.63539598       -0.34261203
H           1.59884106       -0.63539598        0.34261203
6
MD Time 1210.00
C          -0.70902485        0.00000000       -0.00000000
C           0.70902485       -0.00000000       -0.00000000
H          -1.59469127        0.64476076        0.34840426
H          -1.59469127       -0.64476076       -0.34840426
H           1.59469127        0.64476076       -0.34840426
H           1.59469127       -0.64476076        0.34840426
6
MD Time 1220.00
C          -0.70882777        0.00000000       -0.00000000
C           0.70882777       -0.00000000       -0.00000000
H          -1.58897929        0.65570201        0.35307525
H          -1.58897929       -0.65570201       -0.35307525
H           1.58897929        0.65570201       -0.35307525
H           1.58897929       -0.65570201        0.35307525
6
MD Time 1230.00
C          -0.70884357        0.00000000       -0.00000000
C           0.70884357       -0.00000000       -0.00000000
H          -1.58167320        0.66805719        0.35658374
H          -1.58167320       -0.66805719       -0.35658374
H           1.58167320        0.66805719       -0.35658374
H           1.58167320       -0.66805719        0.35658374
6
MD Time 1240.00
C          -0.70907471        0.00000000       -0.00000000
C           0.70907471       -0.00000000       -0.00000000
H          -1.57275308        0.68166081        0.35889731
H          -1.57275308       -0.68166081       -0.35889731
H           1.57275308        0.68166081       -0.35889731
H           1.57275308       -0.68166081        0.35889731
6
MD Time 1250.00
C          -0.70951985        0.00000000       -0.00000000
C           0.70951985       -0.00000000       -0.00000000
H          -1.56221133        0.69634720        0.35999353
H          -1.56221133       -0.69634720       -0.35999353
H           1.56221133        0.69634720       -0.35999353
H           1.56221133       -0.69634720        0.35999353
6
MD Time 1260.00
C          -0.71017395        0.00000000        0.00000000
C           0.71017395       -0.00000000       -0.00000000
H          -1.55005290        0.71195294        0.35986102
H          -1.55005290       -0.71195294       -0.35986102
H           1.55005290        0.71195294       -0.35986102
H           1.55005290       -0.71195294        0.35986102
6
MD Time 1270.00
C          -0.71102828        0.00000000        0.00000000
C           0.71102828       -0.00000000       -0.00000000
H          -1.53629546        0.72831877        0.35850017
H          -1.53629546       -0.72831877       -0.35850017
H           1.53629546        0.72831877       -0.35850017
H           1.53629546       -0.72831877        0.35850017
6
MD Time 1280.00
C          -0.71207054        0.00000000        0.00000000
C           0.71207054       -0.00000000       -0.00000000
H          -1.52096954        0.74529112        0.35592362
H          -1.52096954       -0.74529112       -0.35592362
H           1.52096954        0.74529112       -0.35592362
H           1.52096954       -0.74529112        0.35592362
6
MD Time 1290.00
C          -0.71328496        0.00000000        0.00000000
C           0.71328496       -0.00000000       -0.00000000
H          -1.50411867        0.76272318        0.35215650
H          -1.50411867       -0.76272318       -0.35215650
H           1.50411867        0.76272318       -0.35215650
H           1.50411867       -0.76272318        0.35215650
6
MD Time 1300.00
C          -0.71465239        0.00000000        0.00000000
C           0.71465239       -0.00000000       -0.00000000
H          -1.48579960        0.78047568        0.34723642
H          -1.48579960       -0.78047568       -0.34723642
H           1.48579960        0.78047568       -0.34723642
H           1.48579960       -0.78047568        0.34723642
6
MD Time 1310.00
C          -0.71615042        0.00000000        0.00000000
C           0.71615042       -0.00000000       -0.00000000
H          -1.46608250        0.79841734        0.34121327
H          -1.46608250       -0.79841734       -0.34121327
H           1.46608250        0.79841734       -0.34121327
H           1.46608250       -0.79841734        0.34121327
6
MD Time 1320.00
C          -0.71775349        0.00000000        0.00000000
C           0.71775349       -0.00000000       -0.00000000
H          -1.44505112        0.81642508        0.33414881
H          -1.44505112       -0.81642508       -0.33414881
H           1.44505112        0.81642508       -0.33414881
H           1.44505112       -0.81642508        0.33414881
6
MD Time 1330.00
C          -0.71943299        0.00000000        0.00000000
C           0.71943299       -0.00000000       -0.00000000
H          -1.42280294        0.83438410        0.32611608
H          -1.42280294       -0.83438410       -0.32611608
H           1.42280294        0.83438410       -0.32611608
H           1.42280294       -0.83438410        0.32611608
6
MD Time 1340.00
C          -0.72115743        0.00000000        0.00000000
C           0.72115743       -0.00000000       -0.00000000
H          -1.39944915        0.85218786        0.31719870
H          -1.39944915       -0.85218786       -0.31719870
H           1.39944915        0.85218786       -0.31719870
H           1.39944915       -0.85218786        0.31719870
6
MD Time 1350.00
C          -0.72289260        0.00000000        0.00000000
C           0.72289260       -0.00000000       -0.00000000
H          -1.37511439        0.86973798        0.30748993
H          -1.37511439       -0.86973798       -0.30748993
H           1.37511439        0.86973798       -0.30748993
H           1.37511439       -0.86973798        0.30748993
6
MD Time 1360.00
C          -0.72460179        0.00000000        0.00000000
C           0.72460179       -0.00000000       -0.00000000
H          -1.34993623        0.88694412        0.29709162
H          -1.34993623       -0.88694412       -0.29709162
H           1.34993623        0.88694412       -0.29709162
H           1.34993623       -0.88694412        0.29709162
6
MD Time 1370.00
C          -0.72624606        0.00000000        0.00000000
C           0.72624606       -0.00000000       -0.00000000
H          -1.32406431        0.90372377        0.28611300
H          -1.32406431       -0.90372377       -0.28611300
H           1.32406431        0.90372377       -0.28611300
H           1.32406431       -0.90372377        0.28611300
6
MD Time 1380.00
C          -0.72778463        0.00000000        0.00000000
C           0.72778463       -0.00000000       -0.00000000
H          -1.29765909        0.92000203        0.27466925
H          -1.29765909       -0.92000203       -0.27466925
H           1.29765909        0.92000203       -0.27466925
H           1.29765909       -0.92000203        0.27466925
6
MD Time 1390.00
C          -0.72917528        0.00000000        0.00000000
C           0.72917528       -0.00000000       -0.00000000
H          -1.27089029        0.93571117        0.26288002
H          -1.27089029       -0.93571117       -0.26288002
H           1.27089029        0.93571117       -0.26288002
H           1.27089029       -0.93571117        0.26288002
6
MD Time 1400.00
C          -0.73037485        0.00000000        0.00000000
C           0.73037485       -0.00000000       -0.00000000
H          -1.24393500        0.95079017        0.25086778
H          -1.24393500       -0.95079017       -0.25086778
H           1.24393500        0.95079017       -0.25086778
H           1.24393500       -0.95079017        0.25086778
6
MD Time 1410.00
C          -0.73133984        0.00000000        0.00000000
C           0.73133984       -0.00000000       -0.00000000
H          -1.21697563        0.96518410        0.23875613
H          -1.21697563       -0.96518410       -0.23875613
H           1.21697563        0.96518410       -0.23875613
H           1.21697563       -0.96518410        0.23875613
6
MD Time 1420.00
C          -0.73202699        0.00000000        0.00000000
C           0.73202699       -0.00000000       -0.00000000
H          -1.19019771        0.97884344        0.22666816
H          -1.19019771       -0.97884344       -0.22666816
H           1.19019771        0.97884344       -0.22666816
H           1.19019771       -0.97884344        0.22666816
6
MD Time 1430.00
C          -0.73239389        0.00000000        0.00000000
C           0.73239389       -0.00000000       -0.00000000
H          -1.16378769        0.99172334        0.21472475
H          -1.16378769       -0.99172334       -0.21472475
H           1.16378769        0.99172334       -0.21472475
H           1.16378769       -0.99172334        0.21472475
6
MD Time 1440.00
C          -0.73239967        0.00000000        0.00000000
C           0.73239967       -0.00000000       -0.00000000
H          -1.13793084        1.00378301        0.20304313
H          -1.13793084       -1.00378301       -0.20304313
H           1.13793084        1.00378301       -0.20304313
H           1.13793084       -1.00378301        0.20304313
6
MD Time 1450.00
C          -0.73200556        0.00000000        0.00000000
C           0.73200556       -0.00000000       -0.00000000
H          -1.11280927        1.01498506        0.19173544
H          -1.11280927       -1.01498506       -0.19173544
H           1.11280927        1.01498506       -0.19173544
H           1.11280927       -1.01498506        0.19173544
6
MD Time 1460.00
C          -0.73117553        0.00000000        0.00000000
C           0.73117553       -0.00000000       -0.00000000
H          -1.08860021        1.02529511        0.18090755
H          -1.08860021       -1.02529511       -0.18090755
H           1.08860021        1.02529511       -0.18090755
H           1.08860021       -1.02529511        0.18090755
6
MD Time 1470.00
C          -0.72987680        0.00000000        0.00000000
C           0.72987680       -0.00000000       -0.00000000
H          -1.06547435        1.03468146        0.17065797
H          -1.06547435       -1.03468146       -0.17065797
H           1.06547435        1.03468146       -0.17065797
H           1.06547435       -1.03468146        0.17065797
6
MD Time 1480.00
C          -0.72808039        0.00000000        0.00000000
C           0.72808039       -0.00000000       -0.00000000
H          -1.04359447        1.04311486        0.16107694
H          -1.04359447       -1.04311486       -0.16107694
H           1.04359447        1.04311486       -0.16107694
H           1.04359447       -1.04311486        0.16107694
6
MD Time 1490.00
C          -0.72576156        0.00000000        0.00000000
C           0.72576156       -0.00000000       -0.00000000
H          -1.02311407        1.05056845        0.15224568
H          -1.02311407       -1.05056845       -0.15224568
H           1.02311407        1.05056845       -0.15224568
H           1.02311407       -1.05056845        0.15224568
6
MD Time 1500.00
C          -0.72290022        0.00000000        0.00000000
C           0.72290022       -0.00000000       -0.00000000
H          -1.00417609        1.05701770        0.14423567
H          -1.00417609       -1.05701770       -0.14423567
H           1.00417609        1.05701770       -0.14423567
H           1.00417609       -1.05701770        0.14423567
6
MD Time 1510.00
C          -0.71948136        0.00000000        0.00000000
C           0.71948136       -0.00000000       -0.00000000
H          -0.98691158        1.06244047        0.13710808
H          -0.98691158       -1.06244047       -0.13710808
H           0.98691158        1.06244047       -0.13710808
H           0.98691158       -1.06244047        0.13710808
6
MD Time 1520.00
C          -0.71549538        0.00000000        0.00000000
C           0.71549538       -0.00000000       -0.00000000
H          -0.97143832        1.06681707        0.13091326
H          -0.97143832       -1.06681707       -0.13091326
H           0.97143832        1.06681707       -0.13091326
H           0.97143832       -1.06681707        0.13091326
6
MD Time 1530.00
C          -0.71093852        0.00000000        0.00000000
C           0.71093852       -0.00000000       -0.00000000
H          -0.95785938        1.07013027        0.12569022
H          -0.95785938       -1.07013027       -0.12569022
H           0.95785938        1.07013027       -0.12569022
H           0.95785938       -1.07013027        0.12569022
6
MD Time 1540.00
C          -0.70581321        0.00000000        0.00000000
C           0.70581321       -0.00000000       -0.00000000
H          -0.94626161        1.07236550        0.12146627
H          -0.94626161       -1.07236550       -0.12146627
H           0.94626161        1.07236550       -0.12146627
H           0.94626161       -1.07236550        0.12146627
6
MD Time 1550.00
C          -0.70012849        0.00000000        0.00000000
C           0.70012849       -0.00000000       -0.00000000
H          -0.93671413        1.07351098        0.11825659
H          -0.93671413       -1.07351098       -0.11825659
H           0.93671413        1.07351098       -0.11825659
H           0.93671413       -1.07351098        0.11825659
6
MD Time 1560.00
C          -0.69390054        0.00000000        0.00000000
C           0.69390054       -0.00000000       -0.00000000
H          -0.92926692        1.07355801        0.11606393
H          -0.92926692       -1.07355801       -0.11606393
H           0.92926692        1.07355801       -0.11606393
H           0.92926692       -1.07355801        0.11606393
6
MD Time 1570.00
C          -0.68715313        0.00000000        0.00000000
C           0.68715313       -0.00000000       -0.00000000
H          -0.92394950        1.07250138        0.11487834
H          -0.92394950       -1.07250138       -0.11487834
H           0.92394950        1.07250138       -0.11487834
H           0.92394950       -1.07250138        0.11487834
6
MD Time 1580.00
C          -0.67991829        0.00000000        0.00000000
C           0.67991829       -0.00000000       -0.00000000
H          -0.92076996        1.07033983        0.11467699
H          -0.92076996       -1.07033983       -0.11467699
H           0.92076996        1.07033983       -0.11467699
H           0.92076996       -1.07033983        0.11467699
6
MD Time 1590.00
C          -0.67223693        0.00000000        0.00000000
C           0.67223693       -0.00000000       -0.00000000
H          -0.91971431        1.06707677        0.11542404
H          -0.91971431       -1.06707677       -0.11542404
H           0.91971431        1.06707677       -0.11542404
H           0.91971431       -1.06707677        0.11542404
6
MD Time 1600.00
C          -0.66415952        0.00000000        0.00000000
C           0.66415952       -0.00000000       -0.00000000
H          -0.92074636        1.06272101        0.11707073
H          -0.92074636       -1.06272101       -0.11707073
H           0.92074636        1.06272101       -0.11707073
H           0.92074636       -1.06272101        0.11707073
6
MD Time 1610.00
C          -0.65574677        0.00000000        0.00000000
C           0.65574677       -0.00000000       -0.00000000
H          -0.92380808        1.05728767        0.11955552
H          -0.92380808       -1.05728767       -0.11955552
H           0.92380808        1.05728767       -0.11955552
H           0.92380808       -1.05728767        0.11955552
6
MD Time 1620.00
C          -0.64707031        0.00000000        0.00000000
C           0.64707031       -0.00000000       -0.00000000
H          -0.92882065        1.05079914        0.12280458
H          -0.92882065       -1.05079914       -0.12280458
H           0.92882065        1.05079914       -0.12280458
H           0.92882065       -1.05079914        0.12280458
6
MD Time 1630.00
C          -0.63821311        0.00000000        0.00000000
C           0.63821311       -0.00000000       -0.00000000
H          -0.93568611        1.04328600        0.12673234
H          -0.93568611       -1.04328600       -0.12673234
H           0.93568611        1.04328600       -0.12673234
H           0.93568611       -1.04328600        0.12673234
6
MD Time 1640.00
C          -0.62926984        0.00000000        0.00000000
C           0.62926984       -0.00000000       -0.00000000
H          -0.94428957        1.03478789        0.13124249
H          -0.94428957       -1.03478789       -0.13124249
H           0.94428957        1.03478789       -0.13124249
H           0.94428957       -1.03478789        0.13124249
6
MD Time 1650.00
C          -0.62034677        0.00000000        0.00000000
C           0.62034677       -0.00000000       -0.00000000
H          -0.95450200        1.02535425        0.13622916
H          -0.95450200       -1.02535425       -0.13622916
H           0.95450200        1.02535425       -0.13622916
H           0.95450200       -1.02535425        0.13622916
6
MD Time 1660.00
C          -0.61156129        0.00000000        0.00000000
C           0.61156129       -0.00000000        0.00000000
H          -0.96618333        1.01504478        0.14157845
H          -0.96618333       -1.01504478       -0.14157845
H           0.96618333        1.01504478       -0.14157845
H           0.96618333       -1.01504478        0.14157845
6
MD Time 1670.00
C          -0.60304081        0.00000000        0.00000000
C           0.60304081       -0.00000000        0.00000000
H          -0.97918592        1.00392972        0.14717030
H          -0.97918592       -1.00392972       -0.14717030
H           0.97918592        1.00392972       -0.14717030
H           0.97918592       -1.00392972        0.14717030
6
MD Time 1680.00
C          -0.59492099        0.00000000        0.00000000
C           0.59492099       -0.00000000        0.00000000
H          -0.99335797        0.99208978        0.15288054
H          -0.99335797       -0.99208978       -0.15288054
H           0.99335797        0.99208978       -0.15288054
H           0.99335797       -0.99208978        0.15288054
6
MD Time 1690.00
C          -0.58734308        0.00000000        0.00000000
C           0.58734308       -0.00000000        0.00000000
H          -1.00854692        0.97961590        0.15858329
H          -1.00854692       -0.97961590       -0.15858329
H           1.00854692        0.97961590       -0.15858329
H           1.00854692       -0.97961590        0.15858329
6
MD Time 1700.00
C          -0.58045047        0.00000000        0.00000000
C           0.58045047       -0.00000000        0.00000000
H          -1.02460268        0.96660873        0.16415352
H          -1.02460268       -0.96660873       -0.16415352
H           1.02460268        0.96660873       -0.16415352
H           1.02460268       -0.96660873        0.16415352
6
MD Time 1710.00
C          -0.57438440        0.00000000        0.00000000
C           0.57438440       -0.00000000        0.00000000
H          -1.04138050        0.95317796        0.16946962
H          -1.04138050       -0.95317796       -0.16946962
H           1.04138050        0.95317796       -0.16946962
H           1.04138050       -0.95317796        0.16946962
6
MD Time 1720.00
C          -0.56927892        0.00000000        0.00000000
C           0.56927892       -0.00000000        0.00000000
H          -1.05874351        0.93944155        0.17441612
H          -1.05874351       -0.93944155       -0.17441612
H           1.05874351        0.93944155       -0.17441612
H           1.05874351       -0.93944155        0.17441612
6
MD Time 1730.00
C          -0.56525545        0.00000000       -0.00000000
C           0.56525545       -0.00000000        0.00000000
H          -1.07656490        0.92552478        0.17888627
H          -1.07656490       -0.92552478       -0.17888627
H           1.07656490        0.92552478       -0.17888627
H           1.07656490       -0.92552478        0.17888627
6
MD Time 1740.00
C          -0.56241731        0.00000000       -0.00000000
C           0.56241731       -0.00000000        0.00000000
H          -1.09472979        0.91155918        0.18278434
H          -1.09472979       -0.91155918       -0.18278434
H           1.09472979        0.91155918       -0.18278434
H           1.09472979       -0.91155918        0.18278434
6
MD Time 1750.00
C          -0.56084466        0.00000000       -0.00000000
C           0.56084466       -0.00000000        0.00000000
H          -1.11313668        0.89768123        0.18602773
H          -1.11313668       -0.89768123       -0.18602773
H           1.11313668        0.89768123       -0.18602773
H           1.11313668       -0.89768123        0.18602773
6
MD Time 1760.00
C          -0.56059043        0.00000000       -0.00000000
C           0.56059043       -0.00000000        0.00000000
H          -1.13169849        0.88403084        0.18854853
H          -1.13169849       -0.88403084       -0.18854853
H           1.13169849        0.88403084       -0.18854853
H           1.13169849       -0.88403084        0.18854853
6
MD Time 1770.00
C          -0.56167763        0.00000000       -0.00000000
C           0.56167763       -0.00000000        0.00000000
H          -1.15034323        0.87074945        0.19029466
H          -1.15034323       -0.87074945       -0.19029466
H           1.15034323        0.87074945       -0.19029466
H           1.15034323       -0.87074945        0.19029466
6
MD Time 1780.00
C          -0.56409847        0.00000000       -0.00000000
C           0.56409847       -0.00000000        0.00000000
H          -1.16901404        0.85797783        0.19123038
H          -1.16901404       -0.85797783       -0.19123038
H           1.16901404        0.85797783       -0.19123038
H           1.16901404       -0.85797783        0.19123038
6
MD Time 1790.00
C          -0.56781530        0.00000000       -0.00000000
C           0.56781530       -0.00000000        0.00000000
H          -1.18766870        0.84585354        0.19133627
H          -1.18766870       -0.84585354       -0.19133627
H           1.18766870        0.84585354       -0.19133627
H           1.18766870       -0.84585354        0.19133627
6
MD Time 1800.00
C          -0.57276335        0.00000000       -0.00000000
C           0.57276335       -0.00000000        0.00000000
H          -1.20627844        0.83450806        0.19060860
H          -1.20627844       -0.83450806       -0.19060860
H           1.20627844        0.83450806       -0.19060860
H           1.20627844       -0.83450806        0.19060860
6
MD Time 1810.00
C          -0.57885484        0.00000000       -0.00000000
C           0.57885484       -0.00000000        0.00000000
H          -1.22482608        0.82406380        0.18905827
H          -1.22482608       -0.82406380       -0.18905827
H           1.22482608        0.82406380       -0.18905827
H           1.22482608       -0.82406380        0.18905827
6
MD Time 1820.00
C          -0.58598409        0.00000000       -0.00000000
C           0.58598409       -0.00000000        0.00000000
H          -1.24330358        0.81463092        0.18670927
H          -1.24330358       -0.81463092       -0.18670927
H           1.24330358        0.81463092       -0.18670927
H           1.24330358       -0.81463092        0.18670927
6
MD Time 1830.00
C          -0.59403305        0.00000000       -0.00000000
C           0.59403305       -0.00000000        0.00000000
H          -1.26170902        0.80630428        0.18359694
H          -1.26170902       -0.80630428       -0.18359694
H           1.26170902        0.80630428       -0.18359694
H           1.26170902       -0.80630428        0.18359694
6
MD Time 1840.00
C          -0.60287681       -0.00000000       -0.00000000
C           0.60287681        0.00000000        0.00000000
H          -1.28004329        0.79916052        0.17976600
H          -1.28004329       -0.79916052       -0.17976600
H           1.28004329        0.79916052       -0.17976600
H           1.28004329       -0.79916052        0.17976600
6
MD Time 1850.00
C          -0.61238860       -0.00000000       -0.00000000
C           0.61238860        0.00000000        0.00000000
H          -1.29830662        0.79325554        0.17526861
H          -1.29830662       -0.79325554       -0.17526861
H           1.29830662        0.79325554       -0.17526861
H           1.29830662       -0.79325554        0.17526861
6
MD Time 1860.00
C          -0.62244415       -0.00000000       -0.00000000
C           0.62244415        0.00000000        0.00000000
H          -1.31649528        0.78862250        0.17016252
H          -1.31649528       -0.78862250       -0.17016252
H           1.31649528        0.78862250       -0.17016252
H           1.31649528       -0.78862250        0.17016252
6
MD Time 1870.00
C          -0.63292512       -0.00000000       -0.00000000
C           0.63292512        0.00000000        0.00000000
H          -1.33459865        0.78527049        0.16450940
H          -1.33459865       -0.78527049       -0.16450940
H           1.33459865        0.78527049       -0.16450940
H           1.33459865       -0.78527049        0.16450940
6
MD Time 1880.00
C          -0.64372164       -0.00000000       -0.00000000
C           0.64372164        0.00000000        0.00000000
H          -1.35259687        0.78318399        0.15837346
H          -1.35259687       -0.78318399       -0.15837346
H           1.35259687        0.78318399       -0.15837346
H           1.35259687       -0.78318399        0.15837346
6
MD Time 1890.00
C          -0.65473398       -0.00000000       -0.00000000
C           0.65473398        0.00000000        0.00000000
H          -1.37045933        0.78232321        0.15182041
H          -1.37045933       -0.78232321       -0.15182041
H           1.37045933        0.78232321       -0.15182041
H           1.37045933       -0.78232321        0.15182041
6
MD Time 1900.00
C          -0.66587343       -0.00000000       -0.00000000
C           0.66587343        0.00000000        0.00000000
H          -1.38814399        0.78262537        0.14491666
H          -1.38814399       -0.78262537       -0.14491666
H           1.38814399        0.78262537       -0.14491666
H           1.38814399       -0.78262537        0.14491666
6
MD Time 1910.00
C          -0.67706254       -0.00000000       -0.00000000
C           0.67706254        0.00000000        0.00000000
H          -1.40559757        0.78400670        0.13772885
H          -1.40559757       -0.78400670       -0.13772885
H           1.40559757        0.78400670       -0.13772885
H           1.40559757       -0.78400670        0.13772885
6
MD Time 1920.00
C          -0.68823482       -0.00000000       -0.00000000
C           0.68823482        0.00000000        0.00000000
H          -1.42275658        0.78636525        0.13032356
H          -1.42275658       -0.78636525       -0.13032356
H           1.42275658        0.78636525       -0.13032356
H           1.42275658       -0.78636525        0.13032356
6
MD Time 1930.00
C          -0.69933406       -0.00000000       -0.00000000
C           0.69933406        0.00000000        0.00000000
H          -1.43954901        0.78958424        0.12276716
H          -1.43954901       -0.78958424       -0.12276716
H           1.43954901        0.78958424       -0.12276716
H           1.43954901       -0.78958424        0.12276716
6
MD Time 1940.00
C          -0.71031345       -0.00000000       -0.00000000
C           0.71031345        0.00000000        0.00000000
H          -1.45589655        0.79353570        0.11512578
H          -1.45589655       -0.79353570       -0.11512578
H           1.45589655        0.79353570       -0.11512578
H           1.45589655       -0.79353570        0.11512578
6
MD Time 1950.00
C          -0.72113447       -0.00000000       -0.00000000
C           0.72113447        0.00000000        0.00000000
H          -1.47171701        0.79808433        0.10746527
H          -1.47171701       -0.79808433       -0.10746527
H           1.47171701        0.79808433       -0.10746527
H           1.47171701       -0.79808433        0.10746527
6
MD Time 1960.00
C          -0.73176578       -0.00000000       -0.00000000
C           0.73176578        0.00000000        0.00000000
H          -1.48692694        0.80309124        0.09985110
H          -1.48692694       -0.80309124       -0.09985110
H           1.48692694        0.80309124       -0.09985110
H           1.48692694       -0.80309124        0.09985110
6
MD Time 1970.00
C          -0.74218211       -0.00000000       -0.00000000
C           0.74218211        0.00000000        0.00000000
H          -1.50144411        0.80841753        0.09234832
H          -1.50144411       -0.80841753       -0.09234832
H           1.50144411        0.80841753       -0.09234832
H           1.50144411       -0.80841753        0.09234832
6
MD Time 1980.00
C          -0.75236320       -0.00000000       -0.00000000
C           0.75236320        0.00000000        0.00000000
H          -1.51518986        0.81392749        0.08502137
H          -1.51518986       -0.81392749       -0.08502137
H           1.51518986        0.81392749       -0.08502137
H           1.51518986       -0.81392749        0.08502137
6
MD Time 1990.00
C          -0.76229285       -0.00000000       -0.00000000
C           0.76229285        0.00000000        0.00000000
H          -1.52809110        0.81949144        0.07793387
H          -1.52809110       -0.81949144       -0.07793387
H           1.52809110        0.81949144       -0.07793387
H           1.52809110       -0.81949144        0.07793387
6
MD Time 2000.00
C          -0.77195801       -0.00000000       -0.00000000
C           0.77195801        0.00000000        0.00000000
H          -1.54008203        0.82498805        0.07114840
H          -1.54008203       -0.82498805       -0.07114840
H           1.54008203        0.82498805       -0.07114840
H           1.54008203       -0.82498805        0.07114840
6
MD Time 2010.00
C          -0.78134812       -0.00000000       -0.00000000
C           0.78134812        0.00000000        0.00000000
H          -1.55110551        0.83030628        0.06472622
H          -1.55110551       -0.83030628       -0.06472622
H           1.55110551        0.83030628       -0.06472622
H           1.55110551       -0.83030628        0.06472622
6
MD Time 2020.00
C          -0.79045438       -0.00000000       -0.00000000
C           0.79045438        0.00000000        0.00000000
H          -1.56111411        0.83534691        0.05872700
H          -1.56111411       -0.83534691       -0.05872700
H           1.56111411        0.83534691       -0.05872700
H           1.56111411       -0.83534691        0.05872700
6
MD Time 2030.00
C          -0.79926927       -0.00000000       -0.00000000
C           0.79926927        0.00000000        0.00000000
H          -1.57007089        0.84002363        0.05320859
H          -1.57007089       -0.84002363       -0.05320859
H           1.57007089        0.84002363       -0.05320859
H           1.57007089       -0.84002363        0.05320859
6
MD Time 2040.00
C          -0.80778608       -0.00000000       -0.00000000
C           0.80778608        0.00000000        0.00000000
H          -1.57794986        0.84426390        0.04822671
H          -1.57794986       -0.84426390       -0.04822671
H           1.57794986        0.84426390       -0.04822671
H           1.57794986       -0.84426390        0.04822671
6
MD Time 2050.00
C          -0.81599854       -0.00000000       -0.00000000
C           0.81599854        0.00000000        0.00000000
H          -1.58473635        0.84800953        0.04383480
H          -1.58473635       -0.84800953       -0.04383480
H           1.58473635        0.84800953       -0.04383480
H           1.58473635       -0.84800953        0.04383480
6
MD Time 2060.00
C          -0.82390054       -0.00000000       -0.00000000
C           0.82390054        0.00000000        0.00000000
H          -1.59042708        0.85121702        0.04008376
H          -1.59042708       -0.85121702       -0.04008376
H           1.59042708        0.85121702       -0.04008376
H           1.59042708       -0.85121702        0.04008376
6
MD Time 2070.00
C          -0.83148585       -0.00000000       -0.00000000
C           0.83148585        0.00000000        0.00000000
H          -1.59503018        0.85385776        0.03702181
H          -1.59503018       -0.85385776       -0.03702181
H           1.59503018        0.85385776       -0.03702181
H           1.59503018       -0.85385776        0.03702181
6
MD Time 2080.00
C          -0.83874795       -0.00000000       -0.00000000
C           0.83874795        0.00000000        0.00000000
H          -1.59856504        0.85591812        0.03469431
H          -1.59856504       -0.85591812       -0.03469431
H           1.59856504        0.85591812       -0.03469431
H           1.59856504       -0.85591812        0.03469431
6
MD Time 2090.00
C          -0.84567992       -0.00000000       -0.00000000
C           0.84567992        0.00000000        0.00000000
H          -1.60106202        0.85739935        0.03314365
H          -1.60106202       -0.85739935       -0.03314365
H           1.60106202        0.85739935       -0.03314365
H           1.60106202       -0.85739935        0.03314365
6
MD Time 2100.00
C          -0.85227429       -0.00000000       -0.00000000
C           0.85227429        0.00000000        0.00000000
H          -1.60256214        0.85831739        0.03240910
H          -1.60256214       -0.85831739       -0.03240910
H           1.60256214        0.85831739       -0.03240910
H           1.60256214       -0.85831739        0.03240910
6
MD Time 2110.00
C          -0.85852300       -0.00000000       -0.00000000
C           0.85852300        0.00000000        0.00000000
H          -1.60311648        0.85870258        0.03252673
H          -1.60311648       -0.85870258       -0.03252673
H           1.60311648        0.85870258       -0.03252673
H           1.60311648       -0.85870258        0.03252673
6
MD Time 2120.00
C          -0.86441744       -0.00000000       -0.00000000
C           0.86441744        0.00000000        0.00000000
H          -1.60278554        0.85859911        0.03352927
H          -1.60278554       -0.85859911       -0.03352927
H           1.60278554        0.85859911       -0.03352927
H           1.60278554       -0.85859911        0.03352927
6
MD Time 2130.00
C          -0.86994842       -0.00000000       -0.00000000
C           0.86994842        0.00000000        0.00000000
H          -1.60163833        0.85806427        0.03544602
H          -1.60163833       -0.85806427       -0.03544602
H           1.60163833        0.85806427       -0.03544602
H           1.60163833       -0.85806427        0.03544602
6
MD Time 2140.00
C          -0.87510632       -0.00000000       -0.00000000
C           0.87510632        0.00000000        0.00000000
H          -1.59975130        0.85716749        0.03830271
H          -1.59975130       -0.85716749       -0.03830271
H           1.59975130        0.85716749       -0.03830271
H           1.59975130       -0.85716749        0.03830271
6
MD Time 2150.00
C          -0.87988121       -0.00000000       -0.00000000
C           0.87988121        0.00000000        0.00000000
H          -1.59720688        0.85598895        0.04212136
H          -1.59720688       -0.85598895       -0.04212136
H           1.59720688        0.85598895       -0.04212136
H           1.59720688       -0.85598895        0.04212136
6
MD Time 2160.00
C          -0.88426306       -0.00000000       -0.00000000
C           0.88426306        0.00000000        0.00000000
H          -1.59409184        0.85461783        0.04692014
H          -1.59409184       -0.85461783       -0.04692014
H           1.59409184        0.85461783       -0.04692014
H           1.59409184       -0.85461783        0.04692014
6
MD Time 2170.00
C          -0.88824203       -0.00000000       -0.00000000
C           0.88824203        0.00000000        0.00000000
H          -1.59049526        0.85315011        0.05271309
H          -1.59049526       -0.85315011       -0.05271309
H           1.59049526        0.85315011       -0.05271309
H           1.59049526       -0.85315011        0.05271309
6
MD Time 2180.00
C          -0.89180877       -0.00000000       -0.00000000
C           0.89180877        0.00000000        0.00000000
H          -1.58650620        0.85168590        0.05950988
H          -1.58650620       -0.85168590       -0.05950988
H           1.58650620        0.85168590       -0.05950988
H           1.58650620       -0.85168590        0.05950988
6
MD Time 2190.00
C          -0.89495481       -0.00000000       -0.00000000
C           0.89495481        0.00000000        0.00000000
H          -1.58221108        0.85032632        0.06731543
H          -1.58221108       -0.85032632       -0.06731543
H           1.58221108        0.85032632       -0.06731543
H           1.58221108       -0.85032632        0.06731543
6
MD Time 2200.00
C          -0.89767297       -0.00000000       -0.00000000
C           0.89767297        0.00000000        0.00000000
H          -1.57769093        0.84916992        0.07612943
H          -1.57769093       -0.84916992       -0.07612943
H           1.57769093        0.84916992       -0.07612943
H           1.57769093       -0.84916992        0.07612943
6
MD Time 2210.00
C          -0.89995773       -0.00000000       -0.00000000
C           0.89995773        0.00000000        0.00000000
H          -1.57301843        0.84830893        0.08594576
H          -1.57301843       -0.84830893       -0.08594576
H           1.57301843        0.84830893       -0.08594576
H           1.57301843       -0.84830893        0.08594576
6
MD Time 2220.00
C          -0.90180569       -0.00000000       -0.00000000
C           0.90180569        0.00000000       -0.00000000
H          -1.56825521        0.84782527        0.09675178
H          -1.56825521       -0.84782527       -0.09675178
H           1.56825521        0.84782527       -0.09675178
H           1.56825521       -0.84782527        0.09675178
6
MD Time 2230.00
C          -0.90321589       -0.00000000        0.00000000
C           0.90321589        0.00000000       -0.00000000
H          -1.56344926        0.84778683        0.10852751
H          -1.56344926       -0.84778683       -0.10852751
H           1.56344926        0.84778683       -0.10852751
H           1.56344926       -0.84778683        0.10852751
6
MD Time 2240.00
C          -0.90419007       -0.00000000        0.00000000
C           0.90419007        0.00000000       -0.00000000
H          -1.55863288        0.84824407        0.12124479
H          -1.55863288       -0.84824407       -0.12124479
H           1.55863288        0.84824407       -0.12124479
H           1.55863288       -0.84824407        0.12124479
6
MD Time 2250.00
C          -0.90473284       -0.00000000        0.00000000
C           0.90473284        0.00000000       -0.00000000
H          -1.55382135        0.84922728        0.13486641
H          -1.55382135       -0.84922728       -0.13486641
H           1.55382135        0.84922728       -0.13486641
H           1.55382135       -0.84922728        0.13486641
6
MD Time 2260.00
C          -0.90485168       -0.00000000        0.00000000
C           0.90485168        0.00000000       -0.00000000
H          -1.54901228        0.85074480        0.14934525
H          -1.54901228       -0.85074480       -0.14934525
H           1.54901228        0.85074480       -0.14934525
H           1.54901228       -0.85074480        0.14934525
6
MD Time 2270.00
C          -0.90455683       -0.00000000        0.00000000
C           0.90455683        0.00000000       -0.00000000
H          -1.54418600        0.85278233        0.16462373
H          -1.54418600       -0.85278233       -0.16462373
H           1.54418600        0.85278233       -0.16462373
H           1.54418600       -0.85278233        0.16462373
6
MD Time 2280.00
C          -0.90386101       -0.00000000        0.00000000
C           0.90386101        0.00000000       -0.00000000
H          -1.53930673        0.85530339        0.18063339
H          -1.53930673       -0.85530339       -0.18063339
H           1.53930673        0.85530339       -0.18063339
H           1.53930673       -0.85530339        0.18063339
6
MD Time 2290.00
C          -0.90277902       -0.00000000        0.00000000
C           0.90277902        0.00000000       -0.00000000
H          -1.53432464        0.85825090        0.19729489
H          -1.53432464       -0.85825090       -0.19729489
H           1.53432464        0.85825090       -0.19729489
H           1.53432464       -0.85825090        0.19729489
6
MD Time 2300.00
C          -0.90132724       -0.00000000        0.00000000
C           0.90132724        0.00000000       -0.00000000
H          -1.52917856        0.86154982        0.21451833
H          -1.52917856       -0.86154982       -0.21451833
H           1.52917856        0.86154982       -0.21451833
H           1.52917856       -0.86154982        0.21451833
6
MD Time 2310.00
C          -0.89952307       -0.00000000        0.00000000
C           0.89952307        0.00000000       -0.00000000
H          -1.52379915        0.86511052        0.23220405
H          -1.52379915       -0.86511052       -0.23220405
H           1.52379915        0.86511052       -0.23220405
H           1.52379915       -0.86511052        0.23220405
6
MD Time 2320.00
C          -0.89738436       -0.00000000        0.00000000
C           0.89738436        0.00000000       -0.00000000
H          -1.51811227        0.86883277        0.25024377
H          -1.51811227       -0.86883277       -0.25024377
H           1.51811227        0.86883277       -0.25024377
H           1.51811227       -0.86883277        0.25024377
6
MD Time 2330.00
C          -0.89492885       -0.00000000        0.00000000
C           0.89492885        0.00000000       -0.00000000
H          -1.51204235        0.87260979        0.26852199
H          -1.51204235       -0.87260979       -0.26852199
H           1.51204235        0.87260979       -0.26852199
H           1.51204235       -0.87260979        0.26852199
6
MD Time 2340.00
C          -0.89217365       -0.00000000        0.00000000
C           0.89217365        0.00000000       -0.00000000
H          -1.50551566        0.87633249        0.28691773
H          -1.50551566       -0.87633249       -0.28691773
H           1.50551566        0.87633249       -0.28691773
H           1.50551566       -0.87633249        0.28691773
6
MD Time 2350.00
C          -0.88913481       -0.00000000        0.00000000
C           0.88913481        0.00000000       -0.00000000
H          -1.49846308        0.87989325        0.30530637
H          -1.49846308       -0.87989325       -0.30530637
H           1.49846308        0.87989325       -0.30530637
H           1.49846308       -0.87989325        0.30530637
6
MD Time 2360.00
C          -0.88582694       -0.00000000        0.00000000
C           0.88582694        0.00000000       -0.00000000
H          -1.49082258        0.88318950        0.32356148
H          -1.49082258       -0.88318950       -0.32356148
H           1.49082258        0.88318950       -0.32356148
H           1.49082258       -0.88318950        0.32356148
6
MD Time 2370.00
C          -0.88226296       -0.00000000        0.00000000
C           0.88226296        0.00000000       -0.00000000
H          -1.48254115        0.88612667        0.34155672
H          -1.48254115       -0.88612667       -0.34155672
H           1.48254115        0.88612667       -0.34155672
H           1.48254115       -0.88612667        0.34155672
6
MD Time 2380.00
C          -0.87845390       -0.00000000        0.00000000
C           0.87845390        0.00000000       -0.00000000
H          -1.47357629        0.88862070        0.35916761
H          -1.47357629       -0.88862070       -0.35916761
H           1.47357629        0.88862070       -0.35916761
H           1.47357629       -0.88862070        0.35916761
6
MD Time 2390.00
C          -0.87440885       -0.00000000        0.00000000
C           0.87440885        0.00000000       -0.00000000
H          -1.46389702        0.89060004        0.37627314
H          -1.46389702       -0.89060004       -0.37627314
H           1.46389702        0.89060004       -0.37627314
H           1.46389702       -0.89060004        0.37627314
6
MD Time 2400.00
C          -0.87013482       -0.00000000        0.00000000
C           0.87013482        0.00000000       -0.00000000
H          -1.45348457        0.89200712        0.39275725
H          -1.45348457       -0.89200712       -0.39275725
H           1.45348457        0.89200712       -0.39275725
H           1.45348457       -0.89200712        0.39275725
6
MD Time 2410.00
C          -0.86563688       -0.00000000        0.00000000
C           0.86563688        0.00000000       -0.00000000
H          -1.44233264        0.89279951        0.40851018
H          -1.44233264       -0.89279951       -0.40851018
H           1.44233264        0.89279951       -0.40851018
H           1.44233264       -0.89279951        0.40851018
6
MD Time 2420.00
C          -0.86091812       -0.00000000        0.00000000
C           0.86091812        0.00000000       -0.00000000
H          -1.43044755        0.89295067        0.42342956
H          -1.43044755       -0.89295067       -0.42342956
H           1.43044755        0.89295067       -0.42342956
H           1.43044755       -0.89295067        0.42342956
6
MD Time 2430.00
C          -0.85597980       -0.00000000        0.00000000
C           0.85597980        0.00000000       -0.00000000
H          -1.41784806        0.89245046        0.43742148
H          -1.41784806       -0.89245046       -0.43742148
H           1.41784806        0.89245046       -0.43742148
H           1.41784806       -0.89245046        0.43742148
6
MD Time 2440.00
C          -0.85082147       -0.00000000        0.00000000
C           0.85082147        0.00000000       -0.00000000
H          -1.40456507        0.89130543        0.45040131
H          -1.40456507       -0.89130543       -0.45040131
H           1.40456507        0.89130543       -0.45040131
H           1.40456507       -0.89130543        0.45040131
6
MD Time 2450.00
C          -0.84544109       -0.00000000        0.00000000
C           0.84544109        0.00000000       -0.00000000
H          -1.39064121        0.88953888        0.46229447
H          -1.39064121       -0.88953888       -0.46229447
H           1.39064121        0.88953888       -0.46229447
H           1.39064121       -0.88953888        0.46229447
6
MD Time 2460.00
C          -0.83983520        0.00000000        0.00000000
C           0.83983520       -0.00000000       -0.00000000
H          -1.37613035        0.88719076        0.47303707
H          -1.37613035       -0.88719076       -0.47303707
H           1.37613035        0.88719076       -0.47303707
H           1.37613035       -0.88719076        0.47303707
6
MD Time 2470.00
C          -0.83399912        0.00000000        0.00000000
C           0.83399912       -0.00000000       -0.00000000
H          -1.36109694        0.88431750        0.48257645
H          -1.36109694       -0.88431750       -0.48257645
H           1.36109694        0.88431750       -0.48257645
H           1.36109694       -0.88431750        0.48257645
6
MD Time 2480.00
C          -0.82792712        0.00000000        0.00000000
C           0.82792712       -0.00000000       -0.00000000
H          -1.34561532        0.88099150        0.49087153
H          -1.34561532       -0.88099150       -0.49087153
H           1.34561532        0.88099150       -0.49087153
H           1.34561532       -0.88099150        0.49087153
6
MD Time 2490.00
C          -0.82161269        0.00000000        0.00000000
C           0.82161269       -0.00000000       -0.00000000
H          -1.32976884        0.87730050        0.49789315
H          -1.32976884       -0.87730050       -0.49789315
H           1.32976884        0.87730050       -0.49789315
H           1.32976884       -0.87730050        0.49789315
6
MD Time 2500.00
C          -0.81504874        0.00000000        0.00000000
C           0.81504874       -0.00000000       -0.00000000
H          -1.31364893        0.87334667        0.50362411
H          -1.31364893       -0.87334667       -0.50362411
H           1.31364893        0.87334667       -0.50362411
H           1.31364893       -0.87334667        0.50362411
6
MD Time 2510.00
C          -0.80822797        0.00000000        0.00000000
C           0.80822797       -0.00000000       -0.00000000
H          -1.29735388        0.86924531        0.50805910
H          -1.29735388       -0.86924531       -0.50805910
H           1.29735388        0.86924531       -0.50805910
H           1.29735388       -0.86924531        0.50805910
6
MD Time 2520.00
C          -0.80114316        0.00000000        0.00000000
C           0.80114316       -0.00000000       -0.00000000
H          -1.28098746        0.86512320        0.51120431
H          -1.28098746       -0.86512320       -0.51120431
H           1.28098746        0.86512320       -0.51120431
H           1.28098746       -0.86512320        0.51120431
6
MD Time 2530.00
C          -0.79378760        0.00000000        0.00000000
C           0.79378760       -0.00000000       -0.00000000
H          -1.26465732        0.86111640        0.51307680
H          -1.26465732       -0.86111640       -0.51307680
H           1.26465732        0.86111640       -0.51307680
H           1.26465732       -0.86111640        0.51307680
6
MD Time 2540.00
C          -0.78615555        0.00000000        0.00000000
C           0.78615555       -0.00000000       -0.00000000
H          -1.24847310        0.85736756        0.51370344
H          -1.24847310       -0.85736756       -0.51370344
H           1.24847310        0.85736756       -0.51370344
H           1.24847310       -0.85736756        0.51370344
6
MD Time 2550.00
C          -0.77824280        0.00000000        0.00000000
C           0.77824280       -0.00000000       -0.00000000
H          -1.23254422        0.85402256        0.51311954
H          -1.23254422       -0.85402256       -0.51311954
H           1.23254422        0.85402256       -0.51311954
H           1.23254422       -0.85402256        0.51311954
6
MD Time 2560.00
C          -0.77004723        0.00000000        0.00000000
C           0.77004723       -0.00000000       -0.00000000
H          -1.21697754        0.85122661        0.51136708
H          -1.21697754       -0.85122661       -0.51136708
H           1.21697754        0.85122661       -0.51136708
H           1.21697754       -0.85122661        0.51136708
6
MD Time 2570.00
C          -0.76156948        0.00000000        0.00000000
C           0.76156948       -0.00000000       -0.00000000
H          -1.20187472        0.84911977        0.50849251
H          -1.20187472       -0.84911977       -0.50849251
H           1.20187472        0.84911977       -0.50849251
H           1.20187472       -0.84911977        0.50849251
6
MD Time 2580.00
C          -0.75281370        0.00000000        0.00000000
C           0.75281370       -0.00000000       -0.00000000
H          -1.18732951        0.84783206        0.50454440
H          -1.18732951       -0.84783206       -0.50454440
H           1.18732951        0.84783206       -0.50454440
H           1.18732951       -0.84783206        0.50454440
6
MD Time 2590.00
C          -0.74378825        0.00000000        0.00000000
C           0.74378825       -0.00000000       -0.00000000
H          -1.17342508        0.84747836        0.49957075
H          -1.17342508       -0.84747836       -0.49957075
H           1.17342508        0.84747836       -0.49957075
H           1.17342508       -0.84747836        0.49957075
6
MD Time 2600.00
C          -0.73450647        0.00000000        0.00000000
C           0.73450647       -0.00000000       -0.00000000
H          -1.16023150        0.84815329        0.49361646
H          -1.16023150       -0.84815329       -0.49361646
H           1.16023150        0.84815329       -0.49361646
H           1.16023150       -0.84815329        0.49361646
6
MD Time 2610.00
C          -0.72498741        0.00000000        0.00000000
C           0.72498741       -0.00000000       -0.00000000
H          -1.14780357        0.84992654        0.48672092
H          -1.14780357       -0.84992654       -0.48672092
H           1.14780357        0.84992654       -0.48672092
H           1.14780357       -0.84992654        0.48672092
6
MD Time 2620.00
C          -0.71525650        0.00000000        0.00000000
C           0.71525650       -0.00000000       -0.00000000
H          -1.13617920        0.85283891        0.47891599
H          -1.13617920       -0.85283891       -0.47891599
H           1.13617920        0.85283891       -0.47891599
H           1.13617920       -0.85283891        0.47891599
6
MD Time 2630.00
C          -0.70534616        0.00000000        0.00000000
C           0.70534616       -0.00000000       -0.00000000
H          -1.12537847        0.85689938        0.47022464
H          -1.12537847       -0.85689938       -0.47022464
H           1.12537847        0.85689938       -0.47022464
H           1.12537847       -0.85689938        0.47022464
6
MD Time 2640.00
C          -0.69529622        0.00000000        0.00000000
C           0.69529622       -0.00000000       -0.00000000
H          -1.11540345        0.86208360        0.46066028
H          -1.11540345       -0.86208360       -0.46066028
H           1.11540345        0.86208360       -0.46066028
H           1.11540345       -0.86208360        0.46066028
6
MD Time 2650.00
C          -0.68515430        0.00000000        0.00000000
C           0.68515430       -0.00000000       -0.00000000
H          -1.10623898        0.86833381        0.45022694
H          -1.10623898       -0.86833381       -0.45022694
H           1.10623898        0.86833381       -0.45022694
H           1.10623898       -0.86833381        0.45022694
6
MD Time 2660.00
C          -0.67497597        0.00000000        0.00000000
C           0.67497597       -0.00000000       -0.00000000
H          -1.09785411        0.87556043        0.43892019
H          -1.09785411       -0.87556043       -0.43892019
H           1.09785411        0.87556043       -0.43892019
H           1.09785411       -0.87556043        0.43892019
6
MD Time 2670.00
C          -0.66482468        0.00000000        0.00000000
C           0.66482468       -0.00000000       -0.00000000
H          -1.09020444        0.88364494        0.42672884
H          -1.09020444       -0.88364494       -0.42672884
H           1.09020444        0.88364494       -0.42672884
H           1.09020444       -0.88364494        0.42672884
6
MD Time 2680.00
C          -0.65477158        0.00000000        0.00000000
C           0.65477158       -0.00000000       -0.00000000
H          -1.08323494        0.89244407        0.41363706
H          -1.08323494       -0.89244407       -0.41363706
H           1.08323494        0.89244407       -0.41363706
H           1.08323494       -0.89244407        0.41363706
6
MD Time 2690.00
C          -0.64489504        0.00000000        0.00000000
C           0.64489504       -0.00000000       -0.00000000
H          -1.07688319        0.90179484        0.39962698
H          -1.07688319       -0.90179484       -0.39962698
H           1.07688319        0.90179484       -0.39962698
H           1.07688319       -0.90179484        0.39962698
6
MD Time 2700.00
C          -0.63527986        0.00000000        0.00000000
C           0.63527986       -0.00000000       -0.00000000
H          -1.07108279        0.91152006        0.38468135
H          -1.07108279       -0.91152006       -0.38468135
H           1.07108279        0.91152006       -0.38468135
H           1.07108279       -0.91152006        0.38468135
6
MD Time 2710.00
C          -0.62601629        0.00000000        0.00000000
C           0.62601629       -0.00000000       -0.00000000
H          -1.06576684        0.92143404        0.36878624
H          -1.06576684       -0.92143404       -0.36878624
H           1.06576684        0.92143404       -0.36878624
H           1.06576684       -0.92143404        0.36878624
6
MD Time 2720.00
C          -0.61719850        0.00000000        0.00000000
C           0.61719850       -0.00000000       -0.00000000
H          -1.06087114        0.93134814        0.35193353
H          -1.06087114       -0.93134814       -0.35193353
H           1.06087114        0.93134814       -0.35193353
H           1.06087114       -0.93134814        0.35193353
6
MD Time 2730.00
C          -0.60892283        0.00000000        0.00000000
C           0.60892283       -0.00000000       -0.00000000
H          -1.05633722        0.94107596        0.33412324
H          -1.05633722       -0.94107596       -0.33412324
H           1.05633722        0.94107596       -0.33412324
H           1.05633722       -0.94107596        0.33412324
6
MD Time 2740.00
C          -0.60128542        0.00000000        0.00000000
C           0.60128542       -0.00000000       -0.00000000
H          -1.05211496        0.95043799        0.31536538
H          -1.05211496       -0.95043799       -0.31536538
H           1.05211496        0.95043799       -0.31536538
H           1.05211496       -0.95043799        0.31536538
6
MD Time 2750.00
C          -0.59437956        0.00000000        0.00000000
C           0.59437956       -0.00000000       -0.00000000
H          -1.04816484        0.95926572        0.29568165
H          -1.04816484       -0.95926572       -0.29568165
H           1.04816484        0.95926572       -0.29568165
H           1.04816484       -0.95926572        0.29568165
6
MD Time 2760.00
C          -0.58829251        0.00000000       -0.00000000
C           0.58829251       -0.00000000       -0.00000000
H          -1.04445976        0.96740521        0.27510666
H          -1.04445976       -0.96740521       -0.27510666
H           1.04445976        0.96740521       -0.27510666
H           1.04445976       -0.96740521        0.27510666
6
MD Time 2770.00
C          -0.58310218        0.00000000       -0.00000000
C           0.58310218       -0.00000000       -0.00000000
H          -1.04098653        0.97472010        0.25368882
H          -1.04098653       -0.97472010       -0.25368882
H           1.04098653        0.97472010       -0.25368882
H           1.04098653       -0.97472010        0.25368882
6
MD Time 2780.00
C          -0.57887366        0.00000000       -0.00000000
C           0.57887366       -0.00000000       -0.00000000
H          -1.03774694        0.98109420        0.23149086
H          -1.03774694       -0.98109420       -0.23149086
H           1.03774694        0.98109420       -0.23149086
H           1.03774694       -0.98109420        0.23149086
6
MD Time 2790.00
C          -0.57565589        0.00000000       -0.00000000
C           0.57565589       -0.00000000       -0.00000000
H          -1.03475859        0.98643371        0.20858997
H          -1.03475859       -0.98643371       -0.20858997
H           1.03475859        0.98643371       -0.20858997
H           1.03475859       -0.98643371        0.20858997
6
MD Time 2800.00
C          -0.57347879        0.00000000       -0.00000000
C           0.57347879       -0.00000000       -0.00000000
H          -1.03205529        0.99066904        0.18507757
H          -1.03205529       -0.99066904       -0.18507757
H           1.03205529        0.99066904       -0.18507757
H           1.03205529       -0.99066904        0.18507757
6
MD Time 2810.00
C          -0.57235111        0.00000000       -0.00000000
C           0.57235111       -0.00000000        0.00000000
H          -1.02968721        0.99375635        0.16105857
H          -1.02968721       -0.99375635       -0.16105857
H           1.02968721        0.99375635       -0.16105857
H           1.02968721       -0.99375635        0.16105857
6
MD Time 2820.00
C          -0.57225914        0.00000000       -0.00000000
C           0.57225914       -0.00000000        0.00000000
H          -1.02772066        0.99567861        0.13665029
H          -1.02772066       -0.99567861       -0.13665029
H           1.02772066        0.99567861       -0.13665029
H           1.02772066       -0.99567861        0.13665029
6
MD Time 2830.00
C          -0.57316661        0.00000000       -0.00000000
C           0.57316661       -0.00000000        0.00000000
H          -1.02623748        0.99644627        0.11198088
H          -1.02623748       -0.99644627       -0.11198088
H           1.02623748        0.99644627       -0.11198088
H           1.02623748       -0.99644627        0.11198088
6
MD Time 2840.00
C          -0.57501561        0.00000000       -0.00000000
C           0.57501561       -0.00000000        0.00000000
H          -1.02533395        0.99609721        0.08718734
H          -1.02533395       -0.99609721       -0.08718734
H           1.02533395        0.99609721       -0.08718734
H           1.02533395       -0.99609721        0.08718734
6
MD Time 2850.00
C          -0.57772871        0.00000000       -0.00000000
C           0.57772871       -0.00000000        0.00000000
H          -1.02511927        0.99469597        0.06241314
H          -1.02511927       -0.99469597       -0.06241314
H           1.02511927        0.99469597       -0.06241314
H           1.02511927       -0.99469597        0.06241314
6
MD Time 2860.00
C          -0.58121187        0.00000000       -0.00000000
C           0.58121187       -0.00000000        0.00000000
H          -1.02571333        0.99233198        0.03780548
H          -1.02571333       -0.99233198       -0.03780548
H           1.02571333        0.99233198       -0.03780548
H           1.02571333       -0.99233198        0.03780548
6
MD Time 2870.00
C          -0.58535806        0.00000000       -0.00000000
C           0.58535806       -0.00000000        0.00000000
H          -1.02724395        0.98911665        0.01351248
H          -1.02724395       -0.98911665       -0.01351248
H           1.02724395        0.98911665       -0.01351248
H           1.02724395       -0.98911665        0.01351248
6
MD Time 2880.00
C          -0.59005124        0.00000000       -0.00000000
C           0.59005124       -0.00000000        0.00000000
H          -1.02984345        0.98517925       -0.01031979
H          -1.02984345       -0.98517925        0.01031979
H           1.02984345        0.98517925        0.01031979
H           1.02984345       -0.98517925       -0.01031979
6
MD Time 2890.00
C          -0.59517048        0.00000000       -0.00000000
C           0.59517048       -0.00000000        0.00000000
H          -1.03364457        0.98066153       -0.03355013
H          -1.03364457       -0.98066153        0.03355013
H           1.03364457        0.98066153        0.03355013
H           1.03364457       -0.98066153       -0.03355013
6
MD Time 2900.00
C          -0.60059390        0.00000000       -0.00000000
C           0.60059390       -0.00000000        0.00000000
H          -1.03877590        0.97571124       -0.05604457
H          -1.03877590       -0.97571124        0.05604457
H           1.03877590        0.97571124        0.05604457
H           1.03877590       -0.97571124       -0.05604457
6
MD Time 2910.00
C          -0.60620237        0.00000000       -0.00000000
C           0.60620237       -0.00000000        0.00000000
H          -1.04535689        0.97047479       -0.07767841
H          -1.04535689       -0.97047479        0.07767841
H           1.04535689        0.97047479        0.07767841
H           1.04535689       -0.97047479       -0.07767841
6
MD Time 2920.00
C          -0.61188267        0.00000000       -0.00000000
C           0.61188267       -0.00000000        0.00000000
H          -1.05349263        0.96508949       -0.09833744
H          -1.05349263       -0.96508949        0.09833744
H           1.05349263        0.96508949        0.09833744
H           1.05349263       -0.96508949       -0.09833744
6
MD Time 2930.00
C          -0.61753025        0.00000000       -0.00000000
C           0.61753025       -0.00000000        0.00000000
H          -1.06326876        0.95967596       -0.11791861
H          -1.06326876       -0.95967596        0.11791861
H           1.06326876        0.95967596        0.11791861
H           1.06326876       -0.95967596       -0.11791861
6
MD Time 2940.00
C          -0.62305129        0.00000000       -0.00000000
C           0.62305129       -0.00000000        0.00000000
H          -1.07474664        0.95433131       -0.13632988
H          -1.07474664       -0.95433131        0.13632988
H           1.07474664        0.95433131        0.13632988
H           1.07474664       -0.95433131       -0.13632988
6
MD Time 2950.00
C          -0.62836434        0.00000000       -0.00000000
C           0.62836434       -0.00000000        0.00000000
H          -1.08795917        0.94912370       -0.15348961
H          -1.08795917       -0.94912370        0.15348961
H           1.08795917        0.94912370        0.15348961
H           1.08795917       -0.94912370       -0.15348961
6
MD Time 2960.00
C          -0.63340129        0.00000000       -0.00000000
C           0.63340129       -0.00000000        0.00000000
H          -1.10290750        0.94408881       -0.16932558
H          -1.10290750       -0.94408881        0.16932558
H           1.10290750        0.94408881        0.16932558
H           1.10290750       -0.94408881       -0.16932558
6
MD Time 2970.00
C          -0.63810794        0.00000000       -0.00000000
C           0.63810794       -0.00000000        0.00000000
H          -1.11955887        0.93922856       -0.18377377
H          -1.11955887       -0.93922856        0.18377377
H           1.11955887        0.93922856        0.18377377
H           1.11955887       -0.93922856       -0.18377377
6
MD Time 2980.00
C          -0.64244400        0.00000000       -0.00000000
C           0.64244400       -0.00000000        0.00000000
H          -1.13784568        0.93451217       -0.19677734
H          -1.13784568       -0.93451217        0.19677734
H           1.13784568        0.93451217        0.19677734
H           1.13784568       -0.93451217       -0.19677734
6
MD Time 2990.00
C          -0.64638273        0.00000000       -0.00000000
C           0.64638273       -0.00000000        0.00000000
H          -1.15766597        0.92987929       -0.20828580
H          -1.15766597       -0.92987929        0.20828580
H           1.15766597        0.92987929        0.20828580
H           1.15766597       -0.92987929       -0.20828580
