6
MD Time 0.00
C          -1.00424993        0.00000000        0.00000000
C           1.00424993        0.00000000        0.00000000
H          -1.57974221        0.85087473        0.35244385
H          -1.57974221       -0.85087473       -0.35244385
H           1.57974221        0.85087473       -0.35244385
H           1.57974221       -0.85087473        0.35244385
6
MD Time 10.00
C          -1.00411064       -0.00000000       -0.00000000
C           1.00411064       -0.00000000       -0.00000000
H          -1.57960875        0.85106111        0.35229537
H          -1.57960875       -0.85106111       -0.35229537
H           1.57960875        0.85106111       -0.35229537
H           1.57960875       -0.85106111        0.35229537
6
MD Time 20.00
C          -1.00369290       -0.00000000       -0.00000000
C           1.00369290       -0.00000000       -0.00000000
H          -1.57920728        0.85161782        0.35184930
H          -1.57920728       -0.85161782       -0.35184930
H           1.57920728        0.85161782       -0.35184930
H           1.57920728       -0.85161782        0.35184930
6
MD Time 30.00
C          -1.00299699       -0.00000000       -0.00000000
C           1.00299699       -0.00000000       -0.00000000
H          -1.57853453        0.85253760        0.35110386
H          -1.57853453       -0.85253760       -0.35110386
H           1.57853453        0.85253760       -0.35110386
H           1.57853453       -0.85253760        0.35110386
6
MD Time 40.00
C          -1.00202340       -0.00000000       -0.00000000
C           1.00202340       -0.00000000       -0.00000000
H          -1.57758517        0.85380859        0.35005613
H          -1.57758517       -0.85380859       -0.35005613
H           1.57758517        0.85380859       -0.35005613
H           1.57758517       -0.85380859        0.35005613
6
MD Time 50.00
C          -1.00077278       -0.00000000       -0.00000000
C           1.00077278       -0.00000000       -0.00000000
H          -1.57635199        0.85541455        0.34870219
H          -1.57635199       -0.85541455       -0.34870219
H           1.57635199        0.85541455       -0.34870219
H           1.57635199       -0.85541455        0.34870219
6
MD Time 60.00
C          -0.99924587       -0.00000000       -0.00000000
C           0.99924587       -0.00000000       -0.00000000
H          -1.57482614        0.85733532        0.34703727
H          -1.57482614       -0.85733532       -0.34703727
H           1.57482614        0.85733532       -0.34703727
H           1.57482614       -0.85733532        0.34703727
6
MD Time 70.00
C          -0.99744351       -0.00000000       -0.00000000
C           0.99744351       -0.00000000       -0.00000000
H          -1.57299737        0.85954726        0.34505593
H          -1.57299737       -0.85954726       -0.34505593
H           1.57299737        0.85954726       -0.34505593
H           1.57299737       -0.85954726        0.34505593
6
MD Time 80.00
C          -0.99536656       -0.00000000       -0.00000000
C           0.99536656       -0.00000000       -0.00000000
H          -1.57085440        0.86202384        0.34275228
H          -1.57085440       -0.86202384       -0.34275228
H           1.57085440        0.86202384       -0.34275228
H           1.57085440       -0.86202384        0.34275228
6
MD Time 90.00
C          -0.99301583       -0.00000000       -0.00000000
C           0.99301583       -0.00000000       -0.00000000
H          -1.56838524        0.86473618        0.34012018
H          -1.56838524       -0.86473618       -0.34012018
H           1.56838524        0.86473618       -0.34012018
H           1.56838524       -0.86473618        0.34012018
6
MD Time 100.00
C          -0.99039207       -0.00000000       -0.00000000
C           0.99039207       -0.00000000       -0.00000000
H          -1.56557755        0.86765373        0.33715349
H          -1.56557755       -0.86765373       -0.33715349
H           1.56557755        0.86765373       -0.33715349
H           1.56557755       -0.86765373        0.33715349
6
MD Time 110.00
C          -0.98749586       -0.00000000       -0.00000000
C           0.98749586       -0.00000000       -0.00000000
H          -1.56241900        0.87074489        0.33384629
H          -1.56241900       -0.87074489       -0.33384629
H           1.56241900        0.87074489       -0.33384629
H           1.56241900       -0.87074489        0.33384629
6
MD Time 120.00
C          -0.98432761       -0.00000000       -0.00000000
C           0.98432761       -0.00000000       -0.00000000
H          -1.55889764        0.87397764        0.33019308
H          -1.55889764       -0.87397764       -0.33019308
H           1.55889764        0.87397764       -0.33019308
H           1.55889764       -0.87397764        0.33019308
6
MD Time 130.00
C          -0.98088748       -0.00000000       -0.00000000
C           0.98088748       -0.00000000       -0.00000000
H          -1.55500220        0.87732017        0.32618900
H          -1.55500220       -0.87732017       -0.32618900
H           1.55500220        0.87732017       -0.32618900
H           1.55500220       -0.87732017        0.32618900
6
MD Time 140.00
C          -0.97717536       -0.00000000       -0.00000000
C           0.97717536       -0.00000000       -0.00000000
H          -1.55072245        0.88074145        0.32182999
H          -1.55072245       -0.88074145       -0.32182999
H           1.55072245        0.88074145       -0.32182999
H           1.55072245       -0.88074145        0.32182999
6
MD Time 150.00
C          -0.97319080       -0.00000000       -0.00000000
C           0.97319080       -0.00000000       -0.00000000
H          -1.54604940        0.88421176        0.31711295
H          -1.54604940       -0.88421176       -0.31711295
H           1.54604940        0.88421176       -0.31711295
H           1.54604940       -0.88421176        0.31711295
6
MD Time 160.00
C          -0.96893301       -0.00000000       -0.00000000
C           0.96893301       -0.00000000       -0.00000000
H          -1.54097564        0.88770316        0.31203587
H          -1.54097564       -0.88770316       -0.31203587
H           1.54097564        0.88770316       -0.31203587
H           1.54097564       -0.88770316        0.31203587
6
MD Time 170.00
C          -0.96440083       -0.00000000       -0.00000000
C           0.96440083       -0.00000000       -0.00000000
H          -1.53549546        0.89118991        0.30659792
H          -1.53549546       -0.89118991       -0.30659792
H           1.53549546        0.89118991       -0.30659792
H           1.53549546       -0.89118991        0.30659792
6
MD Time 180.00
C          -0.95959273       -0.00000000       -0.00000000
C           0.95959273       -0.00000000       -0.00000000
H          -1.52960507        0.89464882        0.30079952
H          -1.52960507       -0.89464882       -0.30079952
H           1.52960507        0.89464882       -0.30079952
H           1.52960507       -0.89464882        0.30079952
6
MD Time 190.00
C          -0.95450677       -0.00000000       -0.00000000
C           0.95450677       -0.00000000       -0.00000000
H          -1.52330270        0.89805952        0.29464238
H          -1.52330270       -0.89805952       -0.29464238
H           1.52330270        0.89805952       -0.29464238
H           1.52330270       -0.89805952        0.29464238
6
MD Time 200.00
C          -0.94914064       -0.00000000       -0.00000000
C           0.94914064       -0.00000000       -0.00000000
H          -1.51658869        0.90140468        0.28812953
H          -1.51658869       -0.90140468       -0.28812953
H           1.51658869        0.90140468       -0.28812953
H           1.51658869       -0.90140468        0.28812953
6
MD Time 210.00
C          -0.94349166       -0.00000000       -0.00000000
C           0.94349166       -0.00000000       -0.00000000
H          -1.50946558        0.90467012        0.28126527
H          -1.50946558       -0.90467012       -0.28126527
H           1.50946558        0.90467012       -0.28126527
H           1.50946558       -0.90467012        0.28126527
6
MD Time 220.00
C          -0.93755681       -0.00000000       -0.00000000
C           0.93755681       -0.00000000       -0.00000000
H          -1.50193809        0.90784488        0.27405518
H          -1.50193809       -0.90784488       -0.27405518
H           1.50193809        0.90784488       -0.27405518
H           1.50193809       -0.90784488        0.27405518
6
MD Time 230.00
C          -0.93133272       -0.00000000       -0.00000000
C           0.93133272       -0.00000000       -0.00000000
H          -1.49401310        0.91092123        0.26650603
H          -1.49401310       -0.91092123       -0.26650603
H           1.49401310        0.91092123       -0.26650603
H           1.49401310       -0.91092123        0.26650603
6
MD Time 240.00
C          -0.92481576       -0.00000000       -0.00000000
C           0.92481576       -0.00000000       -0.00000000
H          -1.48569967        0.91389459        0.25862573
H          -1.48569967       -0.91389459       -0.25862573
H           1.48569967        0.91389459       -0.25862573
H           1.48569967       -0.91389459        0.25862573
6
MD Time 250.00
C          -0.91800207       -0.00000000       -0.00000000
C           0.91800207       -0.00000000       -0.00000000
H          -1.47700892        0.91676335        0.25042326
H          -1.47700892       -0.91676335       -0.25042326
H           1.47700892        0.91676335       -0.25042326
H           1.47700892       -0.91676335        0.25042326
6
MD Time 260.00
C          -0.91088760       -0.00000000       -0.00000000
C           0.91088760       -0.00000000       -0.00000000
H          -1.46795396        0.91952872        0.24190851
H          -1.46795396       -0.91952872       -0.24190851
H           1.46795396        0.91952872       -0.24190851
H           1.46795396       -0.91952872        0.24190851
6
MD Time 270.00
C          -0.90346818       -0.00000000       -0.00000000
C           0.90346818       -0.00000000       -0.00000000
H          -1.45854976        0.92219443        0.23309224
H          -1.45854976       -0.92219443       -0.23309224
H           1.45854976        0.92219443       -0.23309224
H           1.45854976       -0.92219443        0.23309224
6
MD Time 280.00
C          -0.89573962       -0.00000000       -0.00000000
C           0.89573962       -0.00000000       -0.00000000
H          -1.44881307        0.92476641        0.22398589
H          -1.44881307       -0.92476641       -0.22398589
H           1.44881307        0.92476641       -0.22398589
H           1.44881307       -0.92476641        0.22398589
6
MD Time 290.00
C          -0.88769776       -0.00000000       -0.00000000
C           0.88769776       -0.00000000       -0.00000000
H          -1.43876221        0.92725243        0.21460152
H          -1.43876221       -0.92725243       -0.21460152
H           1.43876221        0.92725243       -0.21460152
H           1.43876221       -0.92725243        0.21460152
6
MD Time 300.00
C          -0.87933858       -0.00000000       -0.00000000
C           0.87933858       -0.00000000       -0.00000000
H          -1.42841695        0.92966167        0.20495163
H          -1.42841695       -0.92966167       -0.20495163
H           1.42841695        0.92966167       -0.20495163
H           1.42841695       -0.92966167        0.20495163
6
MD Time 310.00
C          -0.87065833       -0.00000000       -0.00000000
C           0.87065833       -0.00000000       -0.00000000
H          -1.41779834        0.93200430        0.19504902
H          -1.41779834       -0.93200430       -0.19504902
H           1.41779834        0.93200430       -0.19504902
H           1.41779834       -0.93200430        0.19504902
