6
MD Time 0.00
C          -1.00424993        0.00000000        0.00000000
C           1.00424993        0.00000000        0.00000000
H          -1.57974221        0.85087473        0.35244385
H          -1.57974221       -0.85087473       -0.35244385
H           1.57974221        0.85087473       -0.35244385
H           1.57974221       -0.85087473        0.35244385
6
MD Time 10.00
C          -1.00410329       -0.00000000       -0.00000000
C           1.00410329       -0.00000000        0.00000000
H          -1.57963025        0.85113004        0.35227794
H          -1.57963025       -0.85113004       -0.35227794
H           1.57963025        0.85113004       -0.35227794
H           1.57963025       -0.85113004        0.35227794
6
MD Time 20.00
C          -1.00366363       -0.00000000       -0.00000000
C           1.00366363       -0.00000000        0.00000000
H          -1.57929227        0.85189187        0.35177915
H          -1.57929227       -0.85189187       -0.35177915
H           1.57929227        0.85189187       -0.35177915
H           1.57929227       -0.85189187        0.35177915
6
MD Time 30.00
C          -1.00293169       -0.00000000       -0.00000000
C           1.00293169       -0.00000000        0.00000000
H          -1.57872210        0.85314803        0.35094435
H          -1.57872210       -0.85314803       -0.35094435
H           1.57872210        0.85314803       -0.35094435
H           1.57872210       -0.85314803        0.35094435
6
MD Time 40.00
C          -1.00190868       -0.00000000       -0.00000000
C           1.00190868       -0.00000000        0.00000000
H          -1.57790968        0.85487859        0.34976845
H          -1.57790968       -0.85487859       -0.34976845
H           1.57790968        0.85487859       -0.34976845
H           1.57790968       -0.85487859        0.34976845
6
MD Time 50.00
C          -1.00059619       -0.00000000       -0.00000000
C           1.00059619       -0.00000000        0.00000000
H          -1.57684149        0.85705648        0.34824474
H          -1.57684149       -0.85705648       -0.34824474
H           1.57684149        0.85705648       -0.34824474
H           1.57684149       -0.85705648        0.34824474
6
MD Time 60.00
C          -0.99899615       -0.00000000       -0.00000000
C           0.99899615       -0.00000000        0.00000000
H          -1.57550098        0.85964823        0.34636515
H          -1.57550098       -0.85964823       -0.34636515
H           1.57550098        0.85964823       -0.34636515
H           1.57550098       -0.85964823        0.34636515
6
MD Time 70.00
C          -0.99711068       -0.00000000       -0.00000000
C           0.99711068       -0.00000000        0.00000000
H          -1.57386924        0.86261488        0.34412063
H          -1.57386924       -0.86261488       -0.34412063
H           1.57386924        0.86261488       -0.34412063
H           1.57386924       -0.86261488        0.34412063
6
MD Time 80.00
C          -0.99494201       -0.00000000       -0.00000000
C           0.99494201       -0.00000000        0.00000000
H          -1.57192560        0.86591305        0.34150166
H          -1.57192560       -0.86591305       -0.34150166
H           1.57192560        0.86591305       -0.34150166
H           1.57192560       -0.86591305        0.34150166
6
MD Time 90.00
C          -0.99249240       -0.00000000       -0.00000000
C           0.99249240       -0.00000000        0.00000000
H          -1.56964837        0.86949601        0.33849862
H          -1.56964837       -0.86949601       -0.33849862
H           1.56964837        0.86949601       -0.33849862
H           1.56964837       -0.86949601        0.33849862
6
MD Time 100.00
C          -0.98976397       -0.00000000       -0.00000000
C           0.98976397       -0.00000000        0.00000000
H          -1.56701552        0.87331483        0.33510227
H          -1.56701552       -0.87331483       -0.33510227
H           1.56701552        0.87331483       -0.33510227
H           1.56701552       -0.87331483        0.33510227
6
MD Time 110.00
C          -0.98675862       -0.00000000       -0.00000000
C           0.98675862       -0.00000000        0.00000000
H          -1.56400540        0.87731951        0.33130420
H          -1.56400540       -0.87731951       -0.33130420
H           1.56400540        0.87731951       -0.33130420
H           1.56400540       -0.87731951        0.33130420
6
MD Time 120.00
C          -0.98347793       -0.00000000       -0.00000000
C           0.98347793       -0.00000000        0.00000000
H          -1.56059736        0.88146008        0.32709722
H          -1.56059736       -0.88146008       -0.32709722
H           1.56059736        0.88146008       -0.32709722
H           1.56059736       -0.88146008        0.32709722
6
MD Time 130.00
C          -0.97992307       -0.00000000       -0.00000000
C           0.97992307       -0.00000000        0.00000000
H          -1.55677239        0.88568760        0.32247569
H          -1.55677239       -0.88568760       -0.32247569
H           1.55677239        0.88568760       -0.32247569
H           1.55677239       -0.88568760        0.32247569
6
MD Time 140.00
C          -0.97609472       -0.00000000       -0.00000000
C           0.97609472       -0.00000000        0.00000000
H          -1.55251361        0.88995513        0.31743584
H          -1.55251361       -0.88995513       -0.31743584
H           1.55251361        0.88995513       -0.31743584
H           1.55251361       -0.88995513        0.31743584
6
MD Time 150.00
C          -0.97199301       -0.00000000       -0.00000000
C           0.97199301       -0.00000000        0.00000000
H          -1.54780673        0.89421850        0.31197600
H          -1.54780673       -0.89421850       -0.31197600
H           1.54780673        0.89421850       -0.31197600
H           1.54780673       -0.89421850        0.31197600
6
MD Time 160.00
C          -0.96761746       -0.00000000       -0.00000000
C           0.96761746       -0.00000000        0.00000000
H          -1.54264043        0.89843709        0.30609679
H          -1.54264043       -0.89843709       -0.30609679
H           1.54264043        0.89843709       -0.30609679
H           1.54264043       -0.89843709        0.30609679
6
MD Time 170.00
C          -0.96296696       -0.00000000       -0.00000000
C           0.96296696       -0.00000000        0.00000000
H          -1.53700662        0.90257438        0.29980122
H          -1.53700662       -0.90257438       -0.29980122
H           1.53700662        0.90257438       -0.29980122
H           1.53700662       -0.90257438        0.29980122
6
MD Time 180.00
C          -0.95803978       -0.00000000       -0.00000000
C           0.95803978       -0.00000000        0.00000000
H          -1.53090065        0.90659846        0.29309473
H          -1.53090065       -0.90659846       -0.29309473
H           1.53090065        0.90659846       -0.29309473
H           1.53090065       -0.90659846        0.29309473
6
MD Time 190.00
C          -0.95283352       -0.00000000       -0.00000000
C           0.95283352       -0.00000000        0.00000000
H          -1.52432142        0.91048234        0.28598521
H          -1.52432142       -0.91048234       -0.28598521
H           1.52432142        0.91048234       -0.28598521
H           1.52432142       -0.91048234        0.28598521
6
MD Time 200.00
C          -0.94734515       -0.00000000       -0.00000000
C           0.94734515       -0.00000000        0.00000000
H          -1.51727142        0.91420423        0.27848293
H          -1.51727142       -0.91420423       -0.27848293
H           1.51727142        0.91420423       -0.27848293
H           1.51727142       -0.91420423        0.27848293
6
MD Time 210.00
C          -0.94157107       -0.00000000       -0.00000000
C           0.94157107       -0.00000000        0.00000000
H          -1.50975670        0.91774760        0.27060044
H          -1.50975670       -0.91774760       -0.27060044
H           1.50975670        0.91774760       -0.27060044
H           1.50975670       -0.91774760        0.27060044
6
MD Time 220.00
C          -0.93550711       -0.00000000       -0.00000000
C           0.93550711       -0.00000000        0.00000000
H          -1.50178676        0.92110124        0.26235239
H          -1.50178676       -0.92110124       -0.26235239
H           1.50178676        0.92110124       -0.26235239
H           1.50178676       -0.92110124        0.26235239
6
MD Time 230.00
C          -0.92914858       -0.00000000       -0.00000000
C           0.92914858       -0.00000000        0.00000000
H          -1.49337442        0.92425911        0.25375541
H          -1.49337442       -0.92425911       -0.25375541
H           1.49337442        0.92425911       -0.25375541
H           1.49337442       -0.92425911        0.25375541
6
MD Time 240.00
C          -0.92249042       -0.00000000       -0.00000000
C           0.92249042       -0.00000000        0.00000000
H          -1.48453556        0.92722014        0.24482780
H          -1.48453556       -0.92722014       -0.24482780
H           1.48453556        0.92722014       -0.24482780
H           1.48453556       -0.92722014        0.24482780
6
MD Time 250.00
C          -0.91552719       -0.00000000       -0.00000000
C           0.91552719       -0.00000000        0.00000000
H          -1.47528888        0.92998792        0.23558939
H          -1.47528888       -0.92998792       -0.23558939
H           1.47528888        0.92998792       -0.23558939
H           1.47528888       -0.92998792        0.23558939
6
MD Time 260.00
C          -0.90825324       -0.00000000       -0.00000000
C           0.90825324       -0.00000000        0.00000000
H          -1.46565561        0.93257027        0.22606117
H          -1.46565561       -0.93257027       -0.22606117
H           1.46565561        0.93257027       -0.22606117
H           1.46565561       -0.93257027        0.22606117
6
MD Time 270.00
C          -0.90066279       -0.00000000       -0.00000000
C           0.90066279       -0.00000000        0.00000000
H          -1.45565909        0.93497872        0.21626511
H          -1.45565909       -0.93497872       -0.21626511
H           1.45565909        0.93497872       -0.21626511
H           1.45565909       -0.93497872        0.21626511
6
MD Time 280.00
C          -0.89275007       -0.00000000       -0.00000000
C           0.89275007       -0.00000000        0.00000000
H          -1.44532448        0.93722798        0.20622383
H          -1.44532448       -0.93722798       -0.20622383
H           1.44532448        0.93722798       -0.20622383
H           1.44532448       -0.93722798        0.20622383
6
MD Time 290.00
C          -0.88450948       -0.00000000       -0.00000000
C           0.88450948       -0.00000000        0.00000000
H          -1.43467828        0.93933517        0.19596032
H          -1.43467828       -0.93933517       -0.19596032
H           1.43467828        0.93933517       -0.19596032
H           1.43467828       -0.93933517        0.19596032
6
MD Time 300.00
C          -0.87593570       -0.00000000       -0.00000000
C           0.87593570       -0.00000000        0.00000000
H          -1.42374794        0.94131919        0.18549766
H          -1.42374794       -0.94131919       -0.18549766
H           1.42374794        0.94131919       -0.18549766
H           1.42374794       -0.94131919        0.18549766
6
MD Time 310.00
C          -0.86702394       -0.00000000       -0.00000000
C           0.86702394       -0.00000000        0.00000000
H          -1.41256145        0.94319985        0.17485879
H          -1.41256145       -0.94319985       -0.17485879
H           1.41256145        0.94319985       -0.17485879
H           1.41256145       -0.94319985        0.17485879
6
MD Time 320.00
C          -0.85777005       -0.00000000       -0.00000000
C           0.85777005       -0.00000000        0.00000000
H          -1.40114686        0.94499713        0.16406625
H          -1.40114686       -0.94499713       -0.16406625
H           1.40114686        0.94499713       -0.16406625
H           1.40114686       -0.94499713        0.16406625
6
MD Time 330.00
C          -0.84817081       -0.00000000       -0.00000000
C           0.84817081       -0.00000000        0.00000000
H          -1.38953197        0.94673030        0.15314196
H          -1.38953197       -0.94673030       -0.15314196
H           1.38953197        0.94673030       -0.15314196
H           1.38953197       -0.94673030        0.15314196
6
MD Time 340.00
C          -0.83822411       -0.00000000       -0.00000000
C           0.83822411       -0.00000000        0.00000000
H          -1.37774384        0.94841713        0.14210702
H          -1.37774384       -0.94841713       -0.14210702
H           1.37774384        0.94841713       -0.14210702
H           1.37774384       -0.94841713        0.14210702
6
MD Time 350.00
C          -0.82792920       -0.00000000       -0.00000000
C           0.82792920       -0.00000000        0.00000000
H          -1.36580854        0.95007314        0.13098160
H          -1.36580854       -0.95007314       -0.13098160
H           1.36580854        0.95007314       -0.13098160
H           1.36580854       -0.95007314        0.13098160
6
MD Time 360.00
C          -0.81728701       -0.00000000       -0.00000000
C           0.81728701       -0.00000000        0.00000000
H          -1.35375079        0.95171081        0.11978478
H          -1.35375079       -0.95171081       -0.11978478
H           1.35375079        0.95171081       -0.11978478
H           1.35375079       -0.95171081        0.11978478
6
MD Time 370.00
C          -0.80630042       -0.00000000       -0.00000000
C           0.80630042       -0.00000000        0.00000000
H          -1.34159377        0.95333898        0.10853452
H          -1.34159377       -0.95333898       -0.10853452
H           1.34159377        0.95333898       -0.10853452
H           1.34159377       -0.95333898        0.10853452
6
MD Time 380.00
C          -0.79497465       -0.00000000       -0.00000000
C           0.79497465       -0.00000000        0.00000000
H          -1.32935887        0.95496232        0.09724758
H          -1.32935887       -0.95496232       -0.09724758
H           1.32935887        0.95496232       -0.09724758
H           1.32935887       -0.95496232        0.09724758
6
MD Time 390.00
C          -0.78331760       -0.00000000       -0.00000000
C           0.78331760       -0.00000000        0.00000000
H          -1.31706565        0.95658083        0.08593956
H          -1.31706565       -0.95658083       -0.08593956
H           1.31706565        0.95658083       -0.08593956
H           1.31706565       -0.95658083        0.08593956
6
MD Time 400.00
C          -0.77134034       -0.00000000       -0.00000000
C           0.77134034       -0.00000000        0.00000000
H          -1.30473170        0.95818959        0.07462496
H          -1.30473170       -0.95818959       -0.07462496
H           1.30473170        0.95818959       -0.07462496
H           1.30473170       -0.95818959        0.07462496
6
MD Time 410.00
C          -0.75905759       -0.00000000       -0.00000000
C           0.75905759       -0.00000000        0.00000000
H          -1.29237272        0.95977857        0.06331723
H          -1.29237272       -0.95977857       -0.06331723
H           1.29237272        0.95977857       -0.06331723
H           1.29237272       -0.95977857        0.06331723
6
MD Time 420.00
C          -0.74648834       -0.00000000       -0.00000000
C           0.74648834       -0.00000000        0.00000000
H          -1.28000253        0.96133253        0.05202893
H          -1.28000253       -0.96133253       -0.05202893
H           1.28000253        0.96133253       -0.05202893
H           1.28000253       -0.96133253        0.05202893
6
MD Time 430.00
C          -0.73365653       -0.00000000       -0.00000000
C           0.73365653       -0.00000000        0.00000000
H          -1.26763322        0.96283114        0.04077191
H          -1.26763322       -0.96283114       -0.04077191
H           1.26763322        0.96283114       -0.04077191
H           1.26763322       -0.96283114        0.04077191
6
MD Time 440.00
C          -0.72059179       -0.00000000       -0.00000000
C           0.72059179       -0.00000000        0.00000000
H          -1.25527528        0.96424920        0.02955745
H          -1.25527528       -0.96424920       -0.02955745
H           1.25527528        0.96424920       -0.02955745
H           1.25527528       -0.96424920        0.02955745
6
MD Time 450.00
C          -0.70733042       -0.00000000       -0.00000000
C           0.70733042       -0.00000000        0.00000000
H          -1.24293780        0.96555689        0.01839655
H          -1.24293780       -0.96555689       -0.01839655
H           1.24293780        0.96555689       -0.01839655
H           1.24293780       -0.96555689        0.01839655
6
MD Time 460.00
C          -0.69391632       -0.00000000       -0.00000000
C           0.69391632       -0.00000000       -0.00000000
H          -1.23062877        0.96672028        0.00730013
H          -1.23062877       -0.96672028       -0.00730013
H           1.23062877        0.96672028       -0.00730013
H           1.23062877       -0.96672028        0.00730013
6
MD Time 470.00
C          -0.68040217       -0.00000000       -0.00000000
C           0.68040217       -0.00000000       -0.00000000
H          -1.21835532        0.96770186       -0.00372070
H          -1.21835532       -0.96770186        0.00372070
H           1.21835532        0.96770186        0.00372070
H           1.21835532       -0.96770186       -0.00372070
6
MD Time 480.00
C          -0.66685059       -0.00000000       -0.00000000
C           0.66685059       -0.00000000       -0.00000000
H          -1.20612409        0.96846126       -0.01465440
H          -1.20612409       -0.96846126        0.01465440
H           1.20612409        0.96846126        0.01465440
H           1.20612409       -0.96846126       -0.01465440
6
MD Time 490.00
C          -0.65333539       -0.00000000       -0.00000000
C           0.65333539       -0.00000000       -0.00000000
H          -1.19394170        0.96895608       -0.02548877
H          -1.19394170       -0.96895608        0.02548877
H           1.19394170        0.96895608        0.02548877
H           1.19394170       -0.96895608       -0.02548877
6
MD Time 500.00
C          -0.63994270       -0.00000000       -0.00000000
C           0.63994270       -0.00000000       -0.00000000
H          -1.18181524        0.96914291       -0.03621072
H          -1.18181524       -0.96914291        0.03621072
H           1.18181524        0.96914291        0.03621072
H           1.18181524       -0.96914291       -0.03621072
6
MD Time 510.00
C          -0.62677197       -0.00000000       -0.00000000
C           0.62677197       -0.00000000       -0.00000000
H          -1.16975295        0.96897861       -0.04680618
H          -1.16975295       -0.96897861        0.04680618
H           1.16975295        0.96897861        0.04680618
H           1.16975295       -0.96897861       -0.04680618
6
MD Time 520.00
C          -0.61393660        0.00000000       -0.00000000
C           0.61393660       -0.00000000       -0.00000000
H          -1.15776501        0.96842170       -0.05726003
H          -1.15776501       -0.96842170        0.05726003
H           1.15776501        0.96842170        0.05726003
H           1.15776501       -0.96842170       -0.05726003
6
MD Time 530.00
C          -0.60156388        0.00000000       -0.00000000
C           0.60156388       -0.00000000       -0.00000000
H          -1.14586459        0.96743418       -0.06755614
H          -1.14586459       -0.96743418        0.06755614
H           1.14586459        0.96743418        0.06755614
H           1.14586459       -0.96743418       -0.06755614
6
MD Time 540.00
C          -0.58979426        0.00000000       -0.00000000
C           0.58979426       -0.00000000       -0.00000000
H          -1.13406891        0.96598347       -0.07767756
H          -1.13406891       -0.96598347        0.07767756
H           1.13406891        0.96598347        0.07767756
H           1.13406891       -0.96598347       -0.07767756
6
MD Time 550.00
C          -0.57877927        0.00000000       -0.00000000
C           0.57877927       -0.00000000       -0.00000000
H          -1.12240062        0.96404475       -0.08760683
H          -1.12240062       -0.96404475        0.08760683
H           1.12240062        0.96404475        0.08760683
H           1.12240062       -0.96404475       -0.08760683
6
MD Time 560.00
C          -0.56867825        0.00000000       -0.00000000
C           0.56867825       -0.00000000       -0.00000000
H          -1.11088924        0.96160342       -0.09732645
H          -1.11088924       -0.96160342        0.09732645
H           1.11088924        0.96160342        0.09732645
H           1.11088924       -0.96160342       -0.09732645
6
MD Time 570.00
C          -0.55965336        0.00000000       -0.00000000
C           0.55965336       -0.00000000       -0.00000000
H          -1.09957262        0.95865788       -0.10681951
H          -1.09957262       -0.95865788        0.10681951
H           1.09957262        0.95865788        0.10681951
H           1.09957262       -0.95865788       -0.10681951
6
MD Time 580.00
C          -0.55186316        0.00000000       -0.00000000
C           0.55186316       -0.00000000       -0.00000000
H          -1.08849837        0.95522219       -0.11607038
H          -1.08849837       -0.95522219        0.11607038
H           1.08849837        0.95522219        0.11607038
H           1.08849837       -0.95522219       -0.11607038
6
MD Time 590.00
C          -0.54545481        0.00000000       -0.00000000
C           0.54545481       -0.00000000       -0.00000000
H          -1.07772518        0.95132885       -0.12506559
H          -1.07772518       -0.95132885        0.12506559
H           1.07772518        0.95132885        0.12506559
H           1.07772518       -0.95132885       -0.12506559
6
MD Time 600.00
C          -0.54055551        0.00000000       -0.00000000
C           0.54055551       -0.00000000       -0.00000000
H          -1.06732368        0.94703114       -0.13379470
H          -1.06732368       -0.94703114        0.13379470
H           1.06732368        0.94703114        0.13379470
H           1.06732368       -0.94703114       -0.13379470
6
MD Time 610.00
C          -0.53726408        0.00000000       -0.00000000
C           0.53726408       -0.00000000       -0.00000000
H          -1.05737698        0.94240504       -0.14225121
H          -1.05737698       -0.94240504        0.14225121
H           1.05737698        0.94240504        0.14225121
H           1.05737698       -0.94240504       -0.14225121
6
MD Time 620.00
C          -0.53564358        0.00000000       -0.00000000
C           0.53564358       -0.00000000       -0.00000000
H          -1.04798043        0.93755036       -0.15043340
H          -1.04798043       -0.93755036        0.15043340
H           1.04798043        0.93755036        0.15043340
H           1.04798043       -0.93755036       -0.15043340
6
MD Time 630.00
C          -0.53571607        0.00000000       -0.00000000
C           0.53571607       -0.00000000       -0.00000000
H          -1.03924077        0.93259079       -0.15834493
H          -1.03924077       -0.93259079        0.15834493
H           1.03924077        0.93259079        0.15834493
H           1.03924077       -0.93259079       -0.15834493
6
MD Time 640.00
C          -0.53746036        0.00000000       -0.00000000
C           0.53746036       -0.00000000       -0.00000000
H          -1.03127434        0.92767264       -0.16599519
H          -1.03127434       -0.92767264        0.16599519
H           1.03127434        0.92767264        0.16599519
H           1.03127434       -0.92767264       -0.16599519
6
MD Time 650.00
C          -0.54081308        0.00000000       -0.00000000
C           0.54081308       -0.00000000       -0.00000000
H          -1.02420451        0.92296189       -0.17339923
H          -1.02420451       -0.92296189        0.17339923
H           1.02420451        0.92296189        0.17339923
H           1.02420451       -0.92296189       -0.17339923
6
MD Time 660.00
C          -0.54567296        0.00000000       -0.00000000
C           0.54567296       -0.00000000       -0.00000000
H          -1.01815827        0.91863964       -0.18057708
H          -1.01815827       -0.91863964        0.18057708
H           1.01815827        0.91863964        0.18057708
H           1.01815827       -0.91863964       -0.18057708
6
MD Time 670.00
C          -0.55190766        0.00000000       -0.00000000
C           0.55190766       -0.00000000       -0.00000000
H          -1.01326215        0.91489555       -0.18755240
H          -1.01326215       -0.91489555        0.18755240
H           1.01326215        0.91489555        0.18755240
H           1.01326215       -0.91489555       -0.18755240
6
MD Time 680.00
C          -0.55936228        0.00000000       -0.00000000
C           0.55936228       -0.00000000       -0.00000000
H          -1.00963762        0.91191978       -0.19435051
H          -1.00963762       -0.91191978        0.19435051
H           1.00963762        0.91191978        0.19435051
H           1.00963762       -0.91191978       -0.19435051
6
MD Time 690.00
C          -0.56786825        0.00000000       -0.00000000
C           0.56786825       -0.00000000       -0.00000000
H          -1.00739632        0.90989357       -0.20099575
H          -1.00739632       -0.90989357        0.20099575
H           1.00739632        0.90989357        0.20099575
H           1.00739632       -0.90989357       -0.20099575
6
MD Time 700.00
C          -0.57725202        0.00000000       -0.00000000
C           0.57725202       -0.00000000       -0.00000000
H          -1.00663536        0.90897914       -0.20750854
H          -1.00663536       -0.90897914        0.20750854
H           1.00663536        0.90897914        0.20750854
H           1.00663536       -0.90897914       -0.20750854
6
MD Time 710.00
C          -0.58734243        0.00000000       -0.00000000
C           0.58734243       -0.00000000        0.00000000
H          -1.00743303        0.90930970       -0.21390230
H          -1.00743303       -0.90930970        0.21390230
H           1.00743303        0.90930970        0.21390230
H           1.00743303       -0.90930970       -0.21390230
6
MD Time 720.00
C          -0.59797674        0.00000000       -0.00000000
C           0.59797674       -0.00000000        0.00000000
H          -1.00984535        0.91098060       -0.22018076
H          -1.00984535       -0.91098060        0.22018076
H           1.00984535        0.91098060        0.22018076
H           1.00984535       -0.91098060       -0.22018076
6
MD Time 730.00
C          -0.60900485        0.00000000       -0.00000000
C           0.60900485       -0.00000000        0.00000000
H          -1.01390363        0.91404241       -0.22633587
H          -1.01390363       -0.91404241        0.22633587
H           1.01390363        0.91404241        0.22633587
H           1.01390363       -0.91404241       -0.22633587
6
MD Time 740.00
C          -0.62029209        0.00000000       -0.00000000
C           0.62029209       -0.00000000        0.00000000
H          -1.01961334        0.91849683       -0.23234674
H          -1.01961334       -0.91849683        0.23234674
H           1.01961334        0.91849683        0.23234674
H           1.01961334       -0.91849683       -0.23234674
6
MD Time 750.00
C          -0.63172043        0.00000000       -0.00000000
C           0.63172043       -0.00000000        0.00000000
H          -1.02695422        0.92429579       -0.23817967
H          -1.02695422       -0.92429579        0.23817967
H           1.02695422        0.92429579        0.23817967
H           1.02695422       -0.92429579       -0.23817967
6
MD Time 760.00
C          -0.64318870        0.00000000       -0.00000000
C           0.64318870       -0.00000000        0.00000000
H          -1.03588176        0.93134390       -0.24378925
H          -1.03588176       -0.93134390        0.24378925
H           1.03588176        0.93134390        0.24378925
H           1.03588176       -0.93134390       -0.24378925
6
MD Time 770.00
C          -0.65461191        0.00000000       -0.00000000
C           0.65461191       -0.00000000        0.00000000
H          -1.04632952        0.93950362       -0.24912040
H          -1.04632952       -0.93950362        0.24912040
H           1.04632952        0.93950362        0.24912040
H           1.04632952       -0.93950362       -0.24912040
6
MD Time 780.00
C          -0.66591991        0.00000000       -0.00000000
C           0.66591991       -0.00000000        0.00000000
H          -1.05821234        0.94860262       -0.25411105
H          -1.05821234       -0.94860262        0.25411105
H           1.05821234        0.94860262        0.25411105
H           1.05821234       -0.94860262       -0.25411105
6
MD Time 790.00
C          -0.67705585        0.00000000       -0.00000000
C           0.67705585       -0.00000000        0.00000000
H          -1.07142979        0.95844236       -0.25869506
H          -1.07142979       -0.95844236        0.25869506
H           1.07142979        0.95844236        0.25869506
H           1.07142979       -0.95844236       -0.25869506
6
MD Time 800.00
C          -0.68797443        0.00000000       -0.00000000
C           0.68797443       -0.00000000        0.00000000
H          -1.08586969        0.96880690       -0.26280519
H          -1.08586969       -0.96880690        0.26280519
H           1.08586969        0.96880690        0.26280519
H           1.08586969       -0.96880690       -0.26280519
6
MD Time 810.00
C          -0.69864013        0.00000000       -0.00000000
C           0.69864013       -0.00000000        0.00000000
H          -1.10141157        0.97947142       -0.26637571
H          -1.10141157       -0.97947142        0.26637571
H           1.10141157        0.97947142        0.26637571
H           1.10141157       -0.97947142       -0.26637571
6
MD Time 820.00
C          -0.70902561        0.00000000       -0.00000000
C           0.70902561       -0.00000000        0.00000000
H          -1.11792959        0.99020962       -0.26934469
H          -1.11792959       -0.99020962        0.26934469
H           1.11792959        0.99020962        0.26934469
H           1.11792959       -0.99020962       -0.26934469
6
MD Time 830.00
C          -0.71911030        0.00000000       -0.00000000
C           0.71911030       -0.00000000        0.00000000
H          -1.13529520        1.00079996       -0.27165566
H          -1.13529520       -1.00079996        0.27165566
H           1.13529520        1.00079996        0.27165566
H           1.13529520       -1.00079996       -0.27165566
6
MD Time 840.00
C          -0.72887909        0.00000000       -0.00000000
C           0.72887909       -0.00000000        0.00000000
H          -1.15337922        1.01103059       -0.27325880
H          -1.15337922       -1.01103059        0.27325880
H           1.15337922        1.01103059        0.27325880
H           1.15337922       -1.01103059       -0.27325880
6
MD Time 850.00
C          -0.73832133        0.00000000       -0.00000000
C           0.73832133       -0.00000000        0.00000000
H          -1.17205353        1.02070290       -0.27411172
H          -1.17205353       -1.02070290        0.27411172
H           1.17205353        1.02070290        0.27411172
H           1.17205353       -1.02070290       -0.27411172
6
MD Time 860.00
C          -0.74742999        0.00000000       -0.00000000
C           0.74742999       -0.00000000        0.00000000
H          -1.19119240        1.02963411       -0.27417971
H          -1.19119240       -1.02963411        0.27417971
H           1.19119240        1.02963411        0.27417971
H           1.19119240       -1.02963411       -0.27417971
6
MD Time 870.00
C          -0.75620092        0.00000000       -0.00000000
C           0.75620092       -0.00000000        0.00000000
H          -1.21067338        1.03765878       -0.27343589
H          -1.21067338       -1.03765878        0.27343589
H           1.21067338        1.03765878        0.27343589
H           1.21067338       -1.03765878       -0.27343589
6
MD Time 880.00
C          -0.76463233        0.00000000       -0.00000000
C           0.76463233       -0.00000000        0.00000000
H          -1.23037808        1.04462974       -0.27186092
H          -1.23037808       -1.04462974        0.27186092
H           1.23037808        1.04462974        0.27186092
H           1.23037808       -1.04462974       -0.27186092
6
MD Time 890.00
C          -0.77272437        0.00000000       -0.00000000
C           0.77272437       -0.00000000        0.00000000
H          -1.25019260        1.05041843       -0.26944275
H          -1.25019260       -1.05041843        0.26944275
H           1.25019260        1.05041843        0.26944275
H           1.25019260       -1.05041843       -0.26944275
6
MD Time 900.00
C          -0.78047869        0.00000000       -0.00000000
C           0.78047869       -0.00000000        0.00000000
H          -1.27000790        1.05491490       -0.26617622
H          -1.27000790       -1.05491490        0.26617622
H           1.27000790        1.05491490        0.26617622
H           1.27000790       -1.05491490       -0.26617622
6
MD Time 910.00
C          -0.78789826        0.00000000       -0.00000000
C           0.78789826       -0.00000000        0.00000000
H          -1.28972000        1.05802759       -0.26206255
H          -1.28972000       -1.05802759        0.26206255
H           1.28972000        1.05802759        0.26206255
H           1.28972000       -1.05802759       -0.26206255
6
MD Time 920.00
C          -0.79498703        0.00000000       -0.00000000
C           0.79498703       -0.00000000        0.00000000
H          -1.30923019        1.05968299       -0.25710895
H          -1.30923019       -1.05968299        0.25710895
H           1.30923019        1.05968299        0.25710895
H           1.30923019       -1.05968299       -0.25710895
6
MD Time 930.00
C          -0.80174979        0.00000000       -0.00000000
C           0.80174979       -0.00000000        0.00000000
H          -1.32844514        1.05982528       -0.25132813
H          -1.32844514       -1.05982528        0.25132813
H           1.32844514        1.05982528        0.25132813
H           1.32844514       -1.05982528       -0.25132813
6
MD Time 940.00
C          -0.80819195        0.00000000       -0.00000000
C           0.80819195       -0.00000000        0.00000000
H          -1.34727705        1.05841603       -0.24473792
H          -1.34727705       -1.05841603        0.24473792
H           1.34727705        1.05841603        0.24473792
H           1.34727705       -1.05841603       -0.24473792
6
MD Time 950.00
C          -0.81431937        0.00000000       -0.00000000
C           0.81431937       -0.00000000        0.00000000
H          -1.36564383        1.05543394       -0.23736084
H          -1.36564383       -1.05543394        0.23736084
H           1.36564383        1.05543394        0.23736084
H           1.36564383       -1.05543394       -0.23736084
6
MD Time 960.00
C          -0.82013820        0.00000000       -0.00000000
C           0.82013820       -0.00000000        0.00000000
H          -1.38346928        1.05087472       -0.22922377
H          -1.38346928       -1.05087472        0.22922377
H           1.38346928        1.05087472        0.22922377
H           1.38346928       -1.05087472       -0.22922377
6
MD Time 970.00
C          -0.82565472        0.00000000       -0.00000000
C           0.82565472       -0.00000000        0.00000000
H          -1.40068344        1.04475107       -0.22035758
H          -1.40068344       -1.04475107        0.22035758
H           1.40068344        1.04475107        0.22035758
H           1.40068344       -1.04475107       -0.22035758
6
MD Time 980.00
C          -0.83087514        0.00000000       -0.00000000
C           0.83087514       -0.00000000        0.00000000
H          -1.41722295        1.03709288       -0.21079684
H          -1.41722295       -1.03709288        0.21079684
H           1.41722295        1.03709288        0.21079684
H           1.41722295       -1.03709288       -0.21079684
6
MD Time 990.00
C          -0.83580546        0.00000000       -0.00000000
C           0.83580546       -0.00000000        0.00000000
H          -1.43303148        1.02794743       -0.20057942
H          -1.43303148       -1.02794743        0.20057942
H           1.43303148        1.02794743        0.20057942
H           1.43303148       -1.02794743       -0.20057942
6
MD Time 1000.00
C          -0.84045123        0.00000000       -0.00000000
C           0.84045123       -0.00000000        0.00000000
H          -1.44806038        1.01737984       -0.18974621
H          -1.44806038       -1.01737984        0.18974621
H           1.44806038        1.01737984        0.18974621
H           1.44806038       -1.01737984       -0.18974621
6
MD Time 1010.00
C          -0.84481736        0.00000000       -0.00000000
C           0.84481736       -0.00000000        0.00000000
H          -1.46226937        1.00547354       -0.17834070
H          -1.46226937       -1.00547354        0.17834070
H           1.46226937        1.00547354        0.17834070
H           1.46226937       -1.00547354       -0.17834070
6
MD Time 1020.00
C          -0.84890788        0.00000000       -0.00000000
C           0.84890788       -0.00000000        0.00000000
H          -1.47562732        0.99233077       -0.16640855
H          -1.47562732       -0.99233077        0.16640855
H           1.47562732        0.99233077        0.16640855
H           1.47562732       -0.99233077       -0.16640855
6
MD Time 1030.00
C          -0.85272570        0.00000000       -0.00000000
C           0.85272570       -0.00000000        0.00000000
H          -1.48811318        0.97807314       -0.15399705
H          -1.48811318       -0.97807314        0.15399705
H           1.48811318        0.97807314        0.15399705
H           1.48811318       -0.97807314       -0.15399705
6
MD Time 1040.00
C          -0.85627238       -0.00000000       -0.00000000
C           0.85627238       -0.00000000        0.00000000
H          -1.49971691        0.96284204       -0.14115456
H          -1.49971691       -0.96284204        0.14115456
H           1.49971691        0.96284204        0.14115456
H           1.49971691       -0.96284204       -0.14115456
6
MD Time 1050.00
C          -0.85954782       -0.00000000       -0.00000000
C           0.85954782       -0.00000000        0.00000000
H          -1.51044046        0.94679885       -0.12792978
H          -1.51044046       -0.94679885        0.12792978
H           1.51044046        0.94679885        0.12792978
H           1.51044046       -0.94679885       -0.12792978
6
MD Time 1060.00
C          -0.86255009       -0.00000000       -0.00000000
C           0.86255009       -0.00000000        0.00000000
H          -1.52029866        0.93012478       -0.11437086
H          -1.52029866       -0.93012478        0.11437086
H           1.52029866        0.93012478        0.11437086
H           1.52029866       -0.93012478       -0.11437086
6
MD Time 1070.00
C          -0.86527515       -0.00000000       -0.00000000
C           0.86527515       -0.00000000        0.00000000
H          -1.52931988        0.91302026       -0.10052450
H          -1.52931988       -0.91302026        0.10052450
H           1.52931988        0.91302026        0.10052450
H           1.52931988       -0.91302026       -0.10052450
6
MD Time 1080.00
C          -0.86771674       -0.00000000       -0.00000000
C           0.86771674       -0.00000000        0.00000000
H          -1.53754643        0.89570354       -0.08643480
H          -1.53754643       -0.89570354        0.08643480
H           1.53754643        0.89570354        0.08643480
H           1.53754643       -0.89570354       -0.08643480
6
MD Time 1090.00
C          -0.86986632       -0.00000000       -0.00000000
C           0.86986632       -0.00000000        0.00000000
H          -1.54503438        0.87840839       -0.07214217
H          -1.54503438       -0.87840839        0.07214217
H           1.54503438        0.87840839        0.07214217
H           1.54503438       -0.87840839       -0.07214217
6
MD Time 1100.00
C          -0.87171310       -0.00000000       -0.00000000
C           0.87171310       -0.00000000        0.00000000
H          -1.55185268        0.86138066       -0.05768207
H          -1.55185268       -0.86138066        0.05768207
H           1.55185268        0.86138066        0.05768207
H           1.55185268       -0.86138066       -0.05768207
6
MD Time 1110.00
C          -0.87324433       -0.00000000       -0.00000000
C           0.87324433       -0.00000000        0.00000000
H          -1.55808142        0.84487350       -0.04308394
H          -1.55808142       -0.84487350        0.04308394
H           1.55808142        0.84487350        0.04308394
H           1.55808142       -0.84487350       -0.04308394
6
MD Time 1120.00
C          -0.87444568       -0.00000000       -0.00000000
C           0.87444568       -0.00000000        0.00000000
H          -1.56380890        0.82914130       -0.02837024
H          -1.56380890       -0.82914130        0.02837024
H           1.56380890        0.82914130        0.02837024
H           1.56380890       -0.82914130       -0.02837024
6
MD Time 1130.00
C          -0.87530192       -0.00000000       -0.00000000
C           0.87530192       -0.00000000        0.00000000
H          -1.56912765        0.81443224       -0.01355592
H          -1.56912765       -0.81443224        0.01355592
H           1.56912765        0.81443224        0.01355592
H           1.56912765       -0.81443224       -0.01355592
6
MD Time 1140.00
C          -0.87579775       -0.00000000       -0.00000000
C           0.87579775       -0.00000000        0.00000000
H          -1.57412924        0.80097992        0.00135174
H          -1.57412924       -0.80097992       -0.00135174
H           1.57412924        0.80097992       -0.00135174
H           1.57412924       -0.80097992        0.00135174
6
MD Time 1150.00
C          -0.87591885       -0.00000000       -0.00000000
C           0.87591885       -0.00000000        0.00000000
H          -1.57889827        0.78899449        0.01635253
H          -1.57889827       -0.78899449       -0.01635253
H           1.57889827        0.78899449       -0.01635253
H           1.57889827       -0.78899449        0.01635253
6
MD Time 1160.00
C          -0.87565298       -0.00000000       -0.00000000
C           0.87565298       -0.00000000        0.00000000
H          -1.58350589        0.77865388        0.03145206
H          -1.58350589       -0.77865388       -0.03145206
H           1.58350589        0.77865388       -0.03145206
H           1.58350589       -0.77865388        0.03145206
6
MD Time 1170.00
C          -0.87499107       -0.00000000       -0.00000000
C           0.87499107       -0.00000000        0.00000000
H          -1.58800347        0.77009618        0.04665981
H          -1.58800347       -0.77009618       -0.04665981
H           1.58800347        0.77009618       -0.04665981
H           1.58800347       -0.77009618        0.04665981
6
MD Time 1180.00
C          -0.87392824       -0.00000000       -0.00000000
C           0.87392824       -0.00000000        0.00000000
H          -1.59241717        0.76341365        0.06198652
H          -1.59241717       -0.76341365       -0.06198652
H           1.59241717        0.76341365       -0.06198652
H           1.59241717       -0.76341365        0.06198652
6
MD Time 1190.00
C          -0.87246445       -0.00000000       -0.00000000
C           0.87246445       -0.00000000        0.00000000
H          -1.59674410        0.75864936        0.07744128
H          -1.59674410       -0.75864936       -0.07744128
H           1.59674410        0.75864936       -0.07744128
H           1.59674410       -0.75864936        0.07744128
6
MD Time 1200.00
C          -0.87060488       -0.00000000       -0.00000000
C           0.87060488       -0.00000000        0.00000000
H          -1.60095055        0.75579654        0.09302846
H          -1.60095055       -0.75579654       -0.09302846
H           1.60095055        0.75579654       -0.09302846
H           1.60095055       -0.75579654        0.09302846
6
MD Time 1210.00
C          -0.86835990       -0.00000000       -0.00000000
C           0.86835990       -0.00000000        0.00000000
H          -1.60497252        0.75480086        0.10874495
H          -1.60497252       -0.75480086       -0.10874495
H           1.60497252        0.75480086       -0.10874495
H           1.60497252       -0.75480086        0.10874495
6
MD Time 1220.00
C          -0.86574464       -0.00000000       -0.00000000
C           0.86574464       -0.00000000        0.00000000
H          -1.60871858        0.75556526        0.12457798
H          -1.60871858       -0.75556526       -0.12457798
H           1.60871858        0.75556526       -0.12457798
H           1.60871858       -0.75556526        0.12457798
6
MD Time 1230.00
C          -0.86277821       -0.00000000       -0.00000000
C           0.86277821       -0.00000000        0.00000000
H          -1.61207455        0.75795672        0.14050369
H          -1.61207455       -0.75795672       -0.14050369
H           1.61207455        0.75795672       -0.14050369
H           1.61207455       -0.75795672        0.14050369
6
MD Time 1240.00
C          -0.85948277       -0.00000000       -0.00000000
C           0.85948277       -0.00000000        0.00000000
H          -1.61490947        0.76181415        0.15648660
H          -1.61490947       -0.76181415       -0.15648660
H           1.61490947        0.76181415       -0.15648660
H           1.61490947       -0.76181415        0.15648660
6
MD Time 1250.00
C          -0.85588246       -0.00000000       -0.00000000
C           0.85588246       -0.00000000        0.00000000
H          -1.61708214        0.76695672        0.17247993
H          -1.61708214       -0.76695672       -0.17247993
H           1.61708214        0.76695672       -0.17247993
H           1.61708214       -0.76695672        0.17247993
6
MD Time 1260.00
C          -0.85200233       -0.00000000       -0.00000000
C           0.85200233       -0.00000000        0.00000000
H          -1.61844763        0.77319184        0.18842666
H          -1.61844763       -0.77319184       -0.18842666
H           1.61844763        0.77319184       -0.18842666
H           1.61844763       -0.77319184        0.18842666
6
MD Time 1270.00
C          -0.84786738       -0.00000000       -0.00000000
C           0.84786738       -0.00000000        0.00000000
H          -1.61886315        0.78032232        0.20426114
H          -1.61886315       -0.78032232       -0.20426114
H           1.61886315        0.78032232       -0.20426114
H           1.61886315       -0.78032232        0.20426114
6
MD Time 1280.00
C          -0.84350179       -0.00000000       -0.00000000
C           0.84350179       -0.00000000        0.00000000
H          -1.61819309        0.78815243        0.21991106
H          -1.61819309       -0.78815243       -0.21991106
H           1.61819309        0.78815243       -0.21991106
H           1.61819309       -0.78815243        0.21991106
6
MD Time 1290.00
C          -0.83892827       -0.00000000       -0.00000000
C           0.83892827        0.00000000        0.00000000
H          -1.61631294        0.79649271        0.23529943
H          -1.61631294       -0.79649271       -0.23529943
H           1.61631294        0.79649271       -0.23529943
H           1.61631294       -0.79649271        0.23529943
6
MD Time 1300.00
C          -0.83416766       -0.00000000       -0.00000000
C           0.83416766        0.00000000        0.00000000
H          -1.61311215        0.80516348        0.25034669
H          -1.61311215       -0.80516348       -0.25034669
H           1.61311215        0.80516348       -0.25034669
H           1.61311215       -0.80516348        0.25034669
6
MD Time 1310.00
C          -0.82923871       -0.00000000       -0.00000000
C           0.82923871        0.00000000        0.00000000
H          -1.60849597        0.81399740        0.26497250
H          -1.60849597       -0.81399740       -0.26497250
H           1.60849597        0.81399740       -0.26497250
H           1.60849597       -0.81399740        0.26497250
6
MD Time 1320.00
C          -0.82415789       -0.00000000       -0.00000000
C           0.82415789        0.00000000        0.00000000
H          -1.60238654        0.82284095        0.27909744
H          -1.60238654       -0.82284095       -0.27909744
H           1.60238654        0.82284095       -0.27909744
H           1.60238654       -0.82284095        0.27909744
6
MD Time 1330.00
C          -0.81893949       -0.00000000       -0.00000000
C           0.81893949        0.00000000        0.00000000
H          -1.59472326        0.83155531        0.29264433
H          -1.59472326       -0.83155531       -0.29264433
H           1.59472326        0.83155531       -0.29264433
H           1.59472326       -0.83155531        0.29264433
6
MD Time 1340.00
C          -0.81359564       -0.00000000       -0.00000000
C           0.81359564        0.00000000        0.00000000
H          -1.58546275        0.84001670        0.30553940
H          -1.58546275       -0.84001670       -0.30553940
H           1.58546275        0.84001670       -0.30553940
H           1.58546275       -0.84001670        0.30553940
6
MD Time 1350.00
C          -0.80813645       -0.00000000       -0.00000000
C           0.80813645        0.00000000        0.00000000
H          -1.57457854        0.84811636        0.31771316
H          -1.57457854       -0.84811636       -0.31771316
H           1.57457854        0.84811636       -0.31771316
H           1.57457854       -0.84811636        0.31771316
6
MD Time 1360.00
C          -0.80257020       -0.00000000       -0.00000000
C           0.80257020        0.00000000        0.00000000
H          -1.56206055        0.85576039        0.32910115
H          -1.56206055       -0.85576039       -0.32910115
H           1.56206055        0.85576039       -0.32910115
H           1.56206055       -0.85576039        0.32910115
6
MD Time 1370.00
C          -0.79690346       -0.00000000       -0.00000000
C           0.79690346        0.00000000        0.00000000
H          -1.54791453        0.86286949        0.33964444
H          -1.54791453       -0.86286949       -0.33964444
H           1.54791453        0.86286949       -0.33964444
H           1.54791453       -0.86286949        0.33964444
6
MD Time 1380.00
C          -0.79114128       -0.00000000       -0.00000000
C           0.79114128        0.00000000        0.00000000
H          -1.53216161        0.86937873        0.34929016
H          -1.53216161       -0.86937873       -0.34929016
H           1.53216161        0.86937873       -0.34929016
H           1.53216161       -0.86937873        0.34929016
6
MD Time 1390.00
C          -0.78528732       -0.00000000       -0.00000000
C           0.78528732        0.00000000        0.00000000
H          -1.51483779        0.87523749        0.35799188
H          -1.51483779       -0.87523749       -0.35799188
H           1.51483779        0.87523749       -0.35799188
H           1.51483779       -0.87523749        0.35799188
6
MD Time 1400.00
C          -0.77934397       -0.00000000       -0.00000000
C           0.77934397        0.00000000        0.00000000
H          -1.49599366        0.88040942        0.36570995
H          -1.49599366       -0.88040942       -0.36570995
H           1.49599366        0.88040942       -0.36570995
H           1.49599366       -0.88040942        0.36570995
6
MD Time 1410.00
C          -0.77331242       -0.00000000       -0.00000000
C           0.77331242        0.00000000        0.00000000
H          -1.47569415        0.88487270        0.37241190
H          -1.47569415       -0.88487270       -0.37241190
H           1.47569415        0.88487270       -0.37241190
H           1.47569415       -0.88487270        0.37241190
6
MD Time 1420.00
C          -0.76719277       -0.00000000        0.00000000
C           0.76719277        0.00000000        0.00000000
H          -1.45401847        0.88862041        0.37807283
H          -1.45401847       -0.88862041       -0.37807283
H           1.45401847        0.88862041       -0.37807283
H           1.45401847       -0.88862041        0.37807283
6
MD Time 1430.00
C          -0.76098410       -0.00000000        0.00000000
C           0.76098410        0.00000000        0.00000000
H          -1.43106002        0.89166111        0.38267577
H          -1.43106002       -0.89166111       -0.38267577
H           1.43106002        0.89166111       -0.38267577
H           1.43106002       -0.89166111        0.38267577
6
MD Time 1440.00
C          -0.75468447       -0.00000000        0.00000000
C           0.75468447        0.00000000        0.00000000
H          -1.40692642        0.89401954        0.38621210
H          -1.40692642       -0.89401954       -0.38621210
H           1.40692642        0.89401954       -0.38621210
H           1.40692642       -0.89401954        0.38621210
6
MD Time 1450.00
C          -0.74829103       -0.00000000        0.00000000
C           0.74829103        0.00000000        0.00000000
H          -1.38173945        0.89573748        0.38868193
H          -1.38173945       -0.89573748       -0.38868193
H           1.38173945        0.89573748       -0.38868193
H           1.38173945       -0.89573748        0.38868193
6
MD Time 1460.00
C          -0.74180011       -0.00000000        0.00000000
C           0.74180011        0.00000000        0.00000000
H          -1.35563490        0.89687454        0.39009446
H          -1.35563490       -0.89687454       -0.39009446
H           1.35563490        0.89687454       -0.39009446
H           1.35563490       -0.89687454        0.39009446
6
MD Time 1470.00
C          -0.73520733       -0.00000000        0.00000000
C           0.73520733        0.00000000        0.00000000
H          -1.32876221        0.89750897        0.39046825
H          -1.32876221       -0.89750897       -0.39046825
H           1.32876221        0.89750897       -0.39046825
H           1.32876221       -0.89750897        0.39046825
6
MD Time 1480.00
C          -0.72850779       -0.00000000        0.00000000
C           0.72850779        0.00000000        0.00000000
H          -1.30128369        0.89773815        0.38983126
H          -1.30128369       -0.89773815       -0.38983126
H           1.30128369        0.89773815       -0.38983126
H           1.30128369       -0.89773815        0.38983126
6
MD Time 1490.00
C          -0.72169645       -0.00000000        0.00000000
C           0.72169645        0.00000000        0.00000000
H          -1.27337343        0.89767867        0.38822073
H          -1.27337343       -0.89767867       -0.38822073
H           1.27337343        0.89767867       -0.38822073
H           1.27337343       -0.89767867        0.38822073
6
MD Time 1500.00
C          -0.71476845       -0.00000000        0.00000000
C           0.71476845        0.00000000       -0.00000000
H          -1.24521549        0.89746576        0.38568270
H          -1.24521549       -0.89746576       -0.38568270
H           1.24521549        0.89746576       -0.38568270
H           1.24521549       -0.89746576        0.38568270
6
MD Time 1510.00
C          -0.70771978       -0.00000000        0.00000000
C           0.70771978        0.00000000       -0.00000000
H          -1.21700156        0.89725173        0.38227108
H          -1.21700156       -0.89725173       -0.38227108
H           1.21700156        0.89725173       -0.38227108
H           1.21700156       -0.89725173        0.38227108
6
MD Time 1520.00
C          -0.70054799       -0.00000000        0.00000000
C           0.70054799        0.00000000       -0.00000000
H          -1.18892782        0.89720327        0.37804622
H          -1.18892782       -0.89720327       -0.37804622
H           1.18892782        0.89720327       -0.37804622
H           1.18892782       -0.89720327        0.37804622
6
MD Time 1530.00
C          -0.69325307       -0.00000000        0.00000000
C           0.69325307        0.00000000       -0.00000000
H          -1.16119118        0.89749730        0.37307299
H          -1.16119118       -0.89749730       -0.37307299
H           1.16119118        0.89749730       -0.37307299
H           1.16119118       -0.89749730        0.37307299
6
MD Time 1540.00
C          -0.68583857       -0.00000000        0.00000000
C           0.68583857        0.00000000       -0.00000000
H          -1.13398496        0.89831527        0.36741829
H          -1.13398496       -0.89831527       -0.36741829
H           1.13398496        0.89831527       -0.36741829
H           1.13398496       -0.89831527        0.36741829
6
MD Time 1550.00
C          -0.67831274       -0.00000000        0.00000000
C           0.67831274        0.00000000       -0.00000000
H          -1.10749427        0.89983592        0.36114817
H          -1.10749427       -0.89983592       -0.36114817
H           1.10749427        0.89983592       -0.36114817
H           1.10749427       -0.89983592        0.36114817
6
MD Time 1560.00
C          -0.67068975       -0.00000000        0.00000000
C           0.67068975        0.00000000       -0.00000000
H          -1.08189149        0.90222678        0.35432478
H          -1.08189149       -0.90222678       -0.35432478
H           1.08189149        0.90222678       -0.35432478
H           1.08189149       -0.90222678        0.35432478
6
MD Time 1570.00
C          -0.66299087       -0.00000000        0.00000000
C           0.66299087        0.00000000       -0.00000000
H          -1.05733212        0.90563491        0.34700334
H          -1.05733212       -0.90563491       -0.34700334
H           1.05733212        0.90563491       -0.34700334
H           1.05733212       -0.90563491        0.34700334
6
MD Time 1580.00
C          -0.65524548       -0.00000000        0.00000000
C           0.65524548        0.00000000       -0.00000000
H          -1.03395160        0.91017759        0.33922959
H          -1.03395160       -0.91017759       -0.33922959
H           1.03395160        0.91017759       -0.33922959
H           1.03395160       -0.91017759        0.33922959
6
MD Time 1590.00
C          -0.64749185       -0.00000000        0.00000000
C           0.64749185        0.00000000       -0.00000000
H          -1.01186342        0.91593397        0.33103798
H          -1.01186342       -0.91593397       -0.33103798
H           1.01186342        0.91593397       -0.33103798
H           1.01186342       -0.91593397        0.33103798
6
MD Time 1600.00
C          -0.63977754       -0.00000000        0.00000000
C           0.63977754        0.00000000       -0.00000000
H          -0.99115856        0.92293848        0.32245094
H          -0.99115856       -0.92293848       -0.32245094
H           0.99115856        0.92293848       -0.32245094
H           0.99115856       -0.92293848        0.32245094
6
MD Time 1610.00
C          -0.63215944       -0.00000000        0.00000000
C           0.63215944        0.00000000       -0.00000000
H          -0.97190655        0.93117697        0.31347925
H          -0.97190655       -0.93117697       -0.31347925
H           0.97190655        0.93117697       -0.31347925
H           0.97190655       -0.93117697        0.31347925
6
MD Time 1620.00
C          -0.62470330        0.00000000        0.00000000
C           0.62470330        0.00000000       -0.00000000
H          -0.95415769        0.94058596        0.30412359
H          -0.95415769       -0.94058596       -0.30412359
H           0.95415769        0.94058596       -0.30412359
H           0.95415769       -0.94058596        0.30412359
6
MD Time 1630.00
C          -0.61748280        0.00000000        0.00000000
C           0.61748280        0.00000000       -0.00000000
H          -0.93794617        0.95105517        0.29437693
H          -0.93794617       -0.95105517       -0.29437693
H           0.93794617        0.95105517       -0.29437693
H           0.93794617       -0.95105517        0.29437693
6
MD Time 1640.00
C          -0.61057829        0.00000000        0.00000000
C           0.61057829        0.00000000       -0.00000000
H          -0.92329358        0.96243296        0.28422753
H          -0.92329358       -0.96243296       -0.28422753
H           0.92329358        0.96243296       -0.28422753
H           0.92329358       -0.96243296        0.28422753
6
MD Time 1650.00
C          -0.60407497        0.00000000        0.00000000
C           0.60407497       -0.00000000       -0.00000000
H          -0.91021237        0.97453399        0.27366203
H          -0.91021237       -0.97453399       -0.27366203
H           0.91021237        0.97453399       -0.27366203
H           0.91021237       -0.97453399        0.27366203
6
MD Time 1660.00
C          -0.59806082        0.00000000        0.00000000
C           0.59806082       -0.00000000       -0.00000000
H          -0.89870884        0.98714830        0.26266829
H          -0.89870884       -0.98714830       -0.26266829
H           0.89870884        0.98714830       -0.26266829
H           0.89870884       -0.98714830        0.26266829
6
MD Time 1670.00
C          -0.59262417        0.00000000        0.00000000
C           0.59262417       -0.00000000       -0.00000000
H          -0.88878532        1.00005076        0.25123773
H          -0.88878532       -1.00005076       -0.25123773
H           0.88878532        1.00005076       -0.25123773
H           0.88878532       -1.00005076        0.25123773
6
MD Time 1680.00
C          -0.58785103        0.00000000        0.00000000
C           0.58785103       -0.00000000       -0.00000000
H          -0.88044166        1.01301021        0.23936701
H          -0.88044166       -1.01301021       -0.23936701
H           0.88044166        1.01301021       -0.23936701
H           0.88044166       -1.01301021        0.23936701
6
MD Time 1690.00
C          -0.58382223        0.00000000        0.00000000
C           0.58382223       -0.00000000       -0.00000000
H          -0.87367580        1.02579766        0.22705896
H          -0.87367580       -1.02579766       -0.22705896
H           0.87367580        1.02579766       -0.22705896
H           0.87367580       -1.02579766        0.22705896
6
MD Time 1700.00
C          -0.58061059        0.00000000        0.00000000
C           0.58061059       -0.00000000       -0.00000000
H          -0.86848375        1.03819321        0.21432292
H          -0.86848375       -1.03819321       -0.21432292
H           0.86848375        1.03819321       -0.21432292
H           0.86848375       -1.03819321        0.21432292
6
MD Time 1710.00
C          -0.57827809        0.00000000        0.00000000
C           0.57827809       -0.00000000       -0.00000000
H          -0.86485901        1.04999145        0.20117455
H          -0.86485901       -1.04999145       -0.20117455
H           0.86485901        1.04999145       -0.20117455
H           0.86485901       -1.04999145        0.20117455
6
MD Time 1720.00
C          -0.57687339        0.00000000        0.00000000
C           0.57687339       -0.00000000       -0.00000000
H          -0.86279172        1.06100561        0.18763531
H          -0.86279172       -1.06100561       -0.18763531
H           0.86279172        1.06100561       -0.18763531
H           0.86279172       -1.06100561        0.18763531
6
MD Time 1730.00
C          -0.57642980        0.00000000        0.00000000
C           0.57642980       -0.00000000       -0.00000000
H          -0.86226774        1.07107032        0.17373176
H          -0.86226774       -1.07107032       -0.17373176
H           0.86226774        1.07107032       -0.17373176
H           0.86226774       -1.07107032        0.17373176
6
MD Time 1740.00
C          -0.57696387        0.00000000        0.00000000
C           0.57696387       -0.00000000       -0.00000000
H          -0.86326774        1.08004333        0.15949479
H          -0.86326774       -1.08004333       -0.15949479
H           0.86326774        1.08004333       -0.15949479
H           0.86326774       -1.08004333        0.15949479
6
MD Time 1750.00
C          -0.57847474        0.00000000        0.00000000
C           0.57847474       -0.00000000       -0.00000000
H          -0.86576646        1.08780636        0.14495883
H          -0.86576646       -1.08780636       -0.14495883
H           0.86576646        1.08780636       -0.14495883
H           0.86576646       -1.08780636        0.14495883
6
MD Time 1760.00
C          -0.58094430        0.00000000        0.00000000
C           0.58094430       -0.00000000       -0.00000000
H          -0.86973235        1.09426532        0.13016122
H          -0.86973235       -1.09426532       -0.13016122
H           0.86973235        1.09426532       -0.13016122
H           0.86973235       -1.09426532        0.13016122
6
MD Time 1770.00
C          -0.58433813        0.00000000        0.00000000
C           0.58433813       -0.00000000       -0.00000000
H          -0.87512743        1.09934992        0.11514160
H          -0.87512743       -1.09934992       -0.11514160
H           0.87512743        1.09934992       -0.11514160
H           0.87512743       -1.09934992        0.11514160
6
MD Time 1780.00
C          -0.58860715        0.00000000        0.00000000
C           0.58860715       -0.00000000       -0.00000000
H          -0.88190764        1.10301301        0.09994145
H          -0.88190764       -1.10301301       -0.09994145
H           0.88190764        1.10301301       -0.09994145
H           0.88190764       -1.10301301        0.09994145
6
MD Time 1790.00
C          -0.59368978        0.00000000        0.00000000
C           0.59368978       -0.00000000       -0.00000000
H          -0.89002348        1.10522962        0.08460369
H          -0.89002348       -1.10522962       -0.08460369
H           0.89002348        1.10522962       -0.08460369
H           0.89002348       -1.10522962        0.08460369
6
MD Time 1800.00
C          -0.59951441        0.00000000       -0.00000000
C           0.59951441       -0.00000000       -0.00000000
H          -0.89942101        1.10599587        0.06917225
H          -0.89942101       -1.10599587       -0.06917225
H           0.89942101        1.10599587       -0.06917225
H           0.89942101       -1.10599587        0.06917225
6
MD Time 1810.00
C          -0.60600208        0.00000000       -0.00000000
C           0.60600208       -0.00000000       -0.00000000
H          -0.91004313        1.10532775        0.05369178
H          -0.91004313       -1.10532775       -0.05369178
H           0.91004313        1.10532775       -0.05369178
H           0.91004313       -1.10532775        0.05369178
6
MD Time 1820.00
C          -0.61306906        0.00000000       -0.00000000
C           0.61306906       -0.00000000       -0.00000000
H          -0.92183103        1.10325984        0.03820712
H          -0.92183103       -1.10325984       -0.03820712
H           0.92183103        1.10325984       -0.03820712
H           0.92183103       -1.10325984        0.03820712
6
MD Time 1830.00
C          -0.62062920        0.00000000       -0.00000000
C           0.62062920       -0.00000000       -0.00000000
H          -0.93472575        1.09984398        0.02276291
H          -0.93472575       -1.09984398       -0.02276291
H           0.93472575        1.09984398       -0.02276291
H           0.93472575       -1.09984398        0.02276291
6
MD Time 1840.00
C          -0.62859612        0.00000000       -0.00000000
C           0.62859612       -0.00000000       -0.00000000
H          -0.94866971        1.09514785        0.00740300
H          -0.94866971       -1.09514785       -0.00740300
H           0.94866971        1.09514785       -0.00740300
H           0.94866971       -1.09514785        0.00740300
6
MD Time 1850.00
C          -0.63688488        0.00000000       -0.00000000
C           0.63688488       -0.00000000       -0.00000000
H          -0.96360816        1.08925346       -0.00783021
H          -0.96360816       -1.08925346        0.00783021
H           0.96360816        1.08925346        0.00783021
H           0.96360816       -1.08925346       -0.00783021
6
MD Time 1860.00
C          -0.64541343        0.00000000       -0.00000000
C           0.64541343       -0.00000000       -0.00000000
H          -0.97949042        1.08225555       -0.02289640
H          -0.97949042       -1.08225555        0.02289640
H           0.97949042        1.08225555        0.02289640
H           0.97949042       -1.08225555       -0.02289640
6
MD Time 1870.00
C          -0.65410365        0.00000000       -0.00000000
C           0.65410365       -0.00000000       -0.00000000
H          -0.99627081        1.07425973       -0.03775803
H          -0.99627081       -1.07425973        0.03775803
H           0.99627081        1.07425973        0.03775803
H           0.99627081       -1.07425973       -0.03775803
6
MD Time 1880.00
C          -0.66288207        0.00000000       -0.00000000
C           0.66288207       -0.00000000       -0.00000000
H          -1.01390921        1.06538051       -0.05238103
H          -1.01390921       -1.06538051        0.05238103
H           1.01390921        1.06538051        0.05238103
H           1.01390921       -1.06538051       -0.05238103
6
MD Time 1890.00
C          -0.67168039        0.00000000       -0.00000000
C           0.67168039       -0.00000000       -0.00000000
H          -1.03237116        1.05573897       -0.06673527
H          -1.03237116       -1.05573897        0.06673527
H           1.03237116        1.05573897        0.06673527
H           1.03237116       -1.05573897       -0.06673527
6
MD Time 1900.00
C          -0.68043576        0.00000000       -0.00000000
C           0.68043576       -0.00000000        0.00000000
H          -1.05162748        1.04546028       -0.08079508
H          -1.05162748       -1.04546028        0.08079508
H           1.05162748        1.04546028        0.08079508
H           1.05162748       -1.04546028       -0.08079508
6
MD Time 1910.00
C          -0.68909097        0.00000000       -0.00000000
C           0.68909097       -0.00000000        0.00000000
H          -1.07165335        1.03467091       -0.09453937
H          -1.07165335       -1.03467091        0.09453937
H           1.07165335        1.03467091        0.09453937
H           1.07165335       -1.03467091       -0.09453937
6
MD Time 1920.00
C          -0.69759449        0.00000000       -0.00000000
C           0.69759449       -0.00000000        0.00000000
H          -1.09242694        1.02349572       -0.10795169
H          -1.09242694       -1.02349572        0.10795169
H           1.09242694        1.02349572        0.10795169
H           1.09242694       -1.02349572       -0.10795169
6
MD Time 1930.00
C          -0.70590052        0.00000000       -0.00000000
C           0.70590052       -0.00000000        0.00000000
H          -1.11392751        1.01205493       -0.12101985
H          -1.11392752       -1.01205493        0.12101985
H           1.11392752        1.01205493        0.12101985
H           1.11392752       -1.01205493       -0.12101985
6
MD Time 1940.00
C          -0.71396900        0.00000000       -0.00000000
C           0.71396900       -0.00000000        0.00000000
H          -1.13613322        1.00046110       -0.13373548
H          -1.13613322       -1.00046110        0.13373548
H           1.13613322        1.00046110        0.13373548
H           1.13613322       -1.00046110       -0.13373548
6
MD Time 1950.00
C          -0.72176558        0.00000000       -0.00000000
C           0.72176558       -0.00000000        0.00000000
H          -1.15901859        0.98881640       -0.14609318
H          -1.15901859       -0.98881640        0.14609318
H           1.15901859        0.98881640        0.14609318
H           1.15901859       -0.98881640       -0.14609318
6
MD Time 1960.00
C          -0.72926162        0.00000000       -0.00000000
C           0.72926162       -0.00000000        0.00000000
H          -1.18255199        0.97721012       -0.15808965
H          -1.18255199       -0.97721012        0.15808965
H           1.18255199        0.97721012        0.15808965
H           1.18255199       -0.97721012       -0.15808965
6
MD Time 1970.00
C          -0.73643412        0.00000000       -0.00000000
C           0.73643412       -0.00000000        0.00000000
H          -1.20669320        0.96571679       -0.16972262
H          -1.20669320       -0.96571679        0.16972262
H           1.20669320        0.96571679        0.16972262
H           1.20669320       -0.96571679       -0.16972262
6
MD Time 1980.00
C          -0.74326566        0.00000000       -0.00000000
C           0.74326566       -0.00000000        0.00000000
H          -1.23139122        0.95439496       -0.18098982
H          -1.23139122       -0.95439496        0.18098982
H           1.23139122        0.95439496        0.18098982
H           1.23139122       -0.95439496       -0.18098982
6
MD Time 1990.00
C          -0.74974425        0.00000000       -0.00000000
C           0.74974425       -0.00000000        0.00000000
H          -1.25658255        0.94328675       -0.19188803
H          -1.25658255       -0.94328675        0.19188803
H           1.25658255        0.94328675        0.19188803
H           1.25658255       -0.94328675       -0.19188803
6
MD Time 2000.00
C          -0.75586313        0.00000000       -0.00000000
C           0.75586313       -0.00000000        0.00000000
H          -1.28219015        0.93241829       -0.20241227
H          -1.28219015       -0.93241829        0.20241227
H           1.28219015        0.93241829        0.20241227
H           1.28219015       -0.93241829       -0.20241227
6
MD Time 2010.00
C          -0.76162042        0.00000000       -0.00000000
C           0.76162042       -0.00000000        0.00000000
H          -1.30812297        0.92180091       -0.21255525
H          -1.30812297       -0.92180090        0.21255525
H           1.30812297        0.92180090        0.21255525
H           1.30812297       -0.92180091       -0.21255525
6
MD Time 2020.00
C          -0.76701876        0.00000000       -0.00000000
C           0.76701876       -0.00000000        0.00000000
H          -1.33427633        0.91143306       -0.22230705
H          -1.33427633       -0.91143306        0.22230705
H           1.33427633        0.91143306        0.22230705
H           1.33427633       -0.91143306       -0.22230705
6
MD Time 2030.00
C          -0.77206477        0.00000000       -0.00000000
C           0.77206477       -0.00000000        0.00000000
H          -1.36053287        0.90130291       -0.23165505
H          -1.36053287       -0.90130291        0.23165505
H           1.36053287        0.90130291        0.23165505
H           1.36053287       -0.90130291       -0.23165505
6
MD Time 2040.00
C          -0.77676854        0.00000000       -0.00000000
C           0.77676854       -0.00000000        0.00000000
H          -1.38676422        0.89139110       -0.24058415
H          -1.38676422       -0.89139110        0.24058415
H           1.38676422        0.89139110        0.24058415
H           1.38676422       -0.89139110       -0.24058415
6
MD Time 2050.00
C          -0.78114299        0.00000000       -0.00000000
C           0.78114299       -0.00000000        0.00000000
H          -1.41283312        0.88167388       -0.24907715
H          -1.41283312       -0.88167388        0.24907715
H           1.41283312        0.88167388        0.24907715
H           1.41283312       -0.88167388       -0.24907715
6
MD Time 2060.00
C          -0.78520323        0.00000000       -0.00000000
C           0.78520323       -0.00000000        0.00000000
H          -1.43859586        0.87212595       -0.25711532
H          -1.43859586       -0.87212595        0.25711532
H           1.43859586        0.87212595        0.25711532
H           1.43859586       -0.87212595       -0.25711532
6
MD Time 2070.00
C          -0.78896593        0.00000000       -0.00000000
C           0.78896593       -0.00000000        0.00000000
H          -1.46390489        0.86272323       -0.26467900
H          -1.46390489       -0.86272323        0.26467900
H           1.46390489        0.86272323        0.26467900
H           1.46390489       -0.86272323       -0.26467900
6
MD Time 2080.00
C          -0.79244873        0.00000000       -0.00000000
C           0.79244873       -0.00000000        0.00000000
H          -1.48861146        0.85344515       -0.27174833
H          -1.48861146       -0.85344515        0.27174833
H           1.48861146        0.85344515        0.27174833
H           1.48861146       -0.85344515       -0.27174833
6
MD Time 2090.00
C          -0.79566970        0.00000000       -0.00000000
C           0.79566970       -0.00000000        0.00000000
H          -1.51256813        0.84427655       -0.27830386
H          -1.51256813       -0.84427655        0.27830386
H           1.51256813        0.84427655        0.27830386
H           1.51256813       -0.84427655       -0.27830386
6
MD Time 2100.00
C          -0.79864684        0.00000000       -0.00000000
C           0.79864684       -0.00000000        0.00000000
H          -1.53563102        0.83520903       -0.28432721
H          -1.53563102       -0.83520903        0.28432721
H           1.53563102        0.83520903        0.28432721
H           1.53563102       -0.83520903       -0.28432721
6
MD Time 2110.00
C          -0.80139766        0.00000000       -0.00000000
C           0.80139766       -0.00000000        0.00000000
H          -1.55766186        0.82624188       -0.28980160
H          -1.55766186       -0.82624188        0.28980160
H           1.55766186        0.82624188        0.28980160
H           1.55766186       -0.82624188       -0.28980160
6
MD Time 2120.00
C          -0.80393891        0.00000000       -0.00000000
C           0.80393891       -0.00000000        0.00000000
H          -1.57852967        0.81738257       -0.29471232
H          -1.57852967       -0.81738257        0.29471232
H           1.57852967        0.81738257        0.29471232
H           1.57852967       -0.81738257       -0.29471232
6
MD Time 2130.00
C          -0.80628621        0.00000000       -0.00000000
C           0.80628621       -0.00000000        0.00000000
H          -1.59811211        0.80864689       -0.29904707
H          -1.59811211       -0.80864689        0.29904707
H           1.59811211        0.80864689        0.29904707
H           1.59811211       -0.80864689       -0.29904707
6
MD Time 2140.00
C          -0.80845395        0.00000000       -0.00000000
C           0.80845395       -0.00000000        0.00000000
H          -1.61629658        0.80005870       -0.30279624
H          -1.61629658       -0.80005870        0.30279624
H           1.61629658        0.80005870        0.30279624
H           1.61629658       -0.80005870       -0.30279624
6
MD Time 2150.00
C          -0.81045505        0.00000000       -0.00000000
C           0.81045505       -0.00000000        0.00000000
H          -1.63298105        0.79164958       -0.30595311
H          -1.63298105       -0.79164958        0.30595311
H           1.63298105        0.79164958        0.30595311
H           1.63298105       -0.79164958       -0.30595311
6
MD Time 2160.00
C          -0.81230092        0.00000000       -0.00000000
C           0.81230092       -0.00000000        0.00000000
H          -1.64807462        0.78345817       -0.30851387
H          -1.64807462       -0.78345817        0.30851387
H           1.64807462        0.78345817        0.30851387
H           1.64807462       -0.78345817       -0.30851387
6
MD Time 2170.00
C          -0.81400132        0.00000000       -0.00000000
C           0.81400132       -0.00000000        0.00000000
H          -1.66149800        0.77552950       -0.31047769
H          -1.66149800       -0.77552950        0.31047769
H           1.66149800        0.77552950        0.31047769
H           1.66149800       -0.77552950       -0.31047769
6
MD Time 2180.00
C          -0.81556437        0.00000000       -0.00000000
C           0.81556437       -0.00000000        0.00000000
H          -1.67318377        0.76791413       -0.31184666
H          -1.67318377       -0.76791413        0.31184666
H           1.67318377        0.76791413        0.31184666
H           1.67318377       -0.76791413       -0.31184666
6
MD Time 2190.00
C          -0.81699649        0.00000000       -0.00000000
C           0.81699649       -0.00000000        0.00000000
H          -1.68307662        0.76066734       -0.31262563
H          -1.68307662       -0.76066734        0.31262563
H           1.68307662        0.76066734        0.31262563
H           1.68307662       -0.76066734       -0.31262563
6
MD Time 2200.00
C          -0.81830234        0.00000000       -0.00000000
C           0.81830234       -0.00000000        0.00000000
H          -1.69113345        0.75384823       -0.31282212
H          -1.69113345       -0.75384823        0.31282212
H           1.69113345        0.75384823        0.31282212
H           1.69113345       -0.75384823       -0.31282212
6
MD Time 2210.00
C          -0.81948488        0.00000000       -0.00000000
C           0.81948488       -0.00000000        0.00000000
H          -1.69732357        0.74751885       -0.31244607
H          -1.69732357       -0.74751885        0.31244607
H           1.69732357        0.74751885        0.31244607
H           1.69732357       -0.74751885       -0.31244607
6
MD Time 2220.00
C          -0.82054526        0.00000000       -0.00000000
C           0.82054526       -0.00000000        0.00000000
H          -1.70162879        0.74174335       -0.31150969
H          -1.70162879       -0.74174335        0.31150969
H           1.70162879        0.74174335        0.31150969
H           1.70162879       -0.74174335       -0.31150969
6
MD Time 2230.00
C          -0.82148286        0.00000000       -0.00000000
C           0.82148286       -0.00000000        0.00000000
H          -1.70404350        0.73658714       -0.31002719
H          -1.70404350       -0.73658714        0.31002719
H           1.70404350        0.73658714        0.31002719
H           1.70404350       -0.73658714       -0.31002719
6
MD Time 2240.00
C          -0.82229526        0.00000000       -0.00000000
C           0.82229526       -0.00000000        0.00000000
H          -1.70457489        0.73211605       -0.30801462
H          -1.70457489       -0.73211605        0.30801462
H           1.70457489        0.73211605        0.30801462
H           1.70457489       -0.73211605       -0.30801462
6
MD Time 2250.00
C          -0.82297821        0.00000000       -0.00000000
C           0.82297821       -0.00000000        0.00000000
H          -1.70324302        0.72839560       -0.30548959
H          -1.70324302       -0.72839560        0.30548959
H           1.70324302        0.72839560        0.30548959
H           1.70324302       -0.72839560       -0.30548959
6
MD Time 2260.00
C          -0.82352559        0.00000000       -0.00000000
C           0.82352559       -0.00000000        0.00000000
H          -1.70008090        0.72549025       -0.30247112
H          -1.70008090       -0.72549025        0.30247112
H           1.70008090        0.72549025        0.30247112
H           1.70008090       -0.72549025       -0.30247112
6
MD Time 2270.00
C          -0.82392947        0.00000000       -0.00000000
C           0.82392947       -0.00000000        0.00000000
H          -1.69513459        0.72346272       -0.29897940
H          -1.69513459       -0.72346272        0.29897940
H           1.69513459        0.72346272        0.29897940
H           1.69513459       -0.72346272       -0.29897940
6
MD Time 2280.00
C          -0.82418005        0.00000000       -0.00000000
C           0.82418005        0.00000000        0.00000000
H          -1.68846309        0.72237329       -0.29503567
H          -1.68846309       -0.72237329        0.29503567
H           1.68846309        0.72237329        0.29503567
H           1.68846309       -0.72237329       -0.29503567
6
MD Time 2290.00
C          -0.82426577        0.00000000       -0.00000000
C           0.82426577        0.00000000        0.00000000
H          -1.68013810        0.72227923       -0.29066198
H          -1.68013810       -0.72227923        0.29066198
H           1.68013810        0.72227923        0.29066198
H           1.68013810       -0.72227923       -0.29066198
6
MD Time 2300.00
C          -0.82417332        0.00000000       -0.00000000
C           0.82417332        0.00000000        0.00000000
H          -1.67024361        0.72323411       -0.28588104
H          -1.67024361       -0.72323411        0.28588104
H           1.67024361        0.72323411        0.28588104
H           1.67024361       -0.72323411       -0.28588104
6
MD Time 2310.00
C          -0.82388784        0.00000000       -0.00000000
C           0.82388784        0.00000000        0.00000000
H          -1.65887511        0.72528719       -0.28071599
H          -1.65887511       -0.72528719        0.28071599
H           1.65887511        0.72528719        0.28071599
H           1.65887511       -0.72528719       -0.28071599
6
MD Time 2320.00
C          -0.82339306       -0.00000000       -0.00000000
C           0.82339306        0.00000000        0.00000000
H          -1.64613845        0.72848267       -0.27519016
H          -1.64613845       -0.72848267        0.27519016
H           1.64613845        0.72848267        0.27519016
H           1.64613845       -0.72848267       -0.27519016
6
MD Time 2330.00
C          -0.82267159       -0.00000000       -0.00000000
C           0.82267159        0.00000000        0.00000000
H          -1.63214832        0.73285888       -0.26932671
H          -1.63214832       -0.73285888        0.26932671
H           1.63214832        0.73285888        0.26932671
H           1.63214832       -0.73285888       -0.26932671
6
MD Time 2340.00
C          -0.82170529       -0.00000000       -0.00000000
C           0.82170529        0.00000000        0.00000000
H          -1.61702625        0.73844726       -0.26314823
H          -1.61702625       -0.73844726        0.26314823
H           1.61702625        0.73844726        0.26314823
H           1.61702625       -0.73844726       -0.26314823
6
MD Time 2350.00
C          -0.82047563       -0.00000000       -0.00000000
C           0.82047563        0.00000000        0.00000000
H          -1.60089816        0.74527120       -0.25667623
H          -1.60089816       -0.74527120        0.25667623
H           1.60089816        0.74527120        0.25667623
H           1.60089816       -0.74527120       -0.25667623
6
MD Time 2360.00
C          -0.81896424       -0.00000000       -0.00000000
C           0.81896424        0.00000000        0.00000000
H          -1.58389153        0.75334458       -0.24993054
H          -1.58389153       -0.75334458        0.24993054
H           1.58389153        0.75334458        0.24993054
H           1.58389153       -0.75334458       -0.24993054
6
MD Time 2370.00
C          -0.81715341       -0.00000000       -0.00000000
C           0.81715341        0.00000000        0.00000000
H          -1.56613229        0.76267008       -0.24292863
H          -1.56613229       -0.76267008        0.24292863
H           1.56613229        0.76267008        0.24292863
H           1.56613229       -0.76267008       -0.24292863
6
MD Time 2380.00
C          -0.81502667       -0.00000000       -0.00000000
C           0.81502667        0.00000000        0.00000000
H          -1.54774162        0.77323741       -0.23568501
H          -1.54774162       -0.77323741        0.23568501
H           1.54774162        0.77323741        0.23568501
H           1.54774162       -0.77323741       -0.23568501
6
MD Time 2390.00
C          -0.81256932       -0.00000000       -0.00000000
C           0.81256932        0.00000000        0.00000000
H          -1.52883280        0.78502136       -0.22821053
H          -1.52883280       -0.78502136        0.22821053
H           1.52883280        0.78502136        0.22821053
H           1.52883280       -0.78502136       -0.22821053
6
MD Time 2400.00
C          -0.80976896       -0.00000000       -0.00000000
C           0.80976896        0.00000000        0.00000000
H          -1.50950844        0.79798003       -0.22051197
H          -1.50950844       -0.79798003        0.22051197
H           1.50950844        0.79798003        0.22051197
H           1.50950844       -0.79798003       -0.22051197
6
MD Time 2410.00
C          -0.80661584       -0.00000000       -0.00000000
C           0.80661584        0.00000000        0.00000000
H          -1.48985829        0.81205336       -0.21259174
H          -1.48985829       -0.81205336        0.21259174
H           1.48985829        0.81205336        0.21259174
H           1.48985829       -0.81205336       -0.21259174
6
MD Time 2420.00
C          -0.80310320       -0.00000000       -0.00000000
C           0.80310320        0.00000000        0.00000000
H          -1.46995770        0.82716217       -0.20444787
H          -1.46995770       -0.82716217        0.20444787
H           1.46995770        0.82716217        0.20444787
H           1.46995770       -0.82716217       -0.20444787
6
MD Time 2430.00
C          -0.79922740       -0.00000000       -0.00000000
C           0.79922740        0.00000000        0.00000000
H          -1.44986709        0.84320784       -0.19607432
H          -1.44986709       -0.84320784        0.19607432
H           1.44986709        0.84320784        0.19607432
H           1.44986709       -0.84320784       -0.19607432
6
MD Time 2440.00
C          -0.79498794       -0.00000000       -0.00000000
C           0.79498794        0.00000000        0.00000000
H          -1.42963217        0.86007292       -0.18746154
H          -1.42963217       -0.86007292        0.18746154
H           1.42963217        0.86007292        0.18746154
H           1.42963217       -0.86007292       -0.18746154
6
MD Time 2450.00
C          -0.79038734       -0.00000000       -0.00000000
C           0.79038734        0.00000000        0.00000000
H          -1.40928515        0.87762249       -0.17859731
H          -1.40928515       -0.87762249        0.17859731
H           1.40928515        0.87762249        0.17859731
H           1.40928515       -0.87762249       -0.17859731
6
MD Time 2460.00
C          -0.78543091       -0.00000000       -0.00000000
C           0.78543091        0.00000000        0.00000000
H          -1.38884646        0.89570639       -0.16946778
H          -1.38884646       -0.89570639        0.16946778
H           1.38884646        0.89570639        0.16946778
H           1.38884646       -0.89570639       -0.16946778
6
MD Time 2470.00
C          -0.78012653       -0.00000000       -0.00000000
C           0.78012653        0.00000000        0.00000000
H          -1.36832715        0.91416200       -0.16005859
H          -1.36832715       -0.91416200        0.16005859
H           1.36832715        0.91416200        0.16005859
H           1.36832715       -0.91416200       -0.16005859
6
MD Time 2480.00
C          -0.77448431       -0.00000000       -0.00000000
C           0.77448431        0.00000000        0.00000000
H          -1.34773138        0.93281762       -0.15035602
H          -1.34773138       -0.93281762        0.15035602
H           1.34773138        0.93281762        0.15035602
H           1.34773138       -0.93281762       -0.15035602
6
MD Time 2490.00
C          -0.76851634       -0.00000000       -0.00000000
C           0.76851634        0.00000000        0.00000000
H          -1.32705905        0.95149590       -0.14034807
H          -1.32705905       -0.95149590        0.14034807
H           1.32705905        0.95149590        0.14034807
H           1.32705905       -0.95149590       -0.14034807
6
MD Time 2500.00
C          -0.76223648       -0.00000000       -0.00000000
C           0.76223648        0.00000000        0.00000000
H          -1.30630828        0.97001741       -0.13002546
H          -1.30630828       -0.97001741        0.13002546
H           1.30630828        0.97001741        0.13002546
H           1.30630828       -0.97001741       -0.13002546
6
MD Time 2510.00
C          -0.75566020       -0.00000000       -0.00000000
C           0.75566020        0.00000000        0.00000000
H          -1.28547757        0.98820385       -0.11938241
H          -1.28547757       -0.98820385        0.11938241
H           1.28547757        0.98820385        0.11938241
H           1.28547757       -0.98820385       -0.11938241
6
MD Time 2520.00
C          -0.74880457       -0.00000000       -0.00000000
C           0.74880457        0.00000000        0.00000000
H          -1.26456772        1.00588105       -0.10841725
H          -1.26456772       -1.00588105        0.10841725
H           1.26456772        1.00588105        0.10841725
H           1.26456772       -1.00588105       -0.10841725
6
MD Time 2530.00
C          -0.74168824       -0.00000000       -0.00000000
C           0.74168824        0.00000000        0.00000000
H          -1.24358333        1.02288144       -0.09713282
H          -1.24358333       -1.02288144        0.09713282
H           1.24358333        1.02288144        0.09713282
H           1.24358333       -1.02288144       -0.09713282
6
MD Time 2540.00
C          -0.73433157       -0.00000000       -0.00000000
C           0.73433157        0.00000000        0.00000000
H          -1.22253395        1.03904612       -0.08553666
H          -1.22253395       -1.03904612        0.08553666
H           1.22253395        1.03904612        0.08553666
H           1.22253395       -1.03904612       -0.08553666
6
MD Time 2550.00
C          -0.72675686       -0.00000000       -0.00000000
C           0.72675686        0.00000000        0.00000000
H          -1.20143499        1.05422642       -0.07364106
H          -1.20143499       -1.05422642        0.07364106
H           1.20143499        1.05422642        0.07364106
H           1.20143499       -1.05422642       -0.07364106
6
MD Time 2560.00
C          -0.71898855       -0.00000000       -0.00000000
C           0.71898855        0.00000000        0.00000000
H          -1.18030832        1.06828515       -0.06146292
H          -1.18030832       -1.06828515        0.06146292
H           1.18030832        1.06828515        0.06146292
H           1.18030832       -1.06828515       -0.06146292
6
MD Time 2570.00
C          -0.71105350       -0.00000000       -0.00000000
C           0.71105350        0.00000000        0.00000000
H          -1.15918273        1.08109744       -0.04902347
H          -1.15918273       -1.08109744        0.04902347
H           1.15918273        1.08109744        0.04902347
H           1.15918273       -1.08109744       -0.04902347
6
MD Time 2580.00
C          -0.70298131       -0.00000000       -0.00000000
C           0.70298131        0.00000000        0.00000000
H          -1.13809412        1.09255137       -0.03634792
H          -1.13809412       -1.09255137        0.03634792
H           1.13809412        1.09255137        0.03634792
H           1.13809412       -1.09255137       -0.03634792
6
MD Time 2590.00
C          -0.69480460       -0.00000000       -0.00000000
C           0.69480460        0.00000000        0.00000000
H          -1.11708575        1.10254843       -0.02346500
H          -1.11708575       -1.10254843        0.02346500
H           1.11708575        1.10254843        0.02346500
H           1.11708575       -1.10254843       -0.02346500
6
MD Time 2600.00
C          -0.68655929       -0.00000000       -0.00000000
C           0.68655929        0.00000000        0.00000000
H          -1.09620823        1.11100379       -0.01040647
H          -1.09620823       -1.11100379        0.01040647
H           1.09620823        1.11100379        0.01040647
H           1.09620823       -1.11100379       -0.01040647
6
MD Time 2610.00
C          -0.67828484       -0.00000000       -0.00000000
C           0.67828484        0.00000000        0.00000000
H          -1.07551956        1.11784661        0.00279344
H          -1.07551956       -1.11784661       -0.00279344
H           1.07551956        1.11784661       -0.00279344
H           1.07551956       -1.11784661        0.00279344
6
MD Time 2620.00
C          -0.67002439       -0.00000000       -0.00000000
C           0.67002439        0.00000000        0.00000000
H          -1.05508509        1.12302031        0.01609858
H          -1.05508510       -1.12302031       -0.01609858
H           1.05508509        1.12302031       -0.01609858
H           1.05508510       -1.12302031        0.01609858
6
MD Time 2630.00
C          -0.66182487       -0.00000000       -0.00000000
C           0.66182487        0.00000000        0.00000000
H          -1.03497741        1.12648290        0.02947149
H          -1.03497741       -1.12648290       -0.02947149
H           1.03497741        1.12648290       -0.02947149
H           1.03497741       -1.12648290        0.02947149
6
MD Time 2640.00
C          -0.65373692       -0.00000000       -0.00000000
C           0.65373692        0.00000000        0.00000000
H          -1.01527616        1.12820749        0.04287397
H          -1.01527616       -1.12820749       -0.04287397
H           1.01527616        1.12820749       -0.04287397
H           1.01527616       -1.12820749        0.04287397
6
MD Time 2650.00
C          -0.64581473       -0.00000000       -0.00000000
C           0.64581473        0.00000000        0.00000000
H          -0.99606786        1.12818286        0.05626770
H          -0.99606786       -1.12818286       -0.05626770
H           0.99606786        1.12818286       -0.05626770
H           0.99606786       -1.12818286        0.05626770
6
MD Time 2660.00
C          -0.63811569       -0.00000000       -0.00000000
C           0.63811569        0.00000000        0.00000000
H          -0.97744553        1.12641430        0.06961482
H          -0.97744553       -1.12641430       -0.06961482
H           0.97744553        1.12641430       -0.06961482
H           0.97744553       -1.12641430        0.06961482
6
MD Time 2670.00
C          -0.63069985       -0.00000000       -0.00000000
C           0.63069985        0.00000000        0.00000000
H          -0.95950825        1.12292468        0.08287852
H          -0.95950825       -1.12292468       -0.08287852
H           0.95950825        1.12292468       -0.08287852
H           0.95950825       -1.12292468        0.08287852
6
MD Time 2680.00
C          -0.62362910       -0.00000000        0.00000000
C           0.62362910        0.00000000        0.00000000
H          -0.94236056        1.11775570        0.09602368
H          -0.94236056       -1.11775570       -0.09602368
H           0.94236056        1.11775570       -0.09602368
H           0.94236056       -1.11775570        0.09602368
6
MD Time 2690.00
C          -0.61696626       -0.00000000        0.00000000
C           0.61696626        0.00000000        0.00000000
H          -0.92611171        1.11096943        0.10901738
H          -0.92611171       -1.11096943       -0.10901738
H           0.92611171        1.11096943       -0.10901738
H           0.92611171       -1.11096943        0.10901738
6
MD Time 2700.00
C          -0.61077384       -0.00000000        0.00000000
C           0.61077384        0.00000000        0.00000000
H          -0.91087477        1.10265003        0.12182954
H          -0.91087477       -1.10265003       -0.12182954
H           0.91087477        1.10265003       -0.12182954
H           0.91087477       -1.10265003        0.12182954
6
MD Time 2710.00
C          -0.60511262       -0.00000000        0.00000000
C           0.60511262        0.00000000        0.00000000
H          -0.89676548        1.09290568        0.13443349
H          -0.89676548       -1.09290568       -0.13443349
H           0.89676548        1.09290568       -0.13443349
H           0.89676548       -1.09290568        0.13443349
6
MD Time 2720.00
C          -0.60004007       -0.00000000        0.00000000
C           0.60004007        0.00000000        0.00000000
H          -0.88390112        1.08187044        0.14680649
H          -0.88390112       -1.08187044       -0.14680649
H           0.88390112        1.08187044       -0.14680649
H           0.88390112       -1.08187044        0.14680649
6
MD Time 2730.00
C          -0.59560864       -0.00000000        0.00000000
C           0.59560864        0.00000000        0.00000000
H          -0.87239909        1.06970604        0.15893031
H          -0.87239909       -1.06970604       -0.15893031
H           0.87239909        1.06970604       -0.15893031
H           0.87239909       -1.06970604        0.15893031
6
MD Time 2740.00
C          -0.59186406       -0.00000000        0.00000000
C           0.59186406        0.00000000        0.00000000
H          -0.86237552        1.05660328        0.17079171
H          -0.86237552       -1.05660328       -0.17079171
H           0.86237552        1.05660328       -0.17079171
H           0.86237552       -1.05660328        0.17079171
6
MD Time 2750.00
C          -0.58884364       -0.00000000        0.00000000
C           0.58884364        0.00000000        0.00000000
H          -0.85394381        1.04278263        0.18238295
H          -0.85394381       -1.04278263       -0.18238295
H           0.85394381        1.04278263       -0.18238295
H           0.85394381       -1.04278263        0.18238295
6
MD Time 2760.00
C          -0.58657480       -0.00000000        0.00000000
C           0.58657480        0.00000000        0.00000000
H          -0.84721310        1.02849369        0.19370213
H          -0.84721310       -1.02849369       -0.19370213
H           0.84721310        1.02849369       -0.19370213
H           0.84721310       -1.02849369        0.19370213
6
MD Time 2770.00
C          -0.58507390       -0.00000000        0.00000000
C           0.58507390        0.00000000        0.00000000
H          -0.84228684        1.01401290        0.20475339
H          -0.84228684       -1.01401290       -0.20475339
H           0.84228684        1.01401290       -0.20475339
H           0.84228684       -1.01401290        0.20475339
6
MD Time 2780.00
C          -0.58434542       -0.00000000        0.00000000
C           0.58434542        0.00000000       -0.00000000
H          -0.83926112        0.99963910        0.21554684
H          -0.83926112       -0.99963910       -0.21554684
H           0.83926112        0.99963910       -0.21554684
H           0.83926112       -0.99963910        0.21554684
6
MD Time 2790.00
C          -0.58438176       -0.00000000        0.00000000
C           0.58438176        0.00000000       -0.00000000
H          -0.83822313        0.98568628        0.22609807
H          -0.83822313       -0.98568628       -0.22609807
H           0.83822313        0.98568628       -0.22609807
H           0.83822313       -0.98568628        0.22609807
6
MD Time 2800.00
C          -0.58516351       -0.00000000        0.00000000
C           0.58516351        0.00000000       -0.00000000
H          -0.83924920        0.97247341        0.23642707
H          -0.83924920       -0.97247341       -0.23642707
H           0.83924920        0.97247341       -0.23642707
H           0.83924920       -0.97247341        0.23642707
6
MD Time 2810.00
C          -0.58666039       -0.00000000        0.00000000
C           0.58666039        0.00000000       -0.00000000
H          -0.84240265        0.96031139        0.24655640
H          -0.84240265       -0.96031139       -0.24655640
H           0.84240265        0.96031139       -0.24655640
H           0.84240265       -0.96031139        0.24655640
6
MD Time 2820.00
C          -0.58883270       -0.00000000        0.00000000
C           0.58883270        0.00000000       -0.00000000
H          -0.84773131        0.94948774        0.25650863
H          -0.84773131       -0.94948774       -0.25650863
H           0.84773131        0.94948774       -0.25650863
H           0.84773131       -0.94948774        0.25650863
6
MD Time 2830.00
C          -0.59163330       -0.00000000        0.00000000
C           0.59163330        0.00000000       -0.00000000
H          -0.85526457        0.94025010        0.26630296
H          -0.85526457       -0.94025010       -0.26630296
H           0.85526457        0.94025010       -0.26630296
H           0.85526457       -0.94025010        0.26630296
6
MD Time 2840.00
C          -0.59500989        0.00000000        0.00000000
C           0.59500989        0.00000000       -0.00000000
H          -0.86501031        0.93279059        0.27595140
H          -0.86501031       -0.93279059       -0.27595140
H           0.86501031        0.93279059       -0.27595140
H           0.86501031       -0.93279059        0.27595140
6
MD Time 2850.00
C          -0.59890741        0.00000000        0.00000000
C           0.59890741       -0.00000000       -0.00000000
H          -0.87695185        0.92723261        0.28545495
H          -0.87695185       -0.92723261       -0.28545495
H           0.87695185        0.92723261       -0.28545495
H           0.87695185       -0.92723261        0.28545495
6
MD Time 2860.00
C          -0.60327045        0.00000000        0.00000000
C           0.60327045       -0.00000000       -0.00000000
H          -0.89104538        0.92362236        0.29480025
H          -0.89104538       -0.92362236       -0.29480025
H           0.89104538        0.92362236       -0.29480025
H           0.89104538       -0.92362236        0.29480025
6
MD Time 2870.00
C          -0.60804528        0.00000000        0.00000000
C           0.60804528       -0.00000000       -0.00000000
H          -0.90721819        0.92192622        0.30395739
H          -0.90721819       -0.92192622       -0.30395739
H           0.90721819        0.92192622       -0.30395739
H           0.90721819       -0.92192622        0.30395739
6
MD Time 2880.00
C          -0.61318153        0.00000000        0.00000000
C           0.61318153       -0.00000000       -0.00000000
H          -0.92536823        0.92203437        0.31287920
H          -0.92536823       -0.92203437       -0.31287920
H           0.92536823        0.92203437       -0.31287921
H           0.92536823       -0.92203437        0.31287920
6
MD Time 2890.00
C          -0.61863334        0.00000000        0.00000000
C           0.61863334       -0.00000000       -0.00000000
H          -0.94536506        0.92377020        0.32150227
H          -0.94536506       -0.92377020       -0.32150227
H           0.94536506        0.92377020       -0.32150227
H           0.94536506       -0.92377020        0.32150227
6
MD Time 2900.00
C          -0.62435987        0.00000000        0.00000000
C           0.62435987       -0.00000000       -0.00000000
H          -0.96705233        0.92690391        0.32974945
H          -0.96705233       -0.92690391       -0.32974945
H           0.96705233        0.92690391       -0.32974945
H           0.96705233       -0.92690391        0.32974945
6
MD Time 2910.00
C          -0.63032542        0.00000000        0.00000000
C           0.63032542       -0.00000000       -0.00000000
H          -0.99025159        0.93116834        0.33753355
H          -0.99025159       -0.93116834       -0.33753355
H           0.99025159        0.93116834       -0.33753355
H           0.99025159       -0.93116834        0.33753355
6
MD Time 2920.00
C          -0.63649912        0.00000000        0.00000000
C           0.63649912       -0.00000000       -0.00000000
H          -1.01476690        0.93627523        0.34476158
H          -1.01476690       -0.93627523       -0.34476158
H           1.01476690        0.93627523       -0.34476158
H           1.01476690       -0.93627523        0.34476158
6
MD Time 2930.00
C          -0.64285432        0.00000000        0.00000000
C           0.64285432       -0.00000000       -0.00000000
H          -1.04039008        0.94192998        0.35133910
H          -1.04039008       -0.94192998       -0.35133910
H           1.04039008        0.94192998       -0.35133910
H           1.04039008       -0.94192998        0.35133910
6
MD Time 2940.00
C          -0.64936790        0.00000000        0.00000000
C           0.64936790       -0.00000000       -0.00000000
H          -1.06690590        0.94784417        0.35717417
H          -1.06690590       -0.94784417       -0.35717417
H           1.06690590        0.94784417       -0.35717417
H           1.06690590       -0.94784417        0.35717417
6
MD Time 2950.00
C          -0.65601952        0.00000000        0.00000000
C           0.65601952       -0.00000000       -0.00000000
H          -1.09409699        0.95374509        0.36218063
H          -1.09409699       -0.95374509       -0.36218063
H           1.09409699        0.95374509       -0.36218063
H           1.09409699       -0.95374509        0.36218063
6
MD Time 2960.00
C          -0.66279099        0.00000000        0.00000000
C           0.66279099       -0.00000000       -0.00000000
H          -1.12174813        0.95938239        0.36628062
H          -1.12174813       -0.95938239       -0.36628062
H           1.12174813        0.95938239       -0.36628062
H           1.12174813       -0.95938239        0.36628062
6
MD Time 2970.00
C          -0.66966567        0.00000000        0.00000000
C           0.66966567       -0.00000000       -0.00000000
H          -1.14964987        0.96453210        0.36940625
H          -1.14964987       -0.96453210       -0.36940625
H           1.14964987        0.96453210       -0.36940625
H           1.14964987       -0.96453210        0.36940625
6
MD Time 2980.00
C          -0.67662805        0.00000000        0.00000000
C           0.67662805       -0.00000000       -0.00000000
H          -1.17760125        0.96899866        0.37150064
H          -1.17760125       -0.96899866       -0.37150064
H           1.17760125        0.96899866       -0.37150064
H           1.17760125       -0.96899866        0.37150064
6
MD Time 2990.00
C          -0.68366344        0.00000000        0.00000000
C           0.68366344       -0.00000000       -0.00000000
H          -1.20541189        0.97261519        0.37251829
H          -1.20541189       -0.97261519       -0.37251829
H           1.20541189        0.97261519       -0.37251829
H           1.20541189       -0.97261519        0.37251829
