6
MD Time 0.00
C          -1.00424993        0.00000000        0.00000000
C           1.00424993        0.00000000        0.00000000
H          -1.57974221        0.85087473        0.35244385
H          -1.57974221       -0.85087473       -0.35244385
H           1.57974221        0.85087473       -0.35244385
H           1.57974221       -0.85087473        0.35244385
6
MD Time 10.00
C          -1.00410750       -0.00000000       -0.00000000
C           1.00410750        0.00000000       -0.00000000
H          -1.57963047        0.85108995        0.35238561
H          -1.57963047       -0.85108995       -0.35238561
H           1.57963047        0.85108995       -0.35238561
H           1.57963047       -0.85108995        0.35238561
6
MD Time 20.00
C          -1.00368058       -0.00000000       -0.00000000
C           1.00368058        0.00000000       -0.00000000
H          -1.57929279        0.85173084        0.35221016
H          -1.57929279       -0.85173084       -0.35221016
H           1.57929279        0.85173084       -0.35221016
H           1.57929279       -0.85173084        0.35221016
6
MD Time 30.00
C          -1.00297026       -0.00000000       -0.00000000
C           1.00297026        0.00000000       -0.00000000
H          -1.57872193        0.85278315        0.35191541
H          -1.57872193       -0.85278315       -0.35191541
H           1.57872193        0.85278315       -0.35191541
H           1.57872193       -0.85278315        0.35191541
6
MD Time 40.00
C          -1.00197828       -0.00000000       -0.00000000
C           1.00197828        0.00000000       -0.00000000
H          -1.57790613        0.85422366        0.35149805
H          -1.57790613       -0.85422366       -0.35149805
H           1.57790613        0.85422366       -0.35149805
H           1.57790613       -0.85422366        0.35149805
6
MD Time 50.00
C          -1.00070695       -0.00000000       -0.00000000
C           1.00070695        0.00000000       -0.00000000
H          -1.57682965        0.85602096        0.35095376
H          -1.57682965       -0.85602096       -0.35095376
H           1.57682965        0.85602096       -0.35095376
H           1.57682965       -0.85602096        0.35095376
6
MD Time 60.00
C          -0.99915909       -0.00000000       -0.00000000
C           0.99915909        0.00000000       -0.00000000
H          -1.57547340        0.85813638        0.35027758
H          -1.57547340       -0.85813638       -0.35027758
H           1.57547340        0.85813638       -0.35027758
H           1.57547340       -0.85813638        0.35027758
6
MD Time 70.00
C          -0.99733784       -0.00000000       -0.00000000
C           0.99733784        0.00000000       -0.00000000
H          -1.57381568        0.86052526        0.34946421
H          -1.57381568       -0.86052526       -0.34946421
H           1.57381568        0.86052526       -0.34946421
H           1.57381568       -0.86052526        0.34946421
6
MD Time 80.00
C          -0.99524651       -0.00000000       -0.00000000
C           0.99524651        0.00000000       -0.00000000
H          -1.57183312        0.86313824        0.34850849
H          -1.57183312       -0.86313824       -0.34850849
H           1.57183312        0.86313824       -0.34850849
H           1.57183312       -0.86313824        0.34850849
6
MD Time 90.00
C          -0.99288852       -0.00000000       -0.00000000
C           0.99288852        0.00000000       -0.00000000
H          -1.56950149        0.86592271        0.34740578
H          -1.56950149       -0.86592271       -0.34740578
H           1.56950149        0.86592271       -0.34740578
H           1.56950149       -0.86592271        0.34740578
6
MD Time 100.00
C          -0.99026712       -0.00000000       -0.00000000
C           0.99026712        0.00000000       -0.00000000
H          -1.56679668        0.86882429        0.34615239
H          -1.56679668       -0.86882429       -0.34615239
H           1.56679668        0.86882429       -0.34615239
H           1.56679668       -0.86882429        0.34615239
6
MD Time 110.00
C          -0.98738534       -0.00000000       -0.00000000
C           0.98738534        0.00000000       -0.00000000
H          -1.56369555        0.87178824        0.34474599
H          -1.56369555       -0.87178824       -0.34474599
H           1.56369555        0.87178824       -0.34474599
H           1.56369555       -0.87178824        0.34474599
6
MD Time 120.00
C          -0.98424581       -0.00000000       -0.00000000
C           0.98424581        0.00000000       -0.00000000
H          -1.56017678        0.87476087        0.34318590
H          -1.56017678       -0.87476087       -0.34318590
H           1.56017678        0.87476087       -0.34318590
H           1.56017678       -0.87476087        0.34318590
6
MD Time 130.00
C          -0.98085064       -0.00000000       -0.00000000
C           0.98085064        0.00000000       -0.00000000
H          -1.55622159        0.87769086        0.34147349
H          -1.55622159       -0.87769086       -0.34147349
H           1.55622159        0.87769086       -0.34147349
H           1.55622159       -0.87769086        0.34147349
6
MD Time 140.00
C          -0.97720133       -0.00000000       -0.00000000
C           0.97720133        0.00000000       -0.00000000
H          -1.55181441        0.88053039        0.33961237
H          -1.55181441       -0.88053039       -0.33961237
H           1.55181441        0.88053039       -0.33961237
H           1.55181441       -0.88053039        0.33961237
6
MD Time 150.00
C          -0.97329866       -0.00000000       -0.00000000
C           0.97329866        0.00000000       -0.00000000
H          -1.54694340        0.88323618        0.33760858
H          -1.54694340       -0.88323618       -0.33760858
H           1.54694340        0.88323618       -0.33760858
H           1.54694340       -0.88323618        0.33760858
6
MD Time 160.00
C          -0.96914260       -0.00000000       -0.00000000
C           0.96914260        0.00000000       -0.00000000
H          -1.54160091        0.88577040        0.33547073
H          -1.54160091       -0.88577040       -0.33547073
H           1.54160091        0.88577040       -0.33547073
H           1.54160091       -0.88577040        0.33547073
6
MD Time 170.00
C          -0.96473235       -0.00000000       -0.00000000
C           0.96473235        0.00000000       -0.00000000
H          -1.53578374        0.88810136        0.33321004
H          -1.53578374       -0.88810136       -0.33321004
H           1.53578374        0.88810136       -0.33321004
H           1.53578374       -0.88810136        0.33321004
6
MD Time 180.00
C          -0.96006622       -0.00000000       -0.00000000
C           0.96006622        0.00000000       -0.00000000
H          -1.52949334        0.89020407        0.33084034
H          -1.52949334       -0.89020407       -0.33084034
H           1.52949334        0.89020407       -0.33084034
H           1.52949334       -0.89020407        0.33084034
6
MD Time 190.00
C          -0.95514167       -0.00000000       -0.00000000
C           0.95514167        0.00000000       -0.00000000
H          -1.52273585        0.89206062        0.32837797
H          -1.52273585       -0.89206062       -0.32837797
H           1.52273585        0.89206062       -0.32837797
H           1.52273585       -0.89206062        0.32837797
6
MD Time 200.00
C          -0.94995533       -0.00000000       -0.00000000
C           0.94995533        0.00000000       -0.00000000
H          -1.51552209        0.89366039        0.32584168
H          -1.51552209       -0.89366039       -0.32584168
H           1.51552209        0.89366039       -0.32584168
H           1.51552209       -0.89366039        0.32584168
6
MD Time 210.00
C          -0.94450305       -0.00000000       -0.00000000
C           0.94450305        0.00000000       -0.00000000
H          -1.50786731        0.89500012        0.32325237
H          -1.50786731       -0.89500012       -0.32325237
H           1.50786731        0.89500012       -0.32325237
H           1.50786731       -0.89500012        0.32325237
6
MD Time 220.00
C          -0.93877992       -0.00000000       -0.00000000
C           0.93877992        0.00000000       -0.00000000
H          -1.49979094        0.89608372        0.32063287
H          -1.49979094       -0.89608372       -0.32063287
H           1.49979094        0.89608372       -0.32063287
H           1.49979094       -0.89608372        0.32063287
6
MD Time 230.00
C          -0.93278043       -0.00000000       -0.00000000
C           0.93278043        0.00000000       -0.00000000
H          -1.49131618        0.89692204        0.31800759
H          -1.49131618       -0.89692204       -0.31800759
H           1.49131618        0.89692204       -0.31800759
H           1.49131618       -0.89692204        0.31800759
6
MD Time 240.00
C          -0.92649850       -0.00000000       -0.00000000
C           0.92649850        0.00000000       -0.00000000
H          -1.48246946        0.89753233        0.31540215
H          -1.48246946       -0.89753233       -0.31540215
H           1.48246946        0.89753233       -0.31540215
H           1.48246946       -0.89753233        0.31540215
6
MD Time 250.00
C          -0.91992766       -0.00000000       -0.00000000
C           0.91992766        0.00000000       -0.00000000
H          -1.47327985        0.89793767        0.31284293
H          -1.47327985       -0.89793767       -0.31284293
H           1.47327985        0.89793767       -0.31284293
H           1.47327985       -0.89793767        0.31284293
6
MD Time 260.00
C          -0.91306122       -0.00000000       -0.00000000
C           0.91306122        0.00000000       -0.00000000
H          -1.46377834        0.89816608        0.31035660
H          -1.46377834       -0.89816608       -0.31035660
H           1.46377834        0.89816608       -0.31035660
H           1.46377834       -0.89816608        0.31035660
6
MD Time 270.00
C          -0.90589239       -0.00000000       -0.00000000
C           0.90589239        0.00000000       -0.00000000
H          -1.45399704        0.89824965        0.30796960
H          -1.45399704       -0.89824965       -0.30796960
H           1.45399704        0.89824965       -0.30796960
H           1.45399704       -0.89824965        0.30796960
6
MD Time 280.00
C          -0.89841453       -0.00000000       -0.00000000
C           0.89841453        0.00000000       -0.00000000
H          -1.44396834        0.89822339        0.30570755
H          -1.44396834       -0.89822339       -0.30570755
H           1.44396834        0.89822339       -0.30570755
H           1.44396834       -0.89822339        0.30570755
6
MD Time 290.00
C          -0.89062135       -0.00000000       -0.00000000
C           0.89062135        0.00000000       -0.00000000
H          -1.43372398        0.89812408        0.30359473
H          -1.43372398       -0.89812408       -0.30359473
H           1.43372398        0.89812408       -0.30359473
H           1.43372398       -0.89812408        0.30359473
6
MD Time 300.00
C          -0.88250714       -0.00000000       -0.00000000
C           0.88250714        0.00000000       -0.00000000
H          -1.42329413        0.89798896        0.30165345
H          -1.42329413       -0.89798896       -0.30165345
H           1.42329413        0.89798896       -0.30165345
H           1.42329413       -0.89798896        0.30165345
6
MD Time 310.00
C          -0.87406703       -0.00000000       -0.00000000
C           0.87406703        0.00000000       -0.00000000
H          -1.41270650        0.89785446        0.29990355
H          -1.41270650       -0.89785446       -0.29990355
H           1.41270650        0.89785446       -0.29990355
H           1.41270650       -0.89785446        0.29990355
6
MD Time 320.00
C          -0.86529726       -0.00000000       -0.00000000
C           0.86529726        0.00000000       -0.00000000
H          -1.40198543        0.89775488        0.29836179
H          -1.40198543       -0.89775488       -0.29836179
H           1.40198543        0.89775488       -0.29836179
H           1.40198543       -0.89775488        0.29836179
6
MD Time 330.00
C          -0.85619547       -0.00000000       -0.00000000
C           0.85619547        0.00000000       -0.00000000
H          -1.39115112        0.89772119        0.29704144
H          -1.39115112       -0.89772119       -0.29704144
H           1.39115112        0.89772119       -0.29704144
H           1.39115112       -0.89772119        0.29704144
6
MD Time 340.00
C          -0.84676093       -0.00000000       -0.00000000
C           0.84676093        0.00000000        0.00000000
H          -1.38021895        0.89777990        0.29595189
H          -1.38021895       -0.89777990       -0.29595189
H           1.38021895        0.89777990       -0.29595189
H           1.38021895       -0.89777990        0.29595189
6
MD Time 350.00
C          -0.83699492       -0.00000000       -0.00000000
C           0.83699492        0.00000000        0.00000000
H          -1.36919892        0.89795218        0.29509830
H          -1.36919892       -0.89795218       -0.29509830
H           1.36919892        0.89795218       -0.29509830
H           1.36919892       -0.89795218        0.29509830
6
MD Time 360.00
C          -0.82690099       -0.00000000       -0.00000000
C           0.82690099        0.00000000        0.00000000
H          -1.35809535        0.89825310        0.29448145
H          -1.35809535       -0.89825310       -0.29448145
H           1.35809535        0.89825310       -0.29448145
H           1.35809535       -0.89825310        0.29448145
6
MD Time 370.00
C          -0.81648530       -0.00000000       -0.00000000
C           0.81648530        0.00000000        0.00000000
H          -1.34690666        0.89869121        0.29409767
H          -1.34690666       -0.89869121       -0.29409767
H           1.34690666        0.89869121       -0.29409767
H           1.34690666       -0.89869121        0.29409767
6
MD Time 380.00
C          -0.80575696       -0.00000000       -0.00000000
C           0.80575696        0.00000000        0.00000000
H          -1.33562548        0.89926840        0.29393893
H          -1.33562548       -0.89926840       -0.29393893
H           1.33562548        0.89926840       -0.29393893
H           1.33562548       -0.89926840        0.29393893
6
MD Time 390.00
C          -0.79472843       -0.00000000       -0.00000000
C           0.79472843        0.00000000        0.00000000
H          -1.32423893        0.89997999        0.29399302
H          -1.32423893       -0.89997999       -0.29399302
H           1.32423893        0.89997999       -0.29399302
H           1.32423893       -0.89997999        0.29399302
6
MD Time 400.00
C          -0.78341592       -0.00000000       -0.00000000
C           0.78341592        0.00000000        0.00000000
H          -1.31272909        0.90081516        0.29424390
H          -1.31272909       -0.90081516       -0.29424390
H           1.31272909        0.90081516       -0.29424390
H           1.31272909       -0.90081516        0.29424390
6
MD Time 410.00
C          -0.77183987       -0.00000000       -0.00000000
C           0.77183987        0.00000000        0.00000000
H          -1.30107370        0.90175764        0.29467217
H          -1.30107370       -0.90175764       -0.29467217
H           1.30107370        0.90175764       -0.29467217
H           1.30107370       -0.90175764        0.29467217
6
MD Time 420.00
C          -0.76002544       -0.00000000       -0.00000000
C           0.76002544        0.00000000        0.00000000
H          -1.28924707        0.90278659        0.29525559
H          -1.28924707       -0.90278659       -0.29525559
H           1.28924707        0.90278659       -0.29525559
H           1.28924707       -0.90278659        0.29525559
6
MD Time 430.00
C          -0.74800319       -0.00000000       -0.00000000
C           0.74800319        0.00000000        0.00000000
H          -1.27722107        0.90387767        0.29596976
H          -1.27722107       -0.90387767       -0.29596976
H           1.27722107        0.90387767       -0.29596976
H           1.27722107       -0.90387767        0.29596976
6
MD Time 440.00
C          -0.73580966       -0.00000000       -0.00000000
C           0.73580966        0.00000000        0.00000000
H          -1.26496629        0.90500429        0.29678877
H          -1.26496629       -0.90500429       -0.29678877
H           1.26496629        0.90500429       -0.29678877
H           1.26496629       -0.90500429        0.29678877
6
MD Time 450.00
C          -0.72348815       -0.00000000       -0.00000000
C           0.72348815        0.00000000        0.00000000
H          -1.25245329        0.90613888        0.29768595
H          -1.25245329       -0.90613888       -0.29768595
H           1.25245329        0.90613888       -0.29768595
H           1.25245329       -0.90613888        0.29768595
6
MD Time 460.00
C          -0.71108948       -0.00000000       -0.00000000
C           0.71108948        0.00000000        0.00000000
H          -1.23965391        0.90725423        0.29863460
H          -1.23965391       -0.90725423       -0.29863460
H           1.23965391        0.90725423       -0.29863460
H           1.23965391       -0.90725423        0.29863460
6
MD Time 470.00
C          -0.69867283       -0.00000000       -0.00000000
C           0.69867283        0.00000000        0.00000000
H          -1.22654267        0.90832485        0.29960872
H          -1.22654267       -0.90832485       -0.29960872
H           1.22654267        0.90832485       -0.29960872
H           1.22654267       -0.90832485        0.29960872
6
MD Time 480.00
C          -0.68630642       -0.00000000       -0.00000000
C           0.68630642        0.00000000        0.00000000
H          -1.21309813        0.90932824        0.30058368
H          -1.21309813       -0.90932824       -0.30058368
H           1.21309813        0.90932824       -0.30058368
H           1.21309813       -0.90932824        0.30058368
6
MD Time 490.00
C          -0.67406824       -0.00000000       -0.00000000
C           0.67406824        0.00000000        0.00000000
H          -1.19930434        0.91024617        0.30153689
H          -1.19930434       -0.91024617       -0.30153689
H           1.19930434        0.91024617       -0.30153689
H           1.19930434       -0.91024617        0.30153689
6
MD Time 500.00
C          -0.66204642       -0.00000000       -0.00000000
C           0.66204642        0.00000000        0.00000000
H          -1.18515231        0.91106579        0.30244836
H          -1.18515231       -0.91106579       -0.30244836
H           1.18515231        0.91106579       -0.30244836
H           1.18515231       -0.91106579        0.30244836
6
MD Time 510.00
C          -0.65033933       -0.00000000       -0.00000000
C           0.65033933        0.00000000        0.00000000
H          -1.17064144        0.91178079        0.30330123
H          -1.17064144       -0.91178079       -0.30330123
H           1.17064144        0.91178079       -0.30330123
H           1.17064144       -0.91178079        0.30330123
6
MD Time 520.00
C          -0.63905516       -0.00000000       -0.00000000
C           0.63905516        0.00000000        0.00000000
H          -1.15578101        0.91239233        0.30408216
H          -1.15578101       -0.91239233       -0.30408216
H           1.15578101        0.91239233       -0.30408216
H           1.15578101       -0.91239233        0.30408216
6
MD Time 530.00
C          -0.62831085       -0.00000000       -0.00000000
C           0.62831085        0.00000000        0.00000000
H          -1.14059168        0.91290995        0.30478173
H          -1.14059168       -0.91290995       -0.30478173
H           1.14059168        0.91290995       -0.30478173
H           1.14059168       -0.91290995        0.30478173
6
MD Time 540.00
C          -0.61823018       -0.00000000       -0.00000000
C           0.61823018        0.00000000        0.00000000
H          -1.12510692        0.91335232        0.30539465
H          -1.12510692       -0.91335232       -0.30539465
H           1.12510692        0.91335232       -0.30539465
H           1.12510692       -0.91335232        0.30539465
6
MD Time 550.00
C          -0.60894097       -0.00000000       -0.00000000
C           0.60894097        0.00000000        0.00000000
H          -1.10937436        0.91374786        0.30591993
H          -1.10937436       -0.91374786       -0.30591993
H           1.10937436        0.91374786       -0.30591993
H           1.10937436       -0.91374786        0.30591993
6
MD Time 560.00
C          -0.60057124       -0.00000000       -0.00000000
C           0.60057124        0.00000000        0.00000000
H          -1.09345709        0.91413517        0.30636090
H          -1.09345709       -0.91413517       -0.30636090
H           1.09345709        0.91413517       -0.30636090
H           1.09345709       -0.91413517        0.30636090
6
MD Time 570.00
C          -0.59324450       -0.00000000       -0.00000000
C           0.59324450        0.00000000        0.00000000
H          -1.07743464        0.91456322        0.30672513
H          -1.07743464       -0.91456322       -0.30672513
H           1.07743464        0.91456322       -0.30672513
H           1.07743464       -0.91456322        0.30672513
6
MD Time 580.00
C          -0.58707424       -0.00000000       -0.00000000
C           0.58707424        0.00000000        0.00000000
H          -1.06140365        0.91509120        0.30702424
H          -1.06140365       -0.91509120       -0.30702424
H           1.06140365        0.91509120       -0.30702424
H           1.06140365       -0.91509120        0.30702424
6
MD Time 590.00
C          -0.58215817       -0.00000000       -0.00000000
C           0.58215817        0.00000000        0.00000000
H          -1.04547805        0.91578791        0.30727341
H          -1.04547805       -0.91578791       -0.30727341
H           1.04547805        0.91578791       -0.30727341
H           1.04547805       -0.91578791        0.30727341
6
MD Time 600.00
C          -0.57857251       -0.00000000       -0.00000000
C           0.57857251        0.00000000        0.00000000
H          -1.02978854        0.91673066        0.30749089
H          -1.02978854       -0.91673066       -0.30749089
H           1.02978854        0.91673066       -0.30749089
H           1.02978854       -0.91673066        0.30749089
6
MD Time 610.00
C          -0.57636704       -0.00000000       -0.00000000
C           0.57636704        0.00000000        0.00000000
H          -1.01448131        0.91800332        0.30769714
H          -1.01448131       -0.91800332       -0.30769714
H           1.01448131        0.91800332       -0.30769714
H           1.01448131       -0.91800332        0.30769714
6
MD Time 620.00
C          -0.57556150       -0.00000000       -0.00000000
C           0.57556150        0.00000000        0.00000000
H          -0.99971583        0.91969366        0.30791384
H          -0.99971583       -0.91969366       -0.30791384
H           0.99971583        0.91969366       -0.30791384
H           0.99971583       -0.91969366        0.30791384
6
MD Time 630.00
C          -0.57614380       -0.00000000       -0.00000000
C           0.57614380        0.00000000        0.00000000
H          -0.98566167        0.92188962        0.30816258
H          -0.98566167       -0.92188962       -0.30816258
H           0.98566167        0.92188962       -0.30816258
H           0.98566167       -0.92188962        0.30816258
6
MD Time 640.00
C          -0.57807029       -0.00000000       -0.00000000
C           0.57807029        0.00000000        0.00000000
H          -0.97249444        0.92467477        0.30846352
H          -0.97249444       -0.92467477       -0.30846352
H           0.97249444        0.92467477       -0.30846352
H           0.97249444       -0.92467477        0.30846352
6
MD Time 650.00
C          -0.58126810       -0.00000000       -0.00000000
C           0.58126810        0.00000000        0.00000000
H          -0.96039101        0.92812290        0.30883375
H          -0.96039101       -0.92812290       -0.30883375
H           0.96039101        0.92812290       -0.30883375
H           0.96039101       -0.92812290        0.30883375
6
MD Time 660.00
C          -0.58563927       -0.00000000       -0.00000000
C           0.58563927        0.00000000        0.00000000
H          -0.94952429        0.93229217        0.30928576
H          -0.94952429       -0.93229217       -0.30928576
H           0.94952429        0.93229217       -0.30928576
H           0.94952429       -0.93229217        0.30928576
6
MD Time 670.00
C          -0.59106619       -0.00000000       -0.00000000
C           0.59106619        0.00000000        0.00000000
H          -0.94005797        0.93721930        0.30982608
H          -0.94005797       -0.93721930       -0.30982608
H           0.94005797        0.93721930       -0.30982608
H           0.94005797       -0.93721930        0.30982608
6
MD Time 680.00
C          -0.59741764       -0.00000000       -0.00000000
C           0.59741764        0.00000000        0.00000000
H          -0.93214160        0.94291427        0.31045414
H          -0.93214160       -0.94291427       -0.31045414
H           0.93214160        0.94291427       -0.31045414
H           0.93214160       -0.94291427        0.31045414
6
MD Time 690.00
C          -0.60455493       -0.00000000       -0.00000000
C           0.60455493        0.00000000        0.00000000
H          -0.92590631        0.94935633        0.31116166
H          -0.92590631       -0.94935633       -0.31116166
H           0.92590631        0.94935633       -0.31116166
H           0.92590631       -0.94935633        0.31116166
6
MD Time 700.00
C          -0.61233756       -0.00000000       -0.00000000
C           0.61233756        0.00000000        0.00000000
H          -0.92146153        0.95649167        0.31193259
H          -0.92146153       -0.95649167       -0.31193259
H           0.92146153        0.95649167       -0.31193259
H           0.92146153       -0.95649167        0.31193259
6
MD Time 710.00
C          -0.62062805       -0.00000000       -0.00000000
C           0.62062805        0.00000000        0.00000000
H          -0.91889275        0.96423318        0.31274363
H          -0.91889275       -0.96423318       -0.31274363
H           0.91889275        0.96423318       -0.31274363
H           0.91889275       -0.96423318        0.31274363
6
MD Time 720.00
C          -0.62929579       -0.00000000       -0.00000000
C           0.62929579        0.00000000        0.00000000
H          -0.91826042        0.97246232        0.31356525
H          -0.91826042       -0.97246232       -0.31356525
H           0.91826042        0.97246232       -0.31356525
H           0.91826042       -0.97246232        0.31356525
6
MD Time 730.00
C          -0.63821971       -0.00000000       -0.00000000
C           0.63821971        0.00000000        0.00000000
H          -0.91959978        0.98103286        0.31436319
H          -0.91959978       -0.98103286       -0.31436319
H           0.91959978        0.98103286       -0.31436319
H           0.91959978       -0.98103286        0.31436319
6
MD Time 740.00
C          -0.64729015       -0.00000000       -0.00000000
C           0.64729015        0.00000000        0.00000000
H          -0.92292159        0.98977614        0.31510013
H          -0.92292159       -0.98977614       -0.31510013
H           0.92292159        0.98977614       -0.31510013
H           0.92292159       -0.98977614        0.31510013
6
MD Time 750.00
C          -0.65640966       -0.00000000       -0.00000000
C           0.65640966        0.00000000        0.00000000
H          -0.92821344        0.99850724        0.31573754
H          -0.92821344       -0.99850724       -0.31573754
H           0.92821344        0.99850724       -0.31573754
H           0.92821344       -0.99850724        0.31573754
6
MD Time 760.00
C          -0.66549333       -0.00000000       -0.00000000
C           0.66549333        0.00000000        0.00000000
H          -0.93544152        1.00703147        0.31623730
H          -0.93544152       -1.00703147       -0.31623730
H           0.93544152        1.00703147       -0.31623730
H           0.93544152       -1.00703147        0.31623730
6
MD Time 770.00
C          -0.67446847       -0.00000000       -0.00000000
C           0.67446847        0.00000000        0.00000000
H          -0.94455268        1.01515086        0.31656333
H          -0.94455268       -1.01515086       -0.31656333
H           0.94455268        1.01515086       -0.31656333
H           0.94455268       -1.01515086        0.31656333
6
MD Time 780.00
C          -0.68327401       -0.00000000       -0.00000000
C           0.68327401        0.00000000        0.00000000
H          -0.95547663        1.02266996        0.31668285
H          -0.95547663       -1.02266996       -0.31668285
H           0.95547663        1.02266996       -0.31668285
H           0.95547663       -1.02266996        0.31668285
6
MD Time 790.00
C          -0.69185966       -0.00000000       -0.00000000
C           0.69185966        0.00000000        0.00000000
H          -0.96812809        1.02940109        0.31656739
H          -0.96812809       -1.02940109       -0.31656739
H           0.96812809        1.02940109       -0.31656739
H           0.96812809       -1.02940109        0.31656739
6
MD Time 800.00
C          -0.70018500       -0.00000000       -0.00000000
C           0.70018500        0.00000000        0.00000000
H          -0.98240901        1.03516862        0.31619357
H          -0.98240901       -1.03516862       -0.31619357
H           0.98240901        1.03516862       -0.31619357
H           0.98240901       -1.03516862        0.31619357
6
MD Time 810.00
C          -0.70821844       -0.00000000       -0.00000000
C           0.70821844        0.00000000        0.00000000
H          -0.99821059        1.03981248        0.31554360
H          -0.99821059       -1.03981248       -0.31554360
H           0.99821059        1.03981248       -0.31554360
H           0.99821059       -1.03981248        0.31554360
6
MD Time 820.00
C          -0.71593631       -0.00000000       -0.00000000
C           0.71593631        0.00000000        0.00000000
H          -1.01541513        1.04319089        0.31460564
H          -1.01541513       -1.04319089       -0.31460564
H           1.01541513        1.04319089       -0.31460564
H           1.01541513       -1.04319089        0.31460564
6
MD Time 830.00
C          -0.72332184       -0.00000000       -0.00000000
C           0.72332184        0.00000000        0.00000000
H          -1.03389784        1.04518244        0.31337391
H          -1.03389784       -1.04518244       -0.31337391
H           1.03389784        1.04518244       -0.31337391
H           1.03389784       -1.04518244        0.31337391
6
MD Time 840.00
C          -0.73036438       -0.00000000       -0.00000000
C           0.73036438        0.00000000        0.00000000
H          -1.05352835        1.04568760        0.31184880
H          -1.05352835       -1.04568760       -0.31184880
H           1.05352835        1.04568760       -0.31184880
H           1.05352835       -1.04568760        0.31184880
6
MD Time 850.00
C          -0.73705854       -0.00000000       -0.00000000
C           0.73705854        0.00000000        0.00000000
H          -1.07417222        1.04462992        0.31003676
H          -1.07417222       -1.04462992       -0.31003676
H           1.07417222        1.04462992       -0.31003676
H           1.07417222       -1.04462992        0.31003676
6
MD Time 860.00
C          -0.74340344       -0.00000000       -0.00000000
C           0.74340344        0.00000000        0.00000000
H          -1.09569219        1.04195678        0.30795023
H          -1.09569219       -1.04195678       -0.30795023
H           1.09569219        1.04195678       -0.30795023
H           1.09569219       -1.04195678        0.30795023
6
MD Time 870.00
C          -0.74940210       -0.00000000       -0.00000000
C           0.74940210        0.00000000        0.00000000
H          -1.11794947        1.03764000        0.30560744
H          -1.11794947       -1.03764000       -0.30560744
H           1.11794947        1.03764000       -0.30560744
H           1.11794947       -1.03764000        0.30560744
6
MD Time 880.00
C          -0.75506076       -0.00000000       -0.00000000
C           0.75506076        0.00000000        0.00000000
H          -1.14080492        1.03167621        0.30303227
H          -1.14080492       -1.03167621       -0.30303227
H           1.14080492        1.03167621       -0.30303227
H           1.14080492       -1.03167621        0.30303227
6
MD Time 890.00
C          -0.76038838       -0.00000000       -0.00000000
C           0.76038838        0.00000000        0.00000000
H          -1.16412015        1.02408706        0.30025393
H          -1.16412015       -1.02408706       -0.30025393
H           1.16412015        1.02408706       -0.30025393
H           1.16412015       -1.02408706        0.30025393
6
MD Time 900.00
C          -0.76539608       -0.00000000       -0.00000000
C           0.76539608        0.00000000        0.00000000
H          -1.18775873        1.01491926        0.29730673
H          -1.18775873       -1.01491926       -0.29730673
H           1.18775873        1.01491926       -0.29730673
H           1.18775873       -1.01491926        0.29730673
6
MD Time 910.00
C          -0.77009666       -0.00000000       -0.00000000
C           0.77009666        0.00000000        0.00000000
H          -1.21158725        1.00424436        0.29422973
H          -1.21158725       -1.00424436       -0.29422973
H           1.21158725        1.00424436       -0.29422973
H           1.21158725       -1.00424436        0.29422973
6
MD Time 920.00
C          -0.77450420       -0.00000000       -0.00000000
C           0.77450420        0.00000000        0.00000000
H          -1.23547641        0.99215836        0.29106634
H          -1.23547641       -0.99215836       -0.29106634
H           1.23547641        0.99215836       -0.29106634
H           1.23547641       -0.99215836        0.29106634
6
MD Time 930.00
C          -0.77863363       -0.00000000       -0.00000000
C           0.77863363        0.00000000        0.00000000
H          -1.25930211        0.97878093        0.28786386
H          -1.25930211       -0.97878093       -0.28786386
H           1.25930211        0.97878093       -0.28786386
H           1.25930211       -0.97878093        0.28786386
6
MD Time 940.00
C          -0.78250038       -0.00000000       -0.00000000
C           0.78250038        0.00000000        0.00000000
H          -1.28294630        0.96425433        0.28467290
H          -1.28294630       -0.96425433       -0.28467290
H           1.28294630        0.96425433       -0.28467290
H           1.28294630       -0.96425433        0.28467290
6
MD Time 950.00
C          -0.78612006       -0.00000000       -0.00000000
C           0.78612006        0.00000000        0.00000000
H          -1.30629781        0.94874188        0.28154676
H          -1.30629781       -0.94874188       -0.28154676
H           1.30629781        0.94874188       -0.28154676
H           1.30629781       -0.94874188        0.28154676
6
MD Time 960.00
C          -0.78950821       -0.00000000       -0.00000000
C           0.78950821        0.00000000        0.00000000
H          -1.32925282        0.93242598        0.27854071
H          -1.32925282       -0.93242598       -0.27854071
H           1.32925282        0.93242598       -0.27854071
H           1.32925282       -0.93242598        0.27854071
6
MD Time 970.00
C          -0.79268007       -0.00000000       -0.00000000
C           0.79268007        0.00000000        0.00000000
H          -1.35171517        0.91550566        0.27571111
H          -1.35171517       -0.91550566       -0.27571111
H           1.35171517        0.91550566       -0.27571111
H           1.35171517       -0.91550566        0.27571111
6
MD Time 980.00
C          -0.79565048       -0.00000000       -0.00000000
C           0.79565048        0.00000000        0.00000000
H          -1.37359624        0.89819369        0.27311453
H          -1.37359624       -0.89819369       -0.27311453
H           1.37359624        0.89819369       -0.27311453
H           1.37359624       -0.89819369        0.27311453
6
MD Time 990.00
C          -0.79843377       -0.00000000       -0.00000000
C           0.79843377        0.00000000        0.00000000
H          -1.39481452        0.88071311        0.27080676
H          -1.39481452       -0.88071311       -0.27080676
H           1.39481452        0.88071311       -0.27080676
H           1.39481452       -0.88071311        0.27080676
6
MD Time 1000.00
C          -0.80104375       -0.00000000       -0.00000000
C           0.80104375        0.00000000        0.00000000
H          -1.41529485        0.86329349        0.26884178
H          -1.41529485       -0.86329349       -0.26884178
H           1.41529485        0.86329349       -0.26884178
H           1.41529485       -0.86329349        0.26884178
6
MD Time 1010.00
C          -0.80349376       -0.00000000       -0.00000000
C           0.80349376        0.00000000        0.00000000
H          -1.43496736        0.84616674        0.26727060
H          -1.43496736       -0.84616674       -0.26727060
H           1.43496736        0.84616674       -0.26727060
H           1.43496736       -0.84616674        0.26727060
6
MD Time 1020.00
C          -0.80579675       -0.00000000       -0.00000000
C           0.80579675        0.00000000        0.00000000
H          -1.45376619        0.82956267        0.26614023
H          -1.45376619       -0.82956267       -0.26614023
H           1.45376619        0.82956267       -0.26614023
H           1.45376619       -0.82956267        0.26614023
6
MD Time 1030.00
C          -0.80796540       -0.00000000       -0.00000000
C           0.80796540        0.00000000        0.00000000
H          -1.47162812        0.81370440        0.26549245
H          -1.47162812       -0.81370440       -0.26549245
H           1.47162812        0.81370440       -0.26549245
H           1.47162812       -0.81370440        0.26549245
6
MD Time 1040.00
C          -0.81001220       -0.00000000       -0.00000000
C           0.81001220        0.00000000        0.00000000
H          -1.48849119        0.79880375        0.26536280
H          -1.48849119       -0.79880375       -0.26536280
H           1.48849119        0.79880375       -0.26536280
H           1.48849119       -0.79880375        0.26536280
6
MD Time 1050.00
C          -0.81194961       -0.00000000       -0.00000000
C           0.81194961        0.00000000        0.00000000
H          -1.50429343        0.78505676        0.26577952
H          -1.50429343       -0.78505676       -0.26577952
H           1.50429343        0.78505676       -0.26577952
H           1.50429343       -0.78505676        0.26577952
6
MD Time 1060.00
C          -0.81379013       -0.00000000       -0.00000000
C           0.81379013        0.00000000        0.00000000
H          -1.51897179        0.77263963        0.26676262
H          -1.51897179       -0.77263963       -0.26676262
H           1.51897179        0.77263963       -0.26676262
H           1.51897179       -0.77263963        0.26676262
6
MD Time 1070.00
C          -0.81554637       -0.00000000       -0.00000000
C           0.81554637        0.00000000        0.00000000
H          -1.53246152        0.76170511        0.26832313
H          -1.53246152       -0.76170511       -0.26832313
H           1.53246152        0.76170511       -0.26832313
H           1.53246152       -0.76170511        0.26832313
6
MD Time 1080.00
C          -0.81723105       -0.00000000       -0.00000000
C           0.81723105        0.00000000        0.00000000
H          -1.54469578        0.75237958        0.27046257
H          -1.54469578       -0.75237958       -0.27046257
H           1.54469578        0.75237958       -0.27046257
H           1.54469578       -0.75237958        0.27046257
6
MD Time 1090.00
C          -0.81885694       -0.00000000       -0.00000000
C           0.81885694        0.00000000        0.00000000
H          -1.55560591        0.74476091        0.27317254
H          -1.55560591       -0.74476091       -0.27317254
H           1.55560591        0.74476091       -0.27317254
H           1.55560591       -0.74476091        0.27317254
6
MD Time 1100.00
C          -0.82043678       -0.00000000       -0.00000000
C           0.82043678        0.00000000        0.00000000
H          -1.56512206        0.73891714        0.27643467
H          -1.56512206       -0.73891714       -0.27643467
H           1.56512206        0.73891714       -0.27643467
H           1.56512206       -0.73891714        0.27643467
6
MD Time 1110.00
C          -0.82198300       -0.00000000       -0.00000000
C           0.82198300        0.00000000        0.00000000
H          -1.57317434        0.73488593        0.28022072
H          -1.57317434       -0.73488593       -0.28022072
H           1.57317434        0.73488593       -0.28022072
H           1.57317434       -0.73488593        0.28022072
6
MD Time 1120.00
C          -0.82350755       -0.00000000       -0.00000000
C           0.82350755        0.00000000        0.00000000
H          -1.57969432        0.73267498        0.28449293
H          -1.57969432       -0.73267498       -0.28449293
H           1.57969432        0.73267498       -0.28449293
H           1.57969432       -0.73267498        0.28449293
6
MD Time 1130.00
C          -0.82502154       -0.00000000       -0.00000000
C           0.82502154        0.00000000        0.00000000
H          -1.58461680        0.73226302        0.28920465
H          -1.58461680       -0.73226302       -0.28920465
H           1.58461680        0.73226302       -0.28920465
H           1.58461680       -0.73226302        0.28920465
6
MD Time 1140.00
C          -0.82653495       -0.00000000       -0.00000000
C           0.82653495        0.00000000        0.00000000
H          -1.58788179        0.73360169        0.29430113
H          -1.58788179       -0.73360169       -0.29430113
H           1.58788179        0.73360169       -0.29430113
H           1.58788179       -0.73360169        0.29430113
6
MD Time 1150.00
C          -0.82805628       -0.00000000       -0.00000000
C           0.82805628        0.00000000        0.00000000
H          -1.58943651        0.73661790        0.29972055
H          -1.58943651       -0.73661790       -0.29972055
H           1.58943651        0.73661790       -0.29972055
H           1.58943651       -0.73661790        0.29972055
6
MD Time 1160.00
C          -0.82959217       -0.00000000       -0.00000000
C           0.82959217        0.00000000        0.00000000
H          -1.58923737        0.74121667        0.30539521
H          -1.58923737       -0.74121667       -0.30539521
H           1.58923737        0.74121667       -0.30539521
H           1.58923737       -0.74121667        0.30539521
6
MD Time 1170.00
C          -0.83114714       -0.00000000       -0.00000000
C           0.83114714        0.00000000        0.00000000
H          -1.58725184        0.74728433        0.31125280
H          -1.58725184       -0.74728433       -0.31125280
H           1.58725184        0.74728433       -0.31125280
H           1.58725184       -0.74728433        0.31125280
6
MD Time 1180.00
C          -0.83272323       -0.00000000       -0.00000000
C           0.83272323        0.00000000        0.00000000
H          -1.58346015        0.75469191        0.31721779
H          -1.58346015       -0.75469191       -0.31721779
H           1.58346015        0.75469191       -0.31721779
H           1.58346015       -0.75469191        0.31721779
6
MD Time 1190.00
C          -0.83431975       -0.00000000       -0.00000000
C           0.83431975        0.00000000        0.00000000
H          -1.57785681        0.76329855        0.32321285
H          -1.57785681       -0.76329855       -0.32321285
H           1.57785681        0.76329855       -0.32321285
H           1.57785681       -0.76329855        0.32321285
6
MD Time 1200.00
C          -0.83593308       -0.00000000       -0.00000000
C           0.83593308        0.00000000        0.00000000
H          -1.57045189        0.77295489        0.32916023
H          -1.57045189       -0.77295489       -0.32916023
H           1.57045189        0.77295489       -0.32916023
H           1.57045189       -0.77295489        0.32916023
6
MD Time 1210.00
C          -0.83755644       -0.00000000       -0.00000000
C           0.83755644        0.00000000        0.00000000
H          -1.56127196        0.78350637        0.33498316
H          -1.56127196       -0.78350637       -0.33498316
H           1.56127196        0.78350637       -0.33498316
H           1.56127196       -0.78350637        0.33498316
6
MD Time 1220.00
C          -0.83917982       -0.00000000       -0.00000000
C           0.83917982        0.00000000        0.00000000
H          -1.55036086        0.79479624        0.34060709
H          -1.55036086       -0.79479624       -0.34060709
H           1.55036086        0.79479624       -0.34060709
H           1.55036086       -0.79479624        0.34060709
6
MD Time 1230.00
C          -0.84078989       -0.00000000       -0.00000000
C           0.84078989        0.00000000        0.00000000
H          -1.53778002        0.80666845        0.34596093
H          -1.53778002       -0.80666845       -0.34596093
H           1.53778002        0.80666845       -0.34596093
H           1.53778002       -0.80666845        0.34596093
6
MD Time 1240.00
C          -0.84237001       -0.00000000       -0.00000000
C           0.84237001        0.00000000        0.00000000
H          -1.52360855        0.81897018        0.35097808
H          -1.52360855       -0.81897018       -0.35097808
H           1.52360855        0.81897018       -0.35097808
H           1.52360855       -0.81897018        0.35097808
6
MD Time 1250.00
C          -0.84390031       -0.00000000       -0.00000000
C           0.84390031        0.00000000        0.00000000
H          -1.50794283        0.83155423        0.35559748
H          -1.50794283       -0.83155423       -0.35559748
H           1.50794283        0.83155423       -0.35559748
H           1.50794283       -0.83155423        0.35559748
6
MD Time 1260.00
C          -0.84535781       -0.00000000       -0.00000000
C           0.84535781        0.00000000        0.00000000
H          -1.49089588        0.84428093        0.35976436
H          -1.49089588       -0.84428093       -0.35976436
H           1.49089588        0.84428093       -0.35976436
H           1.49089588       -0.84428093        0.35976436
6
MD Time 1270.00
C          -0.84671667       -0.00000000       -0.00000000
C           0.84671667        0.00000000        0.00000000
H          -1.47259628        0.85701991        0.36343094
H          -1.47259628       -0.85701991       -0.36343094
H           1.47259628        0.85701991       -0.36343094
H           1.47259628       -0.85701991        0.36343094
6
MD Time 1280.00
C          -0.84794844       -0.00000000       -0.00000000
C           0.84794844        0.00000000        0.00000000
H          -1.45318683        0.86965142        0.36655699
H          -1.45318683       -0.86965142       -0.36655699
H           1.45318683        0.86965142       -0.36655699
H           1.45318683       -0.86965142        0.36655699
6
MD Time 1290.00
C          -0.84902238       -0.00000000       -0.00000000
C           0.84902238        0.00000000        0.00000000
H          -1.43282286        0.88206735        0.36911010
H          -1.43282286       -0.88206735       -0.36911010
H           1.43282286        0.88206735       -0.36911010
H           1.43282286       -0.88206735        0.36911010
6
MD Time 1300.00
C          -0.84990586       -0.00000000       -0.00000000
C           0.84990586        0.00000000        0.00000000
H          -1.41167033        0.89417192        0.37106595
H          -1.41167033       -0.89417192       -0.37106595
H           1.41167033        0.89417192       -0.37106595
H           1.41167033       -0.89417192        0.37106595
6
MD Time 1310.00
C          -0.85056472       -0.00000000       -0.00000000
C           0.85056472        0.00000000        0.00000000
H          -1.38990376        0.90588202        0.37240824
H          -1.38990376       -0.90588202       -0.37240824
H           1.38990376        0.90588202       -0.37240824
H           1.38990376       -0.90588202        0.37240824
6
MD Time 1320.00
C          -0.85096377       -0.00000000       -0.00000000
C           0.85096377        0.00000000        0.00000000
H          -1.36770396        0.91712719        0.37312866
H          -1.36770396       -0.91712719       -0.37312866
H           1.36770396        0.91712719       -0.37312866
H           1.36770396       -0.91712719        0.37312866
6
MD Time 1330.00
C          -0.85106719       -0.00000000       -0.00000000
C           0.85106719        0.00000000        0.00000000
H          -1.34525569        0.92784941        0.37322655
H          -1.34525569       -0.92784941       -0.37322655
H           1.34525569        0.92784941       -0.37322655
H           1.34525569       -0.92784941        0.37322655
6
MD Time 1340.00
C          -0.85083904       -0.00000000       -0.00000000
C           0.85083904        0.00000000        0.00000000
H          -1.32274529        0.93800246        0.37270850
H          -1.32274529       -0.93800246       -0.37270850
H           1.32274529        0.93800246       -0.37270850
H           1.32274529       -0.93800246        0.37270850
6
MD Time 1350.00
C          -0.85024367       -0.00000000       -0.00000000
C           0.85024367        0.00000000        0.00000000
H          -1.30035824        0.94755121        0.37158792
H          -1.30035824       -0.94755121       -0.37158792
H           1.30035824        0.94755121       -0.37158792
H           1.30035824       -0.94755121        0.37158792
6
MD Time 1360.00
C          -0.84924622       -0.00000000       -0.00000000
C           0.84924622        0.00000000        0.00000000
H          -1.27827684        0.95647059        0.36988440
H          -1.27827684       -0.95647059       -0.36988440
H           1.27827684        0.95647059       -0.36988440
H           1.27827684       -0.95647059        0.36988440
6
MD Time 1370.00
C          -0.84781305       -0.00000000       -0.00000000
C           0.84781305        0.00000000        0.00000000
H          -1.25667794        0.96474439        0.36762305
H          -1.25667794       -0.96474439       -0.36762305
H           1.25667794        0.96474439       -0.36762305
H           1.25667794       -0.96474439        0.36762305
6
MD Time 1380.00
C          -0.84591215       -0.00000000       -0.00000000
C           0.84591215        0.00000000        0.00000000
H          -1.23573077        0.97236401        0.36483388
H          -1.23573077       -0.97236401       -0.36483388
H           1.23573077        0.97236401       -0.36483388
H           1.23573077       -0.97236401        0.36483388
6
MD Time 1390.00
C          -0.84351358       -0.00000000       -0.00000000
C           0.84351358        0.00000000        0.00000000
H          -1.21559493        0.97932704        0.36155101
H          -1.21559493       -0.97932704       -0.36155101
H           1.21559493        0.97932704       -0.36155101
H           1.21559493       -0.97932704        0.36155101
6
MD Time 1400.00
C          -0.84058979       -0.00000000       -0.00000000
C           0.84058979        0.00000000        0.00000000
H          -1.19641862        0.98563581        0.35781200
H          -1.19641862       -0.98563581       -0.35781200
H           1.19641862        0.98563581       -0.35781200
H           1.19641862       -0.98563581        0.35781200
6
MD Time 1410.00
C          -0.83711602       -0.00000000       -0.00000000
C           0.83711602        0.00000000        0.00000000
H          -1.17833700        0.99129600        0.35365719
H          -1.17833700       -0.99129600       -0.35365719
H           1.17833700        0.99129600       -0.35365719
H           1.17833700       -0.99129600        0.35365719
6
MD Time 1420.00
C          -0.83307057        0.00000000       -0.00000000
C           0.83307057        0.00000000        0.00000000
H          -1.16147083        0.99631523        0.34912898
H          -1.16147083       -0.99631523       -0.34912898
H           1.16147083        0.99631523       -0.34912898
H           1.16147083       -0.99631523        0.34912898
6
MD Time 1430.00
C          -0.82843520        0.00000000       -0.00000000
C           0.82843520        0.00000000        0.00000000
H          -1.14592524        1.00070172        0.34427131
H          -1.14592524       -1.00070172       -0.34427131
H           1.14592524        1.00070172       -0.34427131
H           1.14592524       -1.00070172        0.34427131
6
MD Time 1440.00
C          -0.82319531        0.00000000       -0.00000000
C           0.82319531       -0.00000000        0.00000000
H          -1.13178883        1.00446321        0.33912908
H          -1.13178883       -1.00446321       -0.33912908
H           1.13178883        1.00446321       -0.33912908
H           1.13178883       -1.00446321        0.33912908
6
MD Time 1450.00
C          -0.81734034        0.00000000       -0.00000000
C           0.81734034       -0.00000000        0.00000000
H          -1.11913281        1.00760590        0.33374772
H          -1.11913281       -1.00760590       -0.33374772
H           1.11913281        1.00760590       -0.33374772
H           1.11913281       -1.00760590        0.33374772
6
MD Time 1460.00
C          -0.81086401        0.00000000       -0.00000000
C           0.81086401       -0.00000000        0.00000000
H          -1.10801043        1.01013364        0.32817274
H          -1.10801043       -1.01013364       -0.32817274
H           1.10801043        1.01013364       -0.32817274
H           1.10801043       -1.01013364        0.32817274
6
MD Time 1470.00
C          -0.80376467        0.00000000       -0.00000000
C           0.80376467       -0.00000000        0.00000000
H          -1.09845654        1.01204742        0.32244947
H          -1.09845654       -1.01204742       -0.32244947
H           1.09845654        1.01204742       -0.32244947
H           1.09845654       -1.01204742        0.32244947
6
MD Time 1480.00
C          -0.79604566        0.00000000       -0.00000000
C           0.79604566       -0.00000000        0.00000000
H          -1.09048723        1.01334496        0.31662269
H          -1.09048723       -1.01334496       -0.31662269
H           1.09048723        1.01334496       -0.31662269
H           1.09048723       -1.01334496        0.31662269
6
MD Time 1490.00
C          -0.78771572        0.00000000       -0.00000000
C           0.78771572       -0.00000000        0.00000000
H          -1.08409973        1.01402066        0.31073648
H          -1.08409973       -1.01402066       -0.31073648
H           1.08409973        1.01402066       -0.31073648
H           1.08409973       -1.01402066        0.31073648
6
MD Time 1500.00
C          -0.77878945        0.00000000       -0.00000000
C           0.77878945       -0.00000000        0.00000000
H          -1.07927233        1.01406573        0.30483394
H          -1.07927233       -1.01406573       -0.30483394
H           1.07927233        1.01406573       -0.30483394
H           1.07927233       -1.01406573        0.30483394
6
MD Time 1510.00
C          -0.76928785        0.00000000       -0.00000000
C           0.76928785       -0.00000000        0.00000000
H          -1.07596460        1.01346865        0.29895711
H          -1.07596460       -1.01346865       -0.29895711
H           1.07596460        1.01346865       -0.29895711
H           1.07596460       -1.01346865        0.29895711
6
MD Time 1520.00
C          -0.75923893        0.00000000       -0.00000000
C           0.75923893       -0.00000000        0.00000000
H          -1.07411766        1.01221577        0.29314676
H          -1.07411766       -1.01221577       -0.29314676
H           1.07411766        1.01221577       -0.29314676
H           1.07411766       -1.01221577        0.29314676
6
MD Time 1530.00
C          -0.74867845        0.00000000       -0.00000000
C           0.74867845       -0.00000000        0.00000000
H          -1.07365478        1.01029226        0.28744232
H          -1.07365478       -1.01029226       -0.28744232
H           1.07365478        1.01029226       -0.28744232
H           1.07365478       -1.01029226        0.28744232
6
MD Time 1540.00
C          -0.73765063        0.00000000       -0.00000000
C           0.73765063       -0.00000000        0.00000000
H          -1.07448219        1.00768318        0.28188174
H          -1.07448219       -1.00768318       -0.28188174
H           1.07448219        1.00768318       -0.28188174
H           1.07448219       -1.00768318        0.28188174
6
MD Time 1550.00
C          -0.72620910        0.00000000       -0.00000000
C           0.72620910       -0.00000000        0.00000000
H          -1.07649020        1.00437479        0.27650148
H          -1.07649020       -1.00437479       -0.27650148
H           1.07649020        1.00437479       -0.27650148
H           1.07649020       -1.00437479        0.27650148
6
MD Time 1560.00
C          -0.71441776        0.00000000       -0.00000000
C           0.71441776       -0.00000000        0.00000000
H          -1.07955459        1.00035599        0.27133638
H          -1.07955459       -1.00035599       -0.27133638
H           1.07955459        1.00035599       -0.27133638
H           1.07955459       -1.00035599        0.27133638
6
MD Time 1570.00
C          -0.70235174        0.00000000       -0.00000000
C           0.70235174       -0.00000000        0.00000000
H          -1.08353839        0.99561989        0.26641967
H          -1.08353839       -0.99561989       -0.26641967
H           1.08353839        0.99561989       -0.26641967
H           1.08353839       -0.99561989        0.26641967
6
MD Time 1580.00
C          -0.69009838        0.00000000       -0.00000000
C           0.69009838       -0.00000000        0.00000000
H          -1.08829399        0.99016546        0.26178297
H          -1.08829399       -0.99016546       -0.26178297
H           1.08829399        0.99016546       -0.26178297
H           1.08829399       -0.99016546        0.26178297
6
MD Time 1590.00
C          -0.67775799        0.00000000       -0.00000000
C           0.67775799       -0.00000000        0.00000000
H          -1.09366560        0.98399918        0.25745631
H          -1.09366560       -0.98399918       -0.25745631
H           1.09366560        0.98399918       -0.25745631
H           1.09366560       -0.98399918        0.25745631
6
MD Time 1600.00
C          -0.66544455        0.00000000       -0.00000000
C           0.66544455       -0.00000000        0.00000000
H          -1.09949200        0.97713670        0.25346819
H          -1.09949200       -0.97713670       -0.25346819
H           1.09949200        0.97713670       -0.25346819
H           1.09949200       -0.97713670        0.25346819
6
MD Time 1610.00
C          -0.65328589        0.00000000       -0.00000000
C           0.65328589       -0.00000000        0.00000000
H          -1.10560959        0.96960445        0.24984572
H          -1.10560959       -0.96960445       -0.24984572
H           1.10560959        0.96960445       -0.24984572
H           1.10560959       -0.96960445        0.24984572
6
MD Time 1620.00
C          -0.64142348        0.00000000       -0.00000000
C           0.64142348       -0.00000000        0.00000000
H          -1.11185572        0.96144110        0.24661471
H          -1.11185572       -0.96144110       -0.24661471
H           1.11185572        0.96144110       -0.24661471
H           1.11185572       -0.96144110        0.24661471
6
MD Time 1630.00
C          -0.63001135        0.00000000       -0.00000000
C           0.63001135       -0.00000000        0.00000000
H          -1.11807214        0.95269892        0.24379991
H          -1.11807214       -0.95269892       -0.24379991
H           1.11807214        0.95269892       -0.24379991
H           1.11807214       -0.95269892        0.24379991
6
MD Time 1640.00
C          -0.61921404        0.00000000       -0.00000000
C           0.61921404       -0.00000000        0.00000000
H          -1.12410858        0.94344496        0.24142522
H          -1.12410858       -0.94344496       -0.24142522
H           1.12410858        0.94344496       -0.24142522
H           1.12410858       -0.94344496        0.24142522
6
MD Time 1650.00
C          -0.60920333        0.00000000       -0.00000000
C           0.60920333       -0.00000000        0.00000000
H          -1.12982646        0.93376196        0.23951387
H          -1.12982646       -0.93376196       -0.23951387
H           1.12982646        0.93376196       -0.23951387
H           1.12982646       -0.93376196        0.23951387
6
MD Time 1660.00
C          -0.60015365        0.00000000       -0.00000000
C           0.60015365       -0.00000000        0.00000000
H          -1.13510250        0.92374905        0.23808875
H          -1.13510250       -0.92374905       -0.23808875
H           1.13510250        0.92374905       -0.23808875
H           1.13510250       -0.92374905        0.23808875
6
MD Time 1670.00
C          -0.59223597        0.00000000       -0.00000000
C           0.59223597       -0.00000000        0.00000000
H          -1.13983220        0.91352213        0.23717253
H          -1.13983220       -0.91352213       -0.23717253
H           1.13983220        0.91352213       -0.23717253
H           1.13983220       -0.91352213        0.23717253
6
MD Time 1680.00
C          -0.58561066        0.00000000       -0.00000000
C           0.58561066       -0.00000000        0.00000000
H          -1.14393322        0.90321389        0.23678792
H          -1.14393322       -0.90321389       -0.23678792
H           1.14393322        0.90321389       -0.23678792
H           1.14393322       -0.90321389        0.23678792
6
MD Time 1690.00
C          -0.58041939        0.00000000       -0.00000000
C           0.58041939       -0.00000000        0.00000000
H          -1.14734832        0.89297344        0.23695771
H          -1.14734832       -0.89297344       -0.23695771
H           1.14734832        0.89297344       -0.23695771
H           1.14734832       -0.89297344        0.23695771
6
MD Time 1700.00
C          -0.57677705        0.00000000       -0.00000000
C           0.57677705       -0.00000000        0.00000000
H          -1.15004779        0.88296539        0.23770477
H          -1.15004779       -0.88296539       -0.23770477
H           1.15004779        0.88296539       -0.23770477
H           1.15004779       -0.88296539        0.23770477
6
MD Time 1710.00
C          -0.57476440        0.00000000       -0.00000000
C           0.57476440       -0.00000000        0.00000000
H          -1.15203127        0.87336838        0.23905191
H          -1.15203127       -0.87336838       -0.23905191
H           1.15203127        0.87336838       -0.23905191
H           1.15203127       -0.87336838        0.23905191
6
MD Time 1720.00
C          -0.57442242        0.00000000       -0.00000000
C           0.57442242       -0.00000000        0.00000000
H          -1.15332853        0.86437286        0.24102142
H          -1.15332853       -0.86437286       -0.24102142
H           1.15332853        0.86437286       -0.24102142
H           1.15332853       -0.86437286        0.24102142
6
MD Time 1730.00
C          -0.57574922        0.00000000       -0.00000000
C           0.57574922        0.00000000        0.00000000
H          -1.15399909        0.85617787        0.24363448
H          -1.15399909       -0.85617787       -0.24363448
H           1.15399909        0.85617787       -0.24363448
H           1.15399909       -0.85617787        0.24363448
6
MD Time 1740.00
C          -0.57869996       -0.00000000       -0.00000000
C           0.57869996        0.00000000        0.00000000
H          -1.15413042        0.84898682        0.24691016
H          -1.15413042       -0.84898682       -0.24691016
H           1.15413042        0.84898682       -0.24691016
H           1.15413042       -0.84898682        0.24691016
6
MD Time 1750.00
C          -0.58318993       -0.00000000       -0.00000000
C           0.58318993        0.00000000        0.00000000
H          -1.15383453        0.84300185        0.25086403
H          -1.15383453       -0.84300185       -0.25086403
H           1.15383453        0.84300185       -0.25086403
H           1.15383453       -0.84300185        0.25086403
6
MD Time 1760.00
C          -0.58910035       -0.00000000       -0.00000000
C           0.58910035        0.00000000        0.00000000
H          -1.15324276        0.83841679        0.25550634
H          -1.15324276       -0.83841679       -0.25550634
H           1.15324276        0.83841679       -0.25550634
H           1.15324276       -0.83841679        0.25550634
6
MD Time 1770.00
C          -0.59628617       -0.00000000       -0.00000000
C           0.59628617        0.00000000        0.00000000
H          -1.15249911        0.83540867        0.26083982
H          -1.15249911       -0.83540867       -0.26083982
H           1.15249911        0.83540867       -0.26083982
H           1.15249911       -0.83540867        0.26083982
6
MD Time 1780.00
C          -0.60458502       -0.00000000       -0.00000000
C           0.60458502        0.00000000        0.00000000
H          -1.15175219        0.83412815        0.26685701
H          -1.15175219       -0.83412815       -0.26685701
H           1.15175219        0.83412815       -0.26685701
H           1.15175219       -0.83412815        0.26685701
6
MD Time 1790.00
C          -0.61382611       -0.00000000       -0.00000000
C           0.61382611        0.00000000        0.00000000
H          -1.15114666        0.83468939        0.27353754
H          -1.15114666       -0.83468939       -0.27353754
H           1.15114666        0.83468939       -0.27353754
H           1.15114666       -0.83468939        0.27353754
6
MD Time 1800.00
C          -0.62383853       -0.00000000       -0.00000000
C           0.62383853        0.00000000        0.00000000
H          -1.15081478        0.83716035        0.28084539
H          -1.15081478       -0.83716035       -0.28084539
H           1.15081478        0.83716035       -0.28084539
H           1.15081478       -0.83716035        0.28084539
6
MD Time 1810.00
C          -0.63445803       -0.00000000       -0.00000000
C           0.63445803        0.00000000        0.00000000
H          -1.15086921        0.84155462        0.28872674
H          -1.15086921       -0.84155462       -0.28872674
H           1.15086921        0.84155462       -0.28872674
H           1.15086921       -0.84155462        0.28872674
6
MD Time 1820.00
C          -0.64553221       -0.00000000       -0.00000000
C           0.64553221        0.00000000        0.00000000
H          -1.15139773        0.84782604        0.29710858
H          -1.15139773       -0.84782604       -0.29710858
H           1.15139773        0.84782604       -0.29710858
H           1.15139773       -0.84782604        0.29710858
6
MD Time 1830.00
C          -0.65692387       -0.00000000       -0.00000000
C           0.65692387        0.00000000        0.00000000
H          -1.15246067        0.85586698        0.30589873
H          -1.15246067       -0.85586698       -0.30589873
H           1.15246067        0.85586698       -0.30589873
H           1.15246067       -0.85586698        0.30589873
6
MD Time 1840.00
C          -0.66851258       -0.00000000       -0.00000000
C           0.66851258        0.00000000        0.00000000
H          -1.15409097        0.86551086        0.31498710
H          -1.15409097       -0.86551086       -0.31498710
H           1.15409097        0.86551086       -0.31498710
H           1.15409097       -0.86551086        0.31498710
6
MD Time 1850.00
C          -0.68019498       -0.00000000       -0.00000000
C           0.68019498        0.00000000        0.00000000
H          -1.15629680        0.87653864        0.32424858
H          -1.15629680       -0.87653864       -0.32424858
H           1.15629680        0.87653864       -0.32424858
H           1.15629680       -0.87653864        0.32424858
6
MD Time 1860.00
C          -0.69188391       -0.00000000       -0.00000000
C           0.69188391        0.00000000        0.00000000
H          -1.15906587        0.88868871        0.33354696
H          -1.15906587       -0.88868871       -0.33354696
H           1.15906587        0.88868871       -0.33354696
H           1.15906587       -0.88868871        0.33354696
6
MD Time 1870.00
C          -0.70350689       -0.00000000       -0.00000000
C           0.70350689        0.00000000        0.00000000
H          -1.16237069        0.90166880        0.34273966
H          -1.16237069       -0.90166880       -0.34273966
H           1.16237069        0.90166880       -0.34273966
H           1.16237069       -0.90166880        0.34273966
6
MD Time 1880.00
C          -0.71500431       -0.00000000       -0.00000000
C           0.71500431        0.00000000        0.00000000
H          -1.16617402        0.91516883        0.35168271
H          -1.16617402       -0.91516883       -0.35168271
H           1.16617402        0.91516883       -0.35168271
H           1.16617402       -0.91516883        0.35168271
6
MD Time 1890.00
C          -0.72632742       -0.00000000       -0.00000000
C           0.72632742        0.00000000        0.00000000
H          -1.17043367        0.92887314        0.36023546
H          -1.17043367       -0.92887314       -0.36023546
H           1.17043367        0.92887314       -0.36023546
H           1.17043367       -0.92887314        0.36023546
6
MD Time 1900.00
C          -0.73743652       -0.00000000       -0.00000000
C           0.73743652        0.00000000        0.00000000
H          -1.17510654        0.94247150        0.36826467
H          -1.17510654       -0.94247150       -0.36826467
H           1.17510654        0.94247150       -0.36826467
H           1.17510654       -0.94247150        0.36826467
6
MD Time 1910.00
C          -0.74829927       -0.00000000       -0.00000000
C           0.74829927        0.00000000        0.00000000
H          -1.18015155        0.95566804        0.37564779
H          -1.18015155       -0.95566804       -0.37564779
H           1.18015155        0.95566804       -0.37564779
H           1.18015155       -0.95566804        0.37564779
6
MD Time 1920.00
C          -0.75888926       -0.00000000       -0.00000000
C           0.75888926        0.00000000        0.00000000
H          -1.18553159        0.96818811        0.38227531
H          -1.18553159       -0.96818811       -0.38227531
H           1.18553159        0.96818811       -0.38227531
H           1.18553159       -0.96818811        0.38227531
6
MD Time 1930.00
C          -0.76918483       -0.00000000       -0.00000000
C           0.76918483        0.00000000        0.00000000
H          -1.19121472        0.97978304        0.38805229
H          -1.19121472       -0.97978304       -0.38805229
H           1.19121472        0.97978304       -0.38805229
H           1.19121472       -0.97978304        0.38805229
6
MD Time 1940.00
C          -0.77916809       -0.00000000       -0.00000000
C           0.77916809        0.00000000        0.00000000
H          -1.19717466        0.99023319        0.39289917
H          -1.19717466       -0.99023319       -0.39289917
H           1.19717466        0.99023319       -0.39289917
H           1.19717466       -0.99023319        0.39289917
6
MD Time 1950.00
C          -0.78882411       -0.00000000       -0.00000000
C           0.78882411        0.00000000        0.00000000
H          -1.20339088        0.99934957        0.39675201
H          -1.20339088       -0.99934957       -0.39675201
H           1.20339088        0.99934957       -0.39675201
H           1.20339088       -0.99934957        0.39675201
6
MD Time 1960.00
C          -0.79814030       -0.00000000       -0.00000000
C           0.79814030        0.00000000        0.00000000
H          -1.20984849        1.00697452        0.39956238
H          -1.20984849       -1.00697452       -0.39956238
H           1.20984849        1.00697452       -0.39956238
H           1.20984849       -1.00697452        0.39956238
6
MD Time 1970.00
C          -0.80710586       -0.00000000       -0.00000000
C           0.80710586        0.00000000        0.00000000
H          -1.21653792        1.01298167        0.40129706
H          -1.21653792       -1.01298167       -0.40129706
H           1.21653792        1.01298167       -0.40129706
H           1.21653792       -1.01298167        0.40129706
6
MD Time 1980.00
C          -0.81571135       -0.00000000       -0.00000000
C           0.81571135        0.00000000        0.00000000
H          -1.22345469        1.01727563        0.40193757
H          -1.22345469       -1.01727563       -0.40193757
H           1.22345469        1.01727563       -0.40193757
H           1.22345469       -1.01727563        0.40193757
6
MD Time 1990.00
C          -0.82394832       -0.00000000       -0.00000000
C           0.82394832        0.00000000        0.00000000
H          -1.23059909        1.01979154        0.40147983
H          -1.23059909       -1.01979154       -0.40147983
H           1.23059909        1.01979154       -0.40147983
H           1.23059909       -1.01979154        0.40147983
6
MD Time 2000.00
C          -0.83180904       -0.00000000       -0.00000000
C           0.83180904        0.00000000        0.00000000
H          -1.23797603        1.02049469        0.39993376
H          -1.23797603       -1.02049469       -0.39993376
H           1.23797603        1.02049469       -0.39993376
H           1.23797603       -1.02049469        0.39993376
6
MD Time 2010.00
C          -0.83928618       -0.00000000       -0.00000000
C           0.83928618        0.00000000        0.00000000
H          -1.24559497        1.01938024        0.39732305
H          -1.24559497       -1.01938024       -0.39732305
H           1.24559497        1.01938024       -0.39732305
H           1.24559497       -1.01938024        0.39732305
6
MD Time 2020.00
C          -0.84637262       -0.00000000       -0.00000000
C           0.84637262        0.00000000        0.00000000
H          -1.25346994        1.01647323        0.39368506
H          -1.25346994       -1.01647323       -0.39368506
H           1.25346994        1.01647323       -0.39368506
H           1.25346994       -1.01647323        0.39368506
6
MD Time 2030.00
C          -0.85306122       -0.00000000       -0.00000000
C           0.85306122        0.00000000        0.00000000
H          -1.26161964        1.01182869        0.38907073
H          -1.26161964       -1.01182869       -0.38907073
H           1.26161964        1.01182869       -0.38907073
H           1.26161964       -1.01182869        0.38907073
6
MD Time 2040.00
C          -0.85934465       -0.00000000       -0.00000000
C           0.85934465        0.00000000        0.00000000
H          -1.27006762        1.00553188        0.38354465
H          -1.27006762       -1.00553188       -0.38354465
H           1.27006762        1.00553188       -0.38354465
H           1.27006762       -1.00553188        0.38354465
6
MD Time 2050.00
C          -0.86521525       -0.00000000       -0.00000000
C           0.86521525        0.00000000        0.00000000
H          -1.27884252        0.99769854        0.37718504
H          -1.27884252       -0.99769854       -0.37718504
H           1.27884252        0.99769854       -0.37718504
H           1.27884252       -0.99769854        0.37718504
6
MD Time 2060.00
C          -0.87066491       -0.00000000       -0.00000000
C           0.87066491        0.00000000        0.00000000
H          -1.28797817        0.98847487        0.37008360
H          -1.28797817       -0.98847487       -0.37008360
H           1.28797817        0.98847487       -0.37008360
H           1.28797817       -0.98847487        0.37008360
6
MD Time 2070.00
C          -0.87568503       -0.00000000       -0.00000000
C           0.87568503        0.00000000        0.00000000
H          -1.29751367        0.97803705        0.36234526
H          -1.29751367       -0.97803705       -0.36234526
H           1.29751367        0.97803705       -0.36234526
H           1.29751367       -0.97803705        0.36234526
6
MD Time 2080.00
C          -0.88026648       -0.00000000       -0.00000000
C           0.88026648        0.00000000        0.00000000
H          -1.30749314        0.96658997        0.35408741
H          -1.30749314       -0.96658997       -0.35408741
H           1.30749314        0.96658997       -0.35408741
H           1.30749314       -0.96658997        0.35408741
6
MD Time 2090.00
C          -0.88439977       -0.00000000       -0.00000000
C           0.88439977        0.00000000        0.00000000
H          -1.31796502        0.95436472        0.34543869
H          -1.31796502       -0.95436472       -0.34543869
H           1.31796502        0.95436472       -0.34543869
H           1.31796502       -0.95436472        0.34543869
6
MD Time 2100.00
C          -0.88807522       -0.00000000       -0.00000000
C           0.88807522        0.00000000        0.00000000
H          -1.32898078        0.94161459        0.33653716
H          -1.32898078       -0.94161459       -0.33653716
H           1.32898078        0.94161459       -0.33653716
H           1.32898078       -0.94161459        0.33653716
6
MD Time 2110.00
C          -0.89128337       -0.00000000       -0.00000000
C           0.89128337        0.00000000        0.00000000
H          -1.34059276        0.92860913        0.32752760
H          -1.34059276       -0.92860913       -0.32752760
H           1.34059276        0.92860913       -0.32752760
H           1.34059276       -0.92860913        0.32752760
6
MD Time 2120.00
C          -0.89401558       -0.00000000       -0.00000000
C           0.89401558        0.00000000        0.00000000
H          -1.35285094        0.91562621        0.31855802
H          -1.35285094       -0.91562621       -0.31855802
H           1.35285094        0.91562621       -0.31855802
H           1.35285094       -0.91562621        0.31855802
6
MD Time 2130.00
C          -0.89626474       -0.00000000       -0.00000000
C           0.89626474        0.00000000        0.00000000
H          -1.36579853        0.90294205        0.30977549
H          -1.36579853       -0.90294205       -0.30977549
H           1.36579853        0.90294205       -0.30977549
H           1.36579853       -0.90294205        0.30977549
6
MD Time 2140.00
C          -0.89802630       -0.00000000       -0.00000000
C           0.89802630        0.00000000        0.00000000
H          -1.37946648        0.89081982        0.30132122
H          -1.37946648       -0.89081982       -0.30132122
H           1.37946648        0.89081982       -0.30132122
H           1.37946648       -0.89081982        0.30132122
6
MD Time 2150.00
C          -0.89929936       -0.00000000       -0.00000000
C           0.89929936        0.00000000        0.00000000
H          -1.39386704        0.87949742        0.29332562
H          -1.39386704       -0.87949742       -0.29332562
H           1.39386704        0.87949742       -0.29332562
H           1.39386704       -0.87949742        0.29332562
6
MD Time 2160.00
C          -0.90008775       -0.00000000       -0.00000000
C           0.90008775        0.00000000        0.00000000
H          -1.40898704        0.86917592        0.28590351
H          -1.40898704       -0.86917592       -0.28590351
H           1.40898704        0.86917592       -0.28590351
H           1.40898704       -0.86917592        0.28590351
6
MD Time 2170.00
C          -0.90040114       -0.00000000       -0.00000000
C           0.90040114        0.00000000        0.00000000
H          -1.42478161        0.86000971        0.27915005
H          -1.42478161       -0.86000971       -0.27915005
H           1.42478161        0.86000971       -0.27915005
H           1.42478161       -0.86000971        0.27915005
6
MD Time 2180.00
C          -0.90025578       -0.00000000       -0.00000000
C           0.90025578        0.00000000        0.00000000
H          -1.44116935        0.85209993        0.27313796
H          -1.44116935       -0.85209993       -0.27313796
H           1.44116935        0.85209993       -0.27313796
H           1.44116935       -0.85209993        0.27313796
6
MD Time 2190.00
C          -0.89967484       -0.00000000       -0.00000000
C           0.89967484        0.00000000        0.00000000
H          -1.45802975        0.84549188        0.26791622
H          -1.45802975       -0.84549188       -0.26791622
H           1.45802975        0.84549188       -0.26791622
H           1.45802975       -0.84549188        0.26791622
6
MD Time 2200.00
C          -0.89868828       -0.00000000       -0.00000000
C           0.89868828        0.00000000        0.00000000
H          -1.47520368        0.84017683        0.26351042
H          -1.47520368       -0.84017683       -0.26351042
H           1.47520368        0.84017683       -0.26351042
H           1.47520368       -0.84017683        0.26351042
6
MD Time 2210.00
C          -0.89733212       -0.00000000       -0.00000000
C           0.89733212        0.00000000        0.00000000
H          -1.49249694        0.83609771        0.25992446
H          -1.49249694       -0.83609771       -0.25992446
H           1.49249694        0.83609771       -0.25992446
H           1.49249694       -0.83609771        0.25992446
6
MD Time 2220.00
C          -0.89564730       -0.00000000       -0.00000000
C           0.89564730        0.00000000        0.00000000
H          -1.50968668        0.83315777        0.25714344
H          -1.50968668       -0.83315777       -0.25714344
H           1.50968668        0.83315777       -0.25714344
H           1.50968668       -0.83315777        0.25714344
6
MD Time 2230.00
C          -0.89367811       -0.00000000       -0.00000000
C           0.89367811        0.00000000        0.00000000
H          -1.52652977        0.83123087        0.25513713
H          -1.52652977       -0.83123087       -0.25513713
H           1.52652977        0.83123087       -0.25513713
H           1.52652977       -0.83123087        0.25513713
6
MD Time 2240.00
C          -0.89147056       -0.00000000       -0.00000000
C           0.89147056        0.00000000        0.00000000
H          -1.54277228        0.83017204        0.25386368
H          -1.54277228       -0.83017204       -0.25386368
H           1.54277228        0.83017204       -0.25386368
H           1.54277228       -0.83017204        0.25386368
6
MD Time 2250.00
C          -0.88907077       -0.00000000       -0.00000000
C           0.88907077        0.00000000        0.00000000
H          -1.55815884        0.82982736        0.25327314
H          -1.55815884       -0.82982736       -0.25327314
H           1.55815884        0.82982736       -0.25327314
H           1.55815884       -0.82982736        0.25327314
6
MD Time 2260.00
C          -0.88652342       -0.00000000       -0.00000000
C           0.88652342        0.00000000        0.00000000
H          -1.57244118        0.83004223        0.25331059
H          -1.57244118       -0.83004223       -0.25331059
H           1.57244118        0.83004223       -0.25331059
H           1.57244118       -0.83004223        0.25331059
6
MD Time 2270.00
C          -0.88387061       -0.00000000       -0.00000000
C           0.88387061        0.00000000        0.00000000
H          -1.58538524        0.83066796        0.25391875
H          -1.58538524       -0.83066796       -0.25391875
H           1.58538524        0.83066796       -0.25391875
H           1.58538524       -0.83066796        0.25391875
6
MD Time 2280.00
C          -0.88115091       -0.00000000       -0.00000000
C           0.88115091        0.00000000        0.00000000
H          -1.59677660        0.83156648        0.25503994
H          -1.59677660       -0.83156648       -0.25503994
H           1.59677660        0.83156648       -0.25503994
H           1.59677660       -0.83156648        0.25503994
6
MD Time 2290.00
C          -0.87839870       -0.00000000       -0.00000000
C           0.87839870        0.00000000        0.00000000
H          -1.60642434        0.83261345        0.25661767
H          -1.60642434       -0.83261345       -0.25661767
H           1.60642434        0.83261345       -0.25661767
H           1.60642434       -0.83261345        0.25661767
6
MD Time 2300.00
C          -0.87564382       -0.00000000       -0.00000000
C           0.87564382        0.00000000        0.00000000
H          -1.61416345        0.83370016        0.25859762
H          -1.61416345       -0.83370016       -0.25859762
H           1.61416345        0.83370016       -0.25859762
H           1.61416345       -0.83370016        0.25859762
6
MD Time 2310.00
C          -0.87291135       -0.00000000       -0.00000000
C           0.87291135        0.00000000        0.00000000
H          -1.61985611        0.83473441        0.26092842
H          -1.61985611       -0.83473441       -0.26092842
H           1.61985611        0.83473441       -0.26092842
H           1.61985611       -0.83473441        0.26092842
6
MD Time 2320.00
C          -0.87022153       -0.00000000       -0.00000000
C           0.87022153        0.00000000        0.00000000
H          -1.62339228        0.83564084        0.26356210
H          -1.62339228       -0.83564084       -0.26356210
H           1.62339228        0.83564084       -0.26356210
H           1.62339228       -0.83564084        0.26356210
6
MD Time 2330.00
C          -0.86758980       -0.00000000       -0.00000000
C           0.86758980        0.00000000        0.00000000
H          -1.62468965        0.83636090        0.26645436
H          -1.62468965       -0.83636090       -0.26645436
H           1.62468965        0.83636090       -0.26645436
H           1.62468965       -0.83636090        0.26645436
6
MD Time 2340.00
C          -0.86502681       -0.00000000       -0.00000000
C           0.86502681        0.00000000        0.00000000
H          -1.62369347        0.83685265        0.26956477
H          -1.62369347       -0.83685265       -0.26956477
H           1.62369347        0.83685265       -0.26956477
H           1.62369347       -0.83685265        0.26956477
6
MD Time 2350.00
C          -0.86253848       -0.00000000       -0.00000000
C           0.86253848        0.00000000        0.00000000
H          -1.62037629        0.83709061        0.27285693
H          -1.62037629       -0.83709061       -0.27285693
H           1.62037629        0.83709061       -0.27285693
H           1.62037629       -0.83709061        0.27285693
6
MD Time 2360.00
C          -0.86012604       -0.00000000       -0.00000000
C           0.86012604        0.00000000        0.00000000
H          -1.61473774        0.83706573        0.27629856
H          -1.61473774       -0.83706573       -0.27629856
H           1.61473774        0.83706573       -0.27629856
H           1.61473774       -0.83706573        0.27629856
6
MD Time 2370.00
C          -0.85778602       -0.00000000       -0.00000000
C           0.85778602        0.00000000        0.00000000
H          -1.60680455        0.83678549        0.27986163
H          -1.60680455       -0.83678549       -0.27986163
H           1.60680455        0.83678549       -0.27986163
H           1.60680455       -0.83678549        0.27986163
6
MD Time 2380.00
C          -0.85551022       -0.00000000       -0.00000000
C           0.85551022        0.00000000        0.00000000
H          -1.59663057        0.83627419        0.28352259
H          -1.59663057       -0.83627419       -0.28352259
H           1.59663057        0.83627419       -0.28352259
H           1.59663057       -0.83627419        0.28352259
6
MD Time 2390.00
C          -0.85328564       -0.00000000       -0.00000000
C           0.85328564        0.00000000        0.00000000
H          -1.58429704        0.83557336        0.28726249
H          -1.58429704       -0.83557336       -0.28726249
H           1.58429704        0.83557336       -0.28726249
H           1.58429704       -0.83557336        0.28726249
6
MD Time 2400.00
C          -0.85109441       -0.00000000       -0.00000000
C           0.85109441        0.00000000        0.00000000
H          -1.56991274        0.83474230        0.29106728
H          -1.56991274       -0.83474230       -0.29106728
H           1.56991274        0.83474230       -0.29106728
H           1.56991274       -0.83474230        0.29106728
6
MD Time 2410.00
C          -0.84891382       -0.00000000       -0.00000000
C           0.84891382        0.00000000        0.00000000
H          -1.55361404        0.83385846        0.29492797
H          -1.55361404       -0.83385846       -0.29492797
H           1.55361404        0.83385846       -0.29492797
H           1.55361404       -0.83385846        0.29492797
6
MD Time 2420.00
C          -0.84671626       -0.00000000       -0.00000000
C           0.84671626        0.00000000        0.00000000
H          -1.53556448        0.83301766        0.29884081
H          -1.53556448       -0.83301766       -0.29884081
H           1.53556448        0.83301766       -0.29884081
H           1.53556448       -0.83301766        0.29884081
6
MD Time 2430.00
C          -0.84446948       -0.00000000       -0.00000000
C           0.84446948        0.00000000        0.00000000
H          -1.51595372        0.83233378        0.30280726
H          -1.51595372       -0.83233378       -0.30280726
H           1.51595372        0.83233378       -0.30280726
H           1.51595372       -0.83233378        0.30280726
6
MD Time 2440.00
C          -0.84213682       -0.00000000       -0.00000000
C           0.84213682        0.00000000        0.00000000
H          -1.49499546        0.83193759        0.30683379
H          -1.49499546       -0.83193759       -0.30683379
H           1.49499546        0.83193759       -0.30683379
H           1.49499546       -0.83193759        0.30683379
6
MD Time 2450.00
C          -0.83967782       -0.00000000       -0.00000000
C           0.83967782        0.00000000        0.00000000
H          -1.47292415        0.83197451        0.31093123
H          -1.47292415       -0.83197451       -0.31093123
H           1.47292415        0.83197451       -0.31093123
H           1.47292415       -0.83197451        0.31093123
6
MD Time 2460.00
C          -0.83704906       -0.00000000       -0.00000000
C           0.83704906        0.00000000        0.00000000
H          -1.44999018        0.83260074        0.31511367
H          -1.44999018       -0.83260074       -0.31511367
H           1.44999018        0.83260074       -0.31511367
H           1.44999018       -0.83260074        0.31511367
6
MD Time 2470.00
C          -0.83420524       -0.00000000       -0.00000000
C           0.83420524        0.00000000        0.00000000
H          -1.42645352        0.83397770        0.31939672
H          -1.42645352       -0.83397770       -0.31939672
H           1.42645352        0.83397770       -0.31939672
H           1.42645352       -0.83397770        0.31939672
6
MD Time 2480.00
C          -0.83110059       -0.00000000       -0.00000000
C           0.83110059        0.00000000        0.00000000
H          -1.40257596        0.83626442        0.32379509
H          -1.40257596       -0.83626442       -0.32379509
H           1.40257596        0.83626442       -0.32379509
H           1.40257596       -0.83626442        0.32379509
6
MD Time 2490.00
C          -0.82769045       -0.00000000       -0.00000000
C           0.82769045        0.00000000        0.00000000
H          -1.37861243        0.83960828        0.32831955
H          -1.37861243       -0.83960828       -0.32831955
H           1.37861243        0.83960828       -0.32831955
H           1.37861243       -0.83960828        0.32831955
6
MD Time 2500.00
C          -0.82393296       -0.00000000       -0.00000000
C           0.82393296        0.00000000        0.00000000
H          -1.35480201        0.84413448        0.33297350
H          -1.35480201       -0.84413448       -0.33297350
H           1.35480201        0.84413448       -0.33297350
H           1.35480201       -0.84413448        0.33297350
6
MD Time 2510.00
C          -0.81979067       -0.00000000       -0.00000000
C           0.81979067        0.00000000        0.00000000
H          -1.33135962        0.84993516        0.33774938
H          -1.33135962       -0.84993516       -0.33774938
H           1.33135962        0.84993516       -0.33774938
H           1.33135962       -0.84993516        0.33774938
6
MD Time 2520.00
C          -0.81523190       -0.00000000       -0.00000000
C           0.81523190        0.00000000        0.00000000
H          -1.30846920        0.85705950        0.34262549
H          -1.30846920       -0.85705950       -0.34262549
H           1.30846920        0.85705950       -0.34262549
H           1.30846920       -0.85705950        0.34262549
6
MD Time 2530.00
C          -0.81023176       -0.00000000       -0.00000000
C           0.81023176        0.00000000        0.00000000
H          -1.28627930        0.86550602        0.34756377
H          -1.28627930       -0.86550602       -0.34756377
H           1.28627930        0.86550602       -0.34756377
H           1.28627930       -0.86550602        0.34756377
6
MD Time 2540.00
C          -0.80477271       -0.00000000       -0.00000000
C           0.80477271        0.00000000        0.00000000
H          -1.26490134        0.87521829        0.35250884
H          -1.26490134       -0.87521829       -0.35250884
H           1.26490134        0.87521829       -0.35250884
H           1.26490134       -0.87521829        0.35250884
6
MD Time 2550.00
C          -0.79884468       -0.00000000       -0.00000000
C           0.79884468        0.00000000        0.00000000
H          -1.24441058        0.88608474        0.35738867
H          -1.24441058       -0.88608474       -0.35738867
H           1.24441058        0.88608474       -0.35738867
H           1.24441058       -0.88608474        0.35738867
6
MD Time 2560.00
C          -0.79244480       -0.00000000       -0.00000000
C           0.79244480        0.00000000        0.00000000
H          -1.22484942        0.89794255        0.36211680
H          -1.22484942       -0.89794255       -0.36211680
H           1.22484942        0.89794255       -0.36211680
H           1.22484942       -0.89794255        0.36211680
6
MD Time 2570.00
C          -0.78557687       -0.00000000       -0.00000000
C           0.78557687        0.00000000        0.00000000
H          -1.20623230        0.91058525        0.36659587
H          -1.20623230       -0.91058525       -0.36659587
H           1.20623230        0.91058525       -0.36659587
H           1.20623230       -0.91058525        0.36659587
6
MD Time 2580.00
C          -0.77825070       -0.00000000       -0.00000000
C           0.77825070        0.00000000        0.00000000
H          -1.18855129        0.92377272        0.37072202
H          -1.18855129       -0.92377272       -0.37072202
H           1.18855129        0.92377272       -0.37072202
H           1.18855129       -0.92377272        0.37072202
6
MD Time 2590.00
C          -0.77048146       -0.00000000       -0.00000000
C           0.77048146        0.00000000        0.00000000
H          -1.17178184        0.93724254        0.37438952
H          -1.17178184       -0.93724254       -0.37438952
H           1.17178184        0.93724254       -0.37438952
H           1.17178184       -0.93724254        0.37438952
6
MD Time 2600.00
C          -0.76228919       -0.00000000        0.00000000
C           0.76228919        0.00000000        0.00000000
H          -1.15588799        0.95072134        0.37749532
H          -1.15588799       -0.95072134       -0.37749532
H           1.15588799        0.95072134       -0.37749532
H           1.15588799       -0.95072134        0.37749532
6
MD Time 2610.00
C          -0.75369843       -0.00000000        0.00000000
C           0.75369843        0.00000000        0.00000000
H          -1.14082684        0.96393528        0.37994292
H          -1.14082684       -0.96393528       -0.37994292
H           1.14082684        0.96393528       -0.37994292
H           1.14082684       -0.96393528        0.37994292
6
MD Time 2620.00
C          -0.74473809       -0.00000000        0.00000000
C           0.74473809        0.00000000        0.00000000
H          -1.12655206        0.97661893        0.38164558
H          -1.12655206       -0.97661893       -0.38164558
H           1.12655206        0.97661893       -0.38164558
H           1.12655206       -0.97661893        0.38164558
6
MD Time 2630.00
C          -0.73544155       -0.00000000        0.00000000
C           0.73544155        0.00000000        0.00000000
H          -1.11301656        0.98852244        0.38252863
H          -1.11301656       -0.98852244       -0.38252863
H           1.11301656        0.98852244       -0.38252863
H           1.11301656       -0.98852244        0.38252863
6
MD Time 2640.00
C          -0.72584688       -0.00000000        0.00000000
C           0.72584688        0.00000000        0.00000000
H          -1.10017440        0.99941685        0.38253109
H          -1.10017440       -0.99941685       -0.38253109
H           1.10017440        0.99941685       -0.38253109
H           1.10017440       -0.99941685        0.38253109
6
MD Time 2650.00
C          -0.71599732       -0.00000000        0.00000000
C           0.71599732        0.00000000        0.00000000
H          -1.08798214        1.00909785        0.38160653
H          -1.08798214       -1.00909785       -0.38160653
H           1.08798214        1.00909785       -0.38160653
H           1.08798214       -1.00909785        0.38160653
6
MD Time 2660.00
C          -0.70594175       -0.00000000        0.00000000
C           0.70594175        0.00000000        0.00000000
H          -1.07639974        1.01738834        0.37972356
H          -1.07639974       -1.01738834       -0.37972356
H           1.07639974        1.01738834       -0.37972356
H           1.07639974       -1.01738834        0.37972356
6
MD Time 2670.00
C          -0.69573538       -0.00000000        0.00000000
C           0.69573538        0.00000000        0.00000000
H          -1.06539124        1.02413998        0.37686586
H          -1.06539124       -1.02413998       -0.37686586
H           1.06539124        1.02413998       -0.37686586
H           1.06539124       -1.02413998        0.37686586
6
MD Time 2680.00
C          -0.68544024       -0.00000000        0.00000000
C           0.68544024        0.00000000        0.00000000
H          -1.05492527        1.02923420        0.37303215
H          -1.05492527       -1.02923420       -0.37303215
H           1.05492527        1.02923420       -0.37303215
H           1.05492527       -1.02923420        0.37303215
6
MD Time 2690.00
C          -0.67512584       -0.00000000        0.00000000
C           0.67512584        0.00000000        0.00000000
H          -1.04497558        1.03258293        0.36823594
H          -1.04497558       -1.03258293       -0.36823594
H           1.04497558        1.03258293       -0.36823594
H           1.04497558       -1.03258293        0.36823594
6
MD Time 2700.00
C          -0.66486945       -0.00000000        0.00000000
C           0.66486945        0.00000000        0.00000000
H          -1.03552160        1.03412920        0.36250539
H          -1.03552160       -1.03412920       -0.36250539
H           1.03552160        1.03412920       -0.36250539
H           1.03552160       -1.03412920        0.36250539
6
MD Time 2710.00
C          -0.65475632       -0.00000000        0.00000000
C           0.65475632        0.00000000        0.00000000
H          -1.02654913        1.03384794        0.35588316
H          -1.02654913       -1.03384794       -0.35588316
H           1.02654913        1.03384794       -0.35588316
H           1.02654913       -1.03384794        0.35588316
6
MD Time 2720.00
C          -0.64487946       -0.00000000        0.00000000
C           0.64487946        0.00000000        0.00000000
H          -1.01805117        1.03174692        0.34842638
H          -1.01805117       -1.03174692       -0.34842638
H           1.01805117        1.03174692       -0.34842638
H           1.01805117       -1.03174692        0.34842638
6
MD Time 2730.00
C          -0.63533898       -0.00000000        0.00000000
C           0.63533898        0.00000000        0.00000000
H          -1.01002904        1.02786805        0.34020664
H          -1.01002904       -1.02786805       -0.34020664
H           1.01002904        1.02786805       -0.34020664
H           1.01002904       -1.02786805        0.34020664
6
MD Time 2740.00
C          -0.62624087       -0.00000000       -0.00000000
C           0.62624087        0.00000000        0.00000000
H          -1.00249360        1.02228894        0.33131010
H          -1.00249360       -1.02228894       -0.33131010
H           1.00249360        1.02228894       -0.33131010
H           1.00249360       -1.02228894        0.33131010
6
MD Time 2750.00
C          -0.61769508       -0.00000000       -0.00000000
C           0.61769508        0.00000000        0.00000000
H          -0.99546673        1.01512469        0.32183758
H          -0.99546673       -1.01512469       -0.32183758
H           0.99546673        1.01512469       -0.32183758
H           0.99546673       -1.01512469        0.32183758
6
MD Time 2760.00
C          -0.60981293        0.00000000       -0.00000000
C           0.60981293        0.00000000        0.00000000
H          -0.98898289        1.00652971        0.31190455
H          -0.98898289       -1.00652971       -0.31190455
H           0.98898289        1.00652971       -0.31190455
H           0.98898289       -1.00652971        0.31190455
6
MD Time 2770.00
C          -0.60270382        0.00000000       -0.00000000
C           0.60270382        0.00000000        0.00000000
H          -0.98309080        0.99669939        0.30164098
H          -0.98309080       -0.99669939       -0.30164098
H           0.98309080        0.99669939       -0.30164098
H           0.98309080       -0.99669939        0.30164098
6
MD Time 2780.00
C          -0.59647127        0.00000000       -0.00000000
C           0.59647127        0.00000000        0.00000000
H          -0.97785481        0.98587112        0.29119078
H          -0.97785481       -0.98587112       -0.29119078
H           0.97785481        0.98587112       -0.29119078
H           0.97785481       -0.98587112        0.29119078
6
MD Time 2790.00
C          -0.59120864        0.00000000       -0.00000000
C           0.59120864       -0.00000000        0.00000000
H          -0.97335606        0.97432423        0.28071084
H          -0.97335606       -0.97432423       -0.28071084
H           0.97335606        0.97432423       -0.28071084
H           0.97335606       -0.97432423        0.28071084
6
MD Time 2800.00
C          -0.58699472        0.00000000       -0.00000000
C           0.58699472       -0.00000000        0.00000000
H          -0.96969271        0.96237804        0.27036931
H          -0.96969271       -0.96237804       -0.27036931
H           0.96969271        0.96237804       -0.27036931
H           0.96969271       -0.96237804        0.27036931
6
MD Time 2810.00
C          -0.58388973        0.00000000       -0.00000000
C           0.58388973       -0.00000000        0.00000000
H          -0.96697911        0.95038733        0.26034299
H          -0.96697911       -0.95038733       -0.26034299
H           0.96697911        0.95038733       -0.26034299
H           0.96697911       -0.95038733        0.26034299
6
MD Time 2820.00
C          -0.58193202        0.00000000       -0.00000000
C           0.58193202       -0.00000000        0.00000000
H          -0.96534333        0.93873436        0.25081361
H          -0.96534333       -0.93873436       -0.25081361
H           0.96534333        0.93873436       -0.25081361
H           0.96534333       -0.93873436        0.25081361
6
MD Time 2830.00
C          -0.58113608        0.00000000       -0.00000000
C           0.58113608       -0.00000000        0.00000000
H          -0.96492265        0.92781672        0.24196303
H          -0.96492265       -0.92781672       -0.24196303
H           0.96492265        0.92781672       -0.24196303
H           0.96492265       -0.92781672        0.24196303
6
MD Time 2840.00
C          -0.58149212        0.00000000       -0.00000000
C           0.58149212       -0.00000000        0.00000000
H          -0.96585678        0.91803080        0.23396716
H          -0.96585678       -0.91803080       -0.23396716
H           0.96585678        0.91803080       -0.23396716
H           0.96585678       -0.91803080        0.23396716
6
MD Time 2850.00
C          -0.58296726        0.00000000       -0.00000000
C           0.58296726       -0.00000000        0.00000000
H          -0.96827892        0.90975119        0.22698915
H          -0.96827892       -0.90975119       -0.22698915
H           0.96827892        0.90975119       -0.22698915
H           0.96827892       -0.90975119        0.22698915
6
MD Time 2860.00
C          -0.58550846        0.00000000       -0.00000000
C           0.58550846       -0.00000000        0.00000000
H          -0.97230517        0.90330740        0.22117196
H          -0.97230517       -0.90330740       -0.22117196
H           0.97230517        0.90330740       -0.22117196
H           0.97230517       -0.90330740        0.22117196
6
MD Time 2870.00
C          -0.58904665        0.00000000       -0.00000000
C           0.58904665       -0.00000000        0.00000000
H          -0.97802334        0.89896024        0.21663135
H          -0.97802334       -0.89896024       -0.21663135
H           0.97802334        0.89896024       -0.21663135
H           0.97802334       -0.89896024        0.21663135
6
MD Time 2880.00
C          -0.59350154        0.00000000       -0.00000000
C           0.59350154       -0.00000000        0.00000000
H          -0.98548264        0.89688087        0.21344986
H          -0.98548264       -0.89688087       -0.21344986
H           0.98548264        0.89688087       -0.21344986
H           0.98548264       -0.89688087        0.21344986
6
MD Time 2890.00
C          -0.59878667        0.00000000       -0.00000000
C           0.59878667       -0.00000000        0.00000000
H          -0.99468584        0.89713592        0.21167266
H          -0.99468584       -0.89713592       -0.21167266
H           0.99468584        0.89713592       -0.21167266
H           0.99468584       -0.89713592        0.21167266
6
MD Time 2900.00
C          -0.60481384        0.00000000       -0.00000000
C           0.60481384       -0.00000000        0.00000000
H          -1.00558526        0.89968105        0.21130590
H          -1.00558526       -0.89968105       -0.21130590
H           1.00558526        0.89968105       -0.21130590
H           1.00558526       -0.89968105        0.21130590
6
MD Time 2910.00
C          -0.61149679        0.00000000       -0.00000000
C           0.61149679       -0.00000000        0.00000000
H          -1.01808333        0.90436448        0.21231762
H          -1.01808333       -0.90436448       -0.21231762
H           1.01808333        0.90436448       -0.21231762
H           1.01808333       -0.90436448        0.21231762
6
MD Time 2920.00
C          -0.61875366        0.00000000       -0.00000000
C           0.61875366       -0.00000000        0.00000000
H          -1.03203753        0.91093954        0.21464124
H          -1.03203753       -0.91093954       -0.21464124
H           1.03203753        0.91093954       -0.21464124
H           1.03203753       -0.91093954        0.21464124
6
MD Time 2930.00
C          -0.62650844        0.00000000       -0.00000000
C           0.62650844       -0.00000000        0.00000000
H          -1.04726892        0.91908427        0.21818083
H          -1.04726892       -0.91908427       -0.21818083
H           1.04726892        0.91908427       -0.21818083
H           1.04726892       -0.91908427        0.21818083
6
MD Time 2940.00
C          -0.63469153        0.00000000       -0.00000000
C           0.63469153       -0.00000000        0.00000000
H          -1.06357263        0.92842485        0.22281766
H          -1.06357263       -0.92842485       -0.22281766
H           1.06357263        0.92842485       -0.22281766
H           1.06357263       -0.92842485        0.22281766
6
MD Time 2950.00
C          -0.64323964        0.00000000       -0.00000000
C           0.64323964       -0.00000000        0.00000000
H          -1.08072901        0.93855950        0.22841695
H          -1.08072901       -0.93855950       -0.22841695
H           1.08072901        0.93855950       -0.22841695
H           1.08072901       -0.93855950        0.22841695
6
MD Time 2960.00
C          -0.65209541        0.00000000       -0.00000000
C           0.65209541       -0.00000000        0.00000000
H          -1.09851392        0.94908039        0.23483442
H          -1.09851392       -0.94908039       -0.23483442
H           1.09851392        0.94908039       -0.23483442
H           1.09851392       -0.94908039        0.23483442
6
MD Time 2970.00
C          -0.66120677        0.00000000       -0.00000000
C           0.66120677       -0.00000000        0.00000000
H          -1.11670742        0.95959160        0.24192196
H          -1.11670742       -0.95959160       -0.24192196
H           1.11670742        0.95959160       -0.24192196
H           1.11670742       -0.95959160        0.24192196
6
MD Time 2980.00
C          -0.67052647        0.00000000       -0.00000000
C           0.67052647       -0.00000000        0.00000000
H          -1.13510047        0.96972273        0.24953232
H          -1.13510047       -0.96972273       -0.24953232
H           1.13510047        0.96972273       -0.24953232
H           1.13510047       -0.96972273        0.24953232
6
MD Time 2990.00
C          -0.68001146        0.00000000       -0.00000000
C           0.68001146       -0.00000000        0.00000000
H          -1.15349951        0.97913798        0.25752266
H          -1.15349951       -0.97913798       -0.25752266
H           1.15349951        0.97913798       -0.25752266
H           1.15349951       -0.97913798        0.25752266
