6
MD Time 0.00
C          -1.00424993        0.00000000        0.00000000
C           1.00424993        0.00000000        0.00000000
H          -1.57974221        0.85087473        0.35244385
H          -1.57974221       -0.85087473       -0.35244385
H           1.57974221        0.85087473       -0.35244385
H           1.57974221       -0.85087473        0.35244385
6
MD Time 10.00
C          -1.00410896       -0.00000000       -0.00000000
C           1.00410896        0.00000000       -0.00000000
H          -1.57963104        0.85108927        0.35238725
H          -1.57963104       -0.85108927       -0.35238725
H           1.57963104        0.85108927       -0.35238725
H           1.57963104       -0.85108927        0.35238725
6
MD Time 20.00
C          -1.00368655       -0.00000000       -0.00000000
C           1.00368655        0.00000000       -0.00000000
H          -1.57929514        0.85172805        0.35221687
H          -1.57929514       -0.85172805       -0.35221687
H           1.57929514        0.85172805       -0.35221687
H           1.57929514       -0.85172805        0.35221687
6
MD Time 30.00
C          -1.00298417       -0.00000000       -0.00000000
C           1.00298417        0.00000000       -0.00000000
H          -1.57872747        0.85277669        0.35193101
H          -1.57872747       -0.85277669       -0.35193101
H           1.57872747        0.85277669       -0.35193101
H           1.57872747       -0.85277669        0.35193101
6
MD Time 40.00
C          -1.00200420       -0.00000000       -0.00000000
C           1.00200420        0.00000000       -0.00000000
H          -1.57791659        0.85421178        0.35152702
H          -1.57791659       -0.85421178       -0.35152702
H           1.57791659        0.85421178       -0.35152702
H           1.57791659       -0.85421178        0.35152702
6
MD Time 50.00
C          -1.00074988       -0.00000000       -0.00000000
C           1.00074988        0.00000000       -0.00000000
H          -1.57684723        0.85600158        0.35100151
H          -1.57684723       -0.85600158       -0.35100151
H           1.57684723        0.85600158       -0.35100151
H           1.57684723       -0.85600158        0.35100151
6
MD Time 60.00
C          -0.99922517       -0.00000000       -0.00000000
C           0.99922517        0.00000000       -0.00000000
H          -1.57550089        0.85810706        0.35035065
H          -1.57550089       -0.85810706       -0.35035065
H           1.57550089        0.85810706       -0.35035065
H           1.57550089       -0.85810706        0.35035065
6
MD Time 70.00
C          -0.99743465       -0.00000000       -0.00000000
C           0.99743465        0.00000000       -0.00000000
H          -1.57385665        0.86048313        0.34957057
H          -1.57385665       -0.86048313       -0.34957057
H           1.57385665        0.86048313       -0.34957057
H           1.57385665       -0.86048313        0.34957057
6
MD Time 80.00
C          -0.99538338       -0.00000000       -0.00000000
C           0.99538338        0.00000000       -0.00000000
H          -1.57189202        0.86307994        0.34865770
H          -1.57189202       -0.86307994       -0.34865770
H           1.57189202        0.86307994       -0.34865770
H           1.57189202       -0.86307994        0.34865770
6
MD Time 90.00
C          -0.99307672       -0.00000000       -0.00000000
C           0.99307672        0.00000000       -0.00000000
H          -1.56958387        0.86584437        0.34760922
H          -1.56958387       -0.86584437       -0.34760922
H           1.56958387        0.86584437       -0.34760922
H           1.56958387       -0.86584437        0.34760922
6
MD Time 100.00
C          -0.99052025       -0.00000000       -0.00000000
C           0.99052025        0.00000000       -0.00000000
H          -1.56690934        0.86872147        0.34642344
H          -1.56690934       -0.86872147       -0.34642344
H           1.56690934        0.86872147       -0.34642344
H           1.56690934       -0.86872147        0.34642344
6
MD Time 110.00
C          -0.98771956       -0.00000000       -0.00000000
C           0.98771956        0.00000000       -0.00000000
H          -1.56384675        0.87165595        0.34510020
H          -1.56384675       -0.87165595       -0.34510020
H           1.56384675        0.87165595       -0.34510020
H           1.56384675       -0.87165595        0.34510020
6
MD Time 120.00
C          -0.98468017       -0.00000000       -0.00000000
C           0.98468017        0.00000000       -0.00000000
H          -1.56037642        0.87459356        0.34364117
H          -1.56037642       -0.87459356       -0.34364117
H           1.56037642        0.87459356       -0.34364117
H           1.56037642       -0.87459356        0.34364117
6
MD Time 130.00
C          -0.98140741       -0.00000000       -0.00000000
C           0.98140741        0.00000000       -0.00000000
H          -1.55648149        0.87748242        0.34205019
H          -1.55648149       -0.87748242       -0.34205019
H           1.55648149        0.87748242       -0.34205019
H           1.55648149       -0.87748242        0.34205019
6
MD Time 140.00
C          -0.97790629       -0.00000000       -0.00000000
C           0.97790629        0.00000000       -0.00000000
H          -1.55214852        0.88027417        0.34033349
H          -1.55214852       -0.88027417       -0.34033349
H           1.55214852        0.88027417       -0.34033349
H           1.55214852       -0.88027417        0.34033349
6
MD Time 150.00
C          -0.97418149       -0.00000000       -0.00000000
C           0.97418149        0.00000000       -0.00000000
H          -1.54736811        0.88292507        0.33849984
H          -1.54736811       -0.88292507       -0.33849984
H           1.54736811        0.88292507       -0.33849984
H           1.54736811       -0.88292507        0.33849984
6
MD Time 160.00
C          -0.97023724       -0.00000000       -0.00000000
C           0.97023724        0.00000000       -0.00000000
H          -1.54213532        0.88539685        0.33656071
H          -1.54213532       -0.88539685       -0.33656071
H           1.54213532        0.88539685       -0.33656071
H           1.54213532       -0.88539685        0.33656071
6
MD Time 170.00
C          -0.96607733       -0.00000000       -0.00000000
C           0.96607733        0.00000000       -0.00000000
H          -1.53644999        0.88765744        0.33453027
H          -1.53644999       -0.88765744       -0.33453027
H           1.53644999        0.88765744       -0.33453027
H           1.53644999       -0.88765744        0.33453027
6
MD Time 180.00
C          -0.96170508       -0.00000000       -0.00000000
C           0.96170508        0.00000000       -0.00000000
H          -1.53031700        0.88968157        0.33242540
H          -1.53031700       -0.88968157       -0.33242540
H           1.53031700        0.88968157       -0.33242540
H           1.53031700       -0.88968157        0.33242540
6
MD Time 190.00
C          -0.95712341       -0.00000000       -0.00000000
C           0.95712341        0.00000000       -0.00000000
H          -1.52374629        0.89145112        0.33026562
H          -1.52374629       -0.89145112       -0.33026562
H           1.52374629        0.89145112       -0.33026562
H           1.52374629       -0.89145112        0.33026562
6
MD Time 200.00
C          -0.95233479       -0.00000000       -0.00000000
C           0.95233479        0.00000000       -0.00000000
H          -1.51675289        0.89295536        0.32807291
H          -1.51675289       -0.89295536       -0.32807291
H           1.51675289        0.89295536       -0.32807291
H           1.51675289       -0.89295536        0.32807291
6
MD Time 210.00
C          -0.94734139       -0.00000000       -0.00000000
C           0.94734139        0.00000000       -0.00000000
H          -1.50935674        0.89419100        0.32587152
H          -1.50935674       -0.89419100       -0.32587152
H           1.50935674        0.89419100       -0.32587152
H           1.50935674       -0.89419100        0.32587152
6
MD Time 220.00
C          -0.94214514       -0.00000000       -0.00000000
C           0.94214514        0.00000000       -0.00000000
H          -1.50158243        0.89516205        0.32368769
H          -1.50158243       -0.89516205       -0.32368769
H           1.50158243        0.89516205       -0.32368769
H           1.50158243       -0.89516205        0.32368769
6
MD Time 230.00
C          -0.93674782       -0.00000000       -0.00000000
C           0.93674782        0.00000000       -0.00000000
H          -1.49345883        0.89587955        0.32154936
H          -1.49345883       -0.89587955       -0.32154936
H           1.49345883        0.89587955       -0.32154936
H           1.49345883       -0.89587955        0.32154936
6
MD Time 240.00
C          -0.93115123       -0.00000000       -0.00000000
C           0.93115123        0.00000000       -0.00000000
H          -1.48501862        0.89636104        0.31948570
H          -1.48501862       -0.89636104       -0.31948570
H           1.48501862        0.89636104       -0.31948570
H           1.48501862       -0.89636104        0.31948570
6
MD Time 250.00
C          -0.92535735       -0.00000000       -0.00000000
C           0.92535735        0.00000000       -0.00000000
H          -1.47629766        0.89662998        0.31752675
H          -1.47629766       -0.89662998       -0.31752675
H           1.47629766        0.89662998       -0.31752675
H           1.47629766       -0.89662998        0.31752675
6
MD Time 260.00
C          -0.91936850       -0.00000000       -0.00000000
C           0.91936850        0.00000000       -0.00000000
H          -1.46733434        0.89671485        0.31570288
H          -1.46733434       -0.89671485       -0.31570288
H           1.46733434        0.89671485       -0.31570288
H           1.46733434       -0.89671485        0.31570288
6
MD Time 270.00
C          -0.91318758       -0.00000000       -0.00000000
C           0.91318758        0.00000000       -0.00000000
H          -1.45816877        0.89664824        0.31404422
H          -1.45816877       -0.89664824       -0.31404422
H           1.45816877        0.89664824       -0.31404422
H           1.45816877       -0.89664824        0.31404422
6
MD Time 280.00
C          -0.90681825       -0.00000000       -0.00000000
C           0.90681825        0.00000000       -0.00000000
H          -1.44884197        0.89646573        0.31258013
H          -1.44884197       -0.89646573       -0.31258013
H           1.44884197        0.89646573       -0.31258013
H           1.44884197       -0.89646573        0.31258013
6
MD Time 290.00
C          -0.90026523       -0.00000000       -0.00000000
C           0.90026523        0.00000000       -0.00000000
H          -1.43939496        0.89620463        0.31133856
H          -1.43939496       -0.89620463       -0.31133856
H           1.43939496        0.89620463       -0.31133856
H           1.43939496       -0.89620463        0.31133856
6
MD Time 300.00
C          -0.89353449       -0.00000000       -0.00000000
C           0.89353449        0.00000000       -0.00000000
H          -1.42986779        0.89590269        0.31034543
H          -1.42986779       -0.89590269       -0.31034543
H           1.42986779        0.89590269       -0.31034543
H           1.42986779       -0.89590269        0.31034543
6
MD Time 310.00
C          -0.88663355       -0.00000000       -0.00000000
C           0.88663355        0.00000000       -0.00000000
H          -1.42029872        0.89559677        0.30962402
H          -1.42029872       -0.89559677       -0.30962402
H           1.42029872        0.89559677       -0.30962402
H           1.42029872       -0.89559677        0.30962402
6
MD Time 320.00
C          -0.87957171       -0.00000000       -0.00000000
C           0.87957171        0.00000000       -0.00000000
H          -1.41072322        0.89532148        0.30919439
H          -1.41072322       -0.89532148       -0.30919439
H           1.41072322        0.89532148       -0.30919439
H           1.41072322       -0.89532148        0.30919439
6
MD Time 330.00
C          -0.87236031       -0.00000000       -0.00000000
C           0.87236031        0.00000000       -0.00000000
H          -1.40117326        0.89510793        0.30907280
H          -1.40117326       -0.89510793       -0.30907280
H           1.40117326        0.89510793       -0.30907280
H           1.40117326       -0.89510793        0.30907280
6
MD Time 340.00
C          -0.86501294       -0.00000000       -0.00000000
C           0.86501294        0.00000000       -0.00000000
H          -1.39167658        0.89498261        0.30927128
H          -1.39167658       -0.89498261       -0.30927128
H           1.39167658        0.89498261       -0.30927128
H           1.39167658       -0.89498261        0.30927128
6
MD Time 350.00
C          -0.85754568       -0.00000000       -0.00000000
C           0.85754568        0.00000000       -0.00000000
H          -1.38225613        0.89496640        0.30979723
H          -1.38225613       -0.89496640       -0.30979723
H           1.38225613        0.89496640       -0.30979723
H           1.38225613       -0.89496640        0.30979723
6
MD Time 360.00
C          -0.84997721       -0.00000000       -0.00000000
C           0.84997721        0.00000000       -0.00000000
H          -1.37292974        0.89507388        0.31065315
H          -1.37292974       -0.89507388       -0.31065315
H           1.37292974        0.89507388       -0.31065315
H           1.37292974       -0.89507388        0.31065315
6
MD Time 370.00
C          -0.84232898       -0.00000000       -0.00000000
C           0.84232898        0.00000000       -0.00000000
H          -1.36370995        0.89531284        0.31183646
H          -1.36370995       -0.89531284       -0.31183646
H           1.36370995        0.89531284       -0.31183646
H           1.36370995       -0.89531284        0.31183646
6
MD Time 380.00
C          -0.83462527       -0.00000000       -0.00000000
C           0.83462527        0.00000000       -0.00000000
H          -1.35460403        0.89568420        0.31333952
H          -1.35460403       -0.89568420       -0.31333952
H           1.35460403        0.89568420       -0.31333952
H           1.35460403       -0.89568420        0.31333952
6
MD Time 390.00
C          -0.82689321       -0.00000000       -0.00000000
C           0.82689321        0.00000000       -0.00000000
H          -1.34561430        0.89618211        0.31514974
H          -1.34561430       -0.89618211       -0.31514974
H           1.34561430        0.89618211       -0.31514974
H           1.34561430       -0.89618211        0.31514974
6
MD Time 400.00
C          -0.81916275       -0.00000000       -0.00000000
C           0.81916275        0.00000000       -0.00000000
H          -1.33673863        0.89679442        0.31724981
H          -1.33673863       -0.89679442       -0.31724981
H           1.33673863        0.89679442       -0.31724981
H           1.33673863       -0.89679442        0.31724981
6
MD Time 410.00
C          -0.81146652       -0.00000000       -0.00000000
C           0.81146652        0.00000000        0.00000000
H          -1.32797105        0.89750343        0.31961810
H          -1.32797105       -0.89750343       -0.31961810
H           1.32797105        0.89750343       -0.31961810
H           1.32797105       -0.89750343        0.31961810
6
MD Time 420.00
C          -0.80383972       -0.00000000       -0.00000000
C           0.80383972        0.00000000        0.00000000
H          -1.31930267        0.89828685        0.32222909
H          -1.31930267       -0.89828685       -0.32222909
H           1.31930267        0.89828685       -0.32222909
H           1.31930267       -0.89828685        0.32222909
6
MD Time 430.00
C          -0.79631981       -0.00000000       -0.00000000
C           0.79631981        0.00000000        0.00000000
H          -1.31072266        0.89911894        0.32505402
H          -1.31072266       -0.89911894       -0.32505402
H           1.31072266        0.89911894       -0.32505402
H           1.31072266       -0.89911894        0.32505402
6
MD Time 440.00
C          -0.78894627       -0.00000000       -0.00000000
C           0.78894627        0.00000000        0.00000000
H          -1.30221926        0.89997178        0.32806144
H          -1.30221926       -0.89997178       -0.32806144
H           1.30221926        0.89997178       -0.32806144
H           1.30221926       -0.89997178        0.32806144
6
MD Time 450.00
C          -0.78176016       -0.00000000       -0.00000000
C           0.78176016        0.00000000        0.00000000
H          -1.29378099        0.90081666        0.33121794
H          -1.29378099       -0.90081666       -0.33121794
H           1.29378099        0.90081666       -0.33121794
H           1.29378099       -0.90081666        0.33121794
6
MD Time 460.00
C          -0.77480369       -0.00000000       -0.00000000
C           0.77480369        0.00000000        0.00000000
H          -1.28539774        0.90162540        0.33448882
H          -1.28539774       -0.90162540       -0.33448882
H           1.28539774        0.90162540       -0.33448882
H           1.28539774       -0.90162540        0.33448882
6
MD Time 470.00
C          -0.76811973       -0.00000000       -0.00000000
C           0.76811973        0.00000000        0.00000000
H          -1.27706193        0.90237168        0.33783882
H          -1.27706193       -0.90237168       -0.33783882
H           1.27706193        0.90237168       -0.33783882
H           1.27706193       -0.90237168        0.33783882
6
MD Time 480.00
C          -0.76175118       -0.00000000       -0.00000000
C           0.76175118        0.00000000        0.00000000
H          -1.26876952        0.90303229        0.34123272
H          -1.26876952       -0.90303229       -0.34123272
H           1.26876952        0.90303229       -0.34123272
H           1.26876952       -0.90303229        0.34123272
6
MD Time 490.00
C          -0.75574038       -0.00000000       -0.00000000
C           0.75574038        0.00000000        0.00000000
H          -1.26052103        0.90358828        0.34463608
H          -1.26052103       -0.90358828       -0.34463608
H           1.26052103        0.90358828       -0.34463608
H           1.26052103       -0.90358828        0.34463608
6
MD Time 500.00
C          -0.75012839       -0.00000000       -0.00000000
C           0.75012839        0.00000000        0.00000000
H          -1.25232239        0.90402584        0.34801572
H          -1.25232239       -0.90402584       -0.34801572
H           1.25232239        0.90402584       -0.34801572
H           1.25232239       -0.90402584        0.34801572
6
MD Time 510.00
C          -0.74495428       -0.00000000       -0.00000000
C           0.74495428        0.00000000        0.00000000
H          -1.24418561        0.90433720        0.35134031
H          -1.24418561       -0.90433720       -0.35134031
H           1.24418561        0.90433720       -0.35134031
H           1.24418561       -0.90433720        0.35134031
6
MD Time 520.00
C          -0.74025440       -0.00000000       -0.00000000
C           0.74025440        0.00000000        0.00000000
H          -1.23612941        0.90452113        0.35458083
H          -1.23612941       -0.90452113       -0.35458083
H           1.23612941        0.90452113       -0.35458083
H           1.23612941       -0.90452113        0.35458083
6
MD Time 530.00
C          -0.73606164       -0.00000000       -0.00000000
C           0.73606164        0.00000000        0.00000000
H          -1.22817952        0.90458340        0.35771088
H          -1.22817952       -0.90458340       -0.35771088
H           1.22817952        0.90458340       -0.35771088
H           1.22817952       -0.90458340        0.35771088
6
MD Time 540.00
C          -0.73240475       -0.00000000       -0.00000000
C           0.73240475        0.00000000        0.00000000
H          -1.22036893        0.90453690        0.36070704
H          -1.22036893       -0.90453690       -0.36070704
H           1.22036893        0.90453690       -0.36070704
H           1.22036893       -0.90453690        0.36070704
6
MD Time 550.00
C          -0.72930765       -0.00000000       -0.00000000
C           0.72930765        0.00000000        0.00000000
H          -1.21273780        0.90440158        0.36354905
H          -1.21273780       -0.90440158       -0.36354905
H           1.21273780        0.90440158       -0.36354905
H           1.21273780       -0.90440158        0.36354905
6
MD Time 560.00
C          -0.72678894       -0.00000000       -0.00000000
C           0.72678894        0.00000000        0.00000000
H          -1.20533323        0.90420411        0.36621990
H          -1.20533323       -0.90420411       -0.36621990
H           1.20533323        0.90420411       -0.36621990
H           1.20533323       -0.90420411        0.36621990
6
MD Time 570.00
C          -0.72486143       -0.00000000       -0.00000000
C           0.72486143        0.00000000        0.00000000
H          -1.19820874        0.90397728        0.36870587
H          -1.19820874       -0.90397728       -0.36870587
H           1.19820874        0.90397728       -0.36870587
H           1.19820874       -0.90397728        0.36870587
6
MD Time 580.00
C          -0.72353185       -0.00000000       -0.00000000
C           0.72353185        0.00000000        0.00000000
H          -1.19142355        0.90375914        0.37099640
H          -1.19142355       -0.90375914       -0.37099640
H           1.19142355        0.90375914       -0.37099640
H           1.19142355       -0.90375914        0.37099640
6
MD Time 590.00
C          -0.72280071       -0.00000000       -0.00000000
C           0.72280071        0.00000000        0.00000000
H          -1.18504160        0.90359185        0.37308394
H          -1.18504160       -0.90359185       -0.37308394
H           1.18504160        0.90359185       -0.37308394
H           1.18504160       -0.90359185        0.37308394
6
MD Time 600.00
C          -0.72266238       -0.00000000       -0.00000000
C           0.72266238        0.00000000        0.00000000
H          -1.17913032        0.90352027        0.37496360
H          -1.17913032       -0.90352027       -0.37496360
H           1.17913032        0.90352027       -0.37496360
H           1.17913032       -0.90352027        0.37496360
6
MD Time 610.00
C          -0.72310526       -0.00000000       -0.00000000
C           0.72310526        0.00000000        0.00000000
H          -1.17375929        0.90359034        0.37663278
H          -1.17375929       -0.90359034       -0.37663278
H           1.17375929        0.90359034       -0.37663278
H           1.17375929       -0.90359034        0.37663278
6
MD Time 620.00
C          -0.72411218       -0.00000000       -0.00000000
C           0.72411218        0.00000000        0.00000000
H          -1.16899858        0.90384718        0.37809067
H          -1.16899858       -0.90384718       -0.37809067
H           1.16899858        0.90384718       -0.37809067
H           1.16899858       -0.90384718        0.37809067
6
MD Time 630.00
C          -0.72566097       -0.00000000       -0.00000000
C           0.72566097        0.00000000        0.00000000
H          -1.16491716        0.90433309        0.37933770
H          -1.16491716       -0.90433309       -0.37933770
H           1.16491716        0.90433309       -0.37933770
H           1.16491716       -0.90433309        0.37933770
6
MD Time 640.00
C          -0.72772505       -0.00000000       -0.00000000
C           0.72772505        0.00000000        0.00000000
H          -1.16158110        0.90508553        0.38037499
H          -1.16158110       -0.90508553       -0.38037499
H           1.16158110        0.90508553       -0.38037499
H           1.16158110       -0.90508553        0.38037499
6
MD Time 650.00
C          -0.73027422       -0.00000000       -0.00000000
C           0.73027422        0.00000000        0.00000000
H          -1.15905191        0.90613502        0.38120370
H          -1.15905191       -0.90613502       -0.38120370
H           1.15905191        0.90613502       -0.38120370
H           1.15905191       -0.90613502        0.38120370
6
MD Time 660.00
C          -0.73327546       -0.00000000       -0.00000000
C           0.73327546        0.00000000        0.00000000
H          -1.15738487        0.90750326        0.38182451
H          -1.15738487       -0.90750326       -0.38182451
H           1.15738487        0.90750326       -0.38182451
H           1.15738487       -0.90750326        0.38182451
6
MD Time 670.00
C          -0.73669371       -0.00000000       -0.00000000
C           0.73669371        0.00000000        0.00000000
H          -1.15662762        0.90920148        0.38223712
H          -1.15662762       -0.90920148       -0.38223712
H           1.15662762        0.90920148       -0.38223712
H           1.15662762       -0.90920148        0.38223712
6
MD Time 680.00
C          -0.74049269       -0.00000000       -0.00000000
C           0.74049269        0.00000000        0.00000000
H          -1.15681888        0.91122917        0.38243990
H          -1.15681888       -0.91122917       -0.38243990
H           1.15681888        0.91122917       -0.38243990
H           1.15681888       -0.91122917        0.38243990
6
MD Time 690.00
C          -0.74463564       -0.00000000       -0.00000000
C           0.74463564        0.00000000        0.00000000
H          -1.15798753        0.91357319        0.38242963
H          -1.15798753       -0.91357319       -0.38242963
H           1.15798753        0.91357319       -0.38242963
H           1.15798753       -0.91357319        0.38242963
6
MD Time 700.00
C          -0.74908598       -0.00000000       -0.00000000
C           0.74908598        0.00000000        0.00000000
H          -1.16015200        0.91620750        0.38220145
H          -1.16015200       -0.91620750       -0.38220145
H           1.16015200        0.91620750       -0.38220145
H           1.16015200       -0.91620750        0.38220145
6
MD Time 710.00
C          -0.75380786       -0.00000000       -0.00000000
C           0.75380786        0.00000000        0.00000000
H          -1.16331988        0.91909335        0.38174898
H          -1.16331988       -0.91909335       -0.38174898
H           1.16331988        0.91909335       -0.38174898
H           1.16331988       -0.91909335        0.38174898
6
MD Time 720.00
C          -0.75876669       -0.00000000       -0.00000000
C           0.75876669        0.00000000        0.00000000
H          -1.16748803        0.92218007        0.38106457
H          -1.16748803       -0.92218007       -0.38106457
H           1.16748803        0.92218007       -0.38106457
H           1.16748803       -0.92218007        0.38106457
6
MD Time 730.00
C          -0.76392944       -0.00000000       -0.00000000
C           0.76392944        0.00000000        0.00000000
H          -1.17264277        0.92540634        0.38013973
H          -1.17264277       -0.92540634       -0.38013973
H           1.17264277        0.92540634       -0.38013973
H           1.17264277       -0.92540634        0.38013973
6
MD Time 740.00
C          -0.76926496       -0.00000000       -0.00000000
C           0.76926496        0.00000000        0.00000000
H          -1.17876055        0.92870188        0.37896567
H          -1.17876055       -0.92870188       -0.37896567
H           1.17876055        0.92870188       -0.37896567
H           1.17876055       -0.92870188        0.37896567
6
MD Time 750.00
C          -0.77474411       -0.00000000       -0.00000000
C           0.77474411        0.00000000        0.00000000
H          -1.18580865        0.93198947        0.37753389
H          -1.18580865       -0.93198947       -0.37753389
H           1.18580865        0.93198947       -0.37753389
H           1.18580865       -0.93198947        0.37753389
6
MD Time 760.00
C          -0.78033988       -0.00000000       -0.00000000
C           0.78033988        0.00000000        0.00000000
H          -1.19374613        0.93518719        0.37583690
H          -1.19374613       -0.93518719       -0.37583690
H           1.19374613        0.93518719       -0.37583690
H           1.19374613       -0.93518719        0.37583690
6
MD Time 770.00
C          -0.78602741       -0.00000000       -0.00000000
C           0.78602741        0.00000000        0.00000000
H          -1.20252488        0.93821081        0.37386881
H          -1.20252488       -0.93821081       -0.37386881
H           1.20252488        0.93821081       -0.37386881
H           1.20252488       -0.93821081        0.37386881
6
MD Time 780.00
C          -0.79178395       -0.00000000       -0.00000000
C           0.79178395        0.00000000        0.00000000
H          -1.21209071        0.94097614        0.37162600
H          -1.21209071       -0.94097614       -0.37162600
H           1.21209071        0.94097614       -0.37162600
H           1.21209071       -0.94097614        0.37162600
6
MD Time 790.00
C          -0.79758880       -0.00000000       -0.00000000
C           0.79758880        0.00000000        0.00000000
H          -1.22238448        0.94340132        0.36910767
H          -1.22238448       -0.94340132       -0.36910767
H           1.22238448        0.94340132       -0.36910767
H           1.22238448       -0.94340132        0.36910767
6
MD Time 800.00
C          -0.80342317       -0.00000000       -0.00000000
C           0.80342317        0.00000000        0.00000000
H          -1.23334318        0.94540895        0.36631635
H          -1.23334318       -0.94540895       -0.36631635
H           1.23334318        0.94540895       -0.36631635
H           1.23334318       -0.94540895        0.36631635
6
MD Time 810.00
C          -0.80927009       -0.00000000       -0.00000000
C           0.80927009        0.00000000        0.00000000
H          -1.24490102        0.94692806        0.36325828
H          -1.24490102       -0.94692806       -0.36325828
H           1.24490102        0.94692806       -0.36325828
H           1.24490102       -0.94692806        0.36325828
6
MD Time 820.00
C          -0.81511425       -0.00000000       -0.00000000
C           0.81511425        0.00000000        0.00000000
H          -1.25699043        0.94789578        0.35994370
H          -1.25699043       -0.94789578       -0.35994370
H           1.25699043        0.94789578       -0.35994370
H           1.25699043       -0.94789578        0.35994370
6
MD Time 830.00
C          -0.82094182       -0.00000000       -0.00000000
C           0.82094182        0.00000000        0.00000000
H          -1.26954299        0.94825879        0.35638708
H          -1.26954299       -0.94825879       -0.35638708
H           1.26954299        0.94825879       -0.35638708
H           1.26954299       -0.94825879        0.35638708
6
MD Time 840.00
C          -0.82674036       -0.00000000       -0.00000000
C           0.82674036        0.00000000        0.00000000
H          -1.28249030        0.94797454        0.35260716
H          -1.28249030       -0.94797454       -0.35260716
H           1.28249030        0.94797454       -0.35260715
H           1.28249030       -0.94797454        0.35260715
6
MD Time 850.00
C          -0.83249860       -0.00000000       -0.00000000
C           0.83249860        0.00000000        0.00000000
H          -1.29576471        0.94701214        0.34862701
H          -1.29576471       -0.94701214       -0.34862701
H           1.29576471        0.94701214       -0.34862701
H           1.29576471       -0.94701214        0.34862701
6
MD Time 860.00
C          -0.83820634       -0.00000000       -0.00000000
C           0.83820634        0.00000000        0.00000000
H          -1.30930009        0.94535305        0.34447391
H          -1.30930009       -0.94535305       -0.34447391
H           1.30930009        0.94535305       -0.34447391
H           1.30930009       -0.94535305        0.34447391
6
MD Time 870.00
C          -0.84385428       -0.00000000       -0.00000000
C           0.84385428        0.00000000        0.00000000
H          -1.32303234        0.94299150        0.34017920
H          -1.32303234       -0.94299150       -0.34017920
H           1.32303234        0.94299150       -0.34017920
H           1.32303234       -0.94299150        0.34017920
6
MD Time 880.00
C          -0.84943391       -0.00000000       -0.00000000
C           0.84943391        0.00000000        0.00000000
H          -1.33689996        0.93993472        0.33577801
H          -1.33689996       -0.93993472       -0.33577801
H           1.33689996        0.93993472       -0.33577801
H           1.33689996       -0.93993472        0.33577801
6
MD Time 890.00
C          -0.85493738       -0.00000000       -0.00000000
C           0.85493738        0.00000000        0.00000000
H          -1.35084449        0.93620285        0.33130894
H          -1.35084449       -0.93620285       -0.33130894
H           1.35084449        0.93620285       -0.33130894
H           1.35084449       -0.93620285        0.33130894
6
MD Time 900.00
C          -0.86035741       -0.00000000       -0.00000000
C           0.86035741        0.00000000        0.00000000
H          -1.36481076        0.93182872        0.32681365
H          -1.36481076       -0.93182872       -0.32681365
H           1.36481076        0.93182872       -0.32681365
H           1.36481076       -0.93182872        0.32681365
6
MD Time 910.00
C          -0.86568720       -0.00000000       -0.00000000
C           0.86568720        0.00000000        0.00000000
H          -1.37874721        0.92685734        0.32233643
H          -1.37874721       -0.92685734       -0.32233643
H           1.37874721        0.92685734       -0.32233643
H           1.37874721       -0.92685734        0.32233643
6
MD Time 920.00
C          -0.87092033       -0.00000000       -0.00000000
C           0.87092033        0.00000000        0.00000000
H          -1.39260594        0.92134519        0.31792360
H          -1.39260594       -0.92134519       -0.31792360
H           1.39260594        0.92134519       -0.31792360
H           1.39260594       -0.92134519        0.31792360
6
MD Time 930.00
C          -0.87605075       -0.00000000       -0.00000000
C           0.87605075        0.00000000        0.00000000
H          -1.40634272        0.91535924        0.31362296
H          -1.40634272       -0.91535924       -0.31362296
H           1.40634272        0.91535924       -0.31362296
H           1.40634272       -0.91535924        0.31362296
6
MD Time 940.00
C          -0.88107275       -0.00000000       -0.00000000
C           0.88107275        0.00000000        0.00000000
H          -1.41991688        0.90897582        0.30948306
H          -1.41991688       -0.90897582       -0.30948306
H           1.41991688        0.90897582       -0.30948306
H           1.41991688       -0.90897582        0.30948306
6
MD Time 950.00
C          -0.88598092       -0.00000000       -0.00000000
C           0.88598092        0.00000000        0.00000000
H          -1.43329104        0.90227916        0.30555252
H          -1.43329104       -0.90227916       -0.30555252
H           1.43329104        0.90227916       -0.30555252
H           1.43329104       -0.90227916        0.30555252
6
MD Time 960.00
C          -0.89077020       -0.00000000       -0.00000000
C           0.89077020        0.00000000        0.00000000
H          -1.44643075        0.89535982        0.30187921
H          -1.44643075       -0.89535982       -0.30187921
H           1.44643075        0.89535982       -0.30187921
H           1.44643075       -0.89535982        0.30187921
6
MD Time 970.00
C          -0.89543589       -0.00000000       -0.00000000
C           0.89543589        0.00000000        0.00000000
H          -1.45930392        0.88831284        0.29850948
H          -1.45930392       -0.88831284       -0.29850948
H           1.45930392        0.88831284       -0.29850948
H           1.45930392       -0.88831284        0.29850948
6
MD Time 980.00
C          -0.89997373       -0.00000000       -0.00000000
C           0.89997373        0.00000000        0.00000000
H          -1.47188027        0.88123584        0.29548727
H          -1.47188027       -0.88123584       -0.29548727
H           1.47188027        0.88123584       -0.29548727
H           1.47188027       -0.88123584        0.29548727
6
MD Time 990.00
C          -0.90437995       -0.00000000       -0.00000000
C           0.90437995        0.00000000        0.00000000
H          -1.48413059        0.87422687        0.29285327
H          -1.48413059       -0.87422687       -0.29285327
H           1.48413059        0.87422687       -0.29285327
H           1.48413059       -0.87422687        0.29285327
6
MD Time 1000.00
C          -0.90865139       -0.00000000       -0.00000000
C           0.90865139        0.00000000        0.00000000
H          -1.49602601        0.86738231        0.29064412
H          -1.49602601       -0.86738231       -0.29064412
H           1.49602601        0.86738231       -0.29064412
H           1.49602601       -0.86738231        0.29064412
6
MD Time 1010.00
C          -0.91278550       -0.00000000       -0.00000000
C           0.91278550        0.00000000        0.00000000
H          -1.50753721        0.86079477        0.28889161
H          -1.50753721       -0.86079477       -0.28889161
H           1.50753721        0.86079477       -0.28889161
H           1.50753721       -0.86079477        0.28889161
6
MD Time 1020.00
C          -0.91678050       -0.00000000       -0.00000000
C           0.91678050        0.00000000        0.00000000
H          -1.51863375        0.85455098        0.28762193
H          -1.51863375       -0.85455098       -0.28762193
H           1.51863375        0.85455098       -0.28762193
H           1.51863375       -0.85455098        0.28762193
6
MD Time 1030.00
C          -0.92063540       -0.00000000       -0.00000000
C           0.92063540        0.00000000        0.00000000
H          -1.52928341        0.84872997        0.28685511
H          -1.52928341       -0.84872997       -0.28685511
H           1.52928341        0.84872997       -0.28685511
H           1.52928341       -0.84872997        0.28685511
6
MD Time 1040.00
C          -0.92435003       -0.00000000       -0.00000000
C           0.92435003        0.00000000        0.00000000
H          -1.53945176        0.84340140        0.28660443
H          -1.53945176       -0.84340140       -0.28660443
H           1.53945176        0.84340140       -0.28660443
H           1.53945176       -0.84340140        0.28660443
6
MD Time 1050.00
C          -0.92792507       -0.00000000       -0.00000000
C           0.92792507        0.00000000        0.00000000
H          -1.54910187        0.83862418        0.28687613
H          -1.54910187       -0.83862418       -0.28687613
H           1.54910187        0.83862418       -0.28687613
H           1.54910187       -0.83862418        0.28687613
6
MD Time 1060.00
C          -0.93136196       -0.00000000       -0.00000000
C           0.93136196        0.00000000        0.00000000
H          -1.55819426        0.83444549        0.28766916
H          -1.55819426       -0.83444549       -0.28766916
H           1.55819426        0.83444549       -0.28766916
H           1.55819426       -0.83444549        0.28766916
6
MD Time 1070.00
C          -0.93466292       -0.00000000       -0.00000000
C           0.93466292        0.00000000        0.00000000
H          -1.56668712        0.83090018        0.28897515
H          -1.56668712       -0.83090018       -0.28897515
H           1.56668712        0.83090018       -0.28897515
H           1.56668712       -0.83090018        0.28897515
6
MD Time 1080.00
C          -0.93783076       -0.00000000       -0.00000000
C           0.93783076        0.00000000        0.00000000
H          -1.57453678        0.82801048        0.29077850
H          -1.57453678       -0.82801048       -0.29077850
H           1.57453678        0.82801048       -0.29077850
H           1.57453678       -0.82801048        0.29077850
6
MD Time 1090.00
C          -0.94086876       -0.00000000       -0.00000000
C           0.94086876        0.00000000        0.00000000
H          -1.58169836        0.82578621        0.29305670
H          -1.58169836       -0.82578621       -0.29305670
H           1.58169836        0.82578621       -0.29305670
H           1.58169836       -0.82578621        0.29305670
6
MD Time 1100.00
C          -0.94378049       -0.00000000       -0.00000000
C           0.94378049        0.00000000        0.00000000
H          -1.58812668        0.82422528        0.29578075
H          -1.58812668       -0.82422528       -0.29578075
H           1.58812668        0.82422528       -0.29578075
H           1.58812668       -0.82422528        0.29578075
6
MD Time 1110.00
C          -0.94656962       -0.00000000       -0.00000000
C           0.94656962        0.00000000        0.00000000
H          -1.59377734        0.82331450        0.29891570
H          -1.59377734       -0.82331450       -0.29891570
H           1.59377734        0.82331450       -0.29891570
H           1.59377734       -0.82331450        0.29891570
6
MD Time 1120.00
C          -0.94923968       -0.00000000       -0.00000000
C           0.94923968        0.00000000        0.00000000
H          -1.59860785        0.82303073        0.30242136
H          -1.59860785       -0.82303073       -0.30242136
H           1.59860785        0.82303073       -0.30242136
H           1.59860785       -0.82303073        0.30242136
6
MD Time 1130.00
C          -0.95179385       -0.00000000       -0.00000000
C           0.95179385        0.00000000        0.00000000
H          -1.60257882        0.82334213        0.30625303
H          -1.60257882       -0.82334213       -0.30625303
H           1.60257882        0.82334213       -0.30625303
H           1.60257882       -0.82334213        0.30625303
6
MD Time 1140.00
C          -0.95423475       -0.00000000       -0.00000000
C           0.95423475        0.00000000        0.00000000
H          -1.60565522        0.82420957        0.31036234
H          -1.60565522       -0.82420957       -0.31036234
H           1.60565522        0.82420957       -0.31036234
H           1.60565522       -0.82420957        0.31036234
6
MD Time 1150.00
C          -0.95656421       -0.00000000       -0.00000000
C           0.95656421        0.00000000        0.00000000
H          -1.60780747        0.82558821        0.31469806
H          -1.60780747       -0.82558821       -0.31469806
H           1.60780747        0.82558821       -0.31469806
H           1.60780747       -0.82558821        0.31469806
6
MD Time 1160.00
C          -0.95878311       -0.00000000       -0.00000000
C           0.95878311        0.00000000        0.00000000
H          -1.60901253        0.82742894        0.31920704
H          -1.60901253       -0.82742894       -0.31920704
H           1.60901253        0.82742894       -0.31920704
H           1.60901253       -0.82742894        0.31920704
6
MD Time 1170.00
C          -0.96089119       -0.00000000       -0.00000000
C           0.96089119        0.00000000        0.00000000
H          -1.60925479        0.82967995        0.32383501
H          -1.60925479       -0.82967995       -0.32383501
H           1.60925479        0.82967995       -0.32383501
H           1.60925479       -0.82967995        0.32383501
6
MD Time 1180.00
C          -0.96288696       -0.00000000       -0.00000000
C           0.96288696        0.00000000        0.00000000
H          -1.60852686        0.83228810        0.32852742
H          -1.60852686       -0.83228810       -0.32852742
H           1.60852686        0.83228810       -0.32852742
H           1.60852686       -0.83228810        0.32852742
6
MD Time 1190.00
C          -0.96476754       -0.00000000       -0.00000000
C           0.96476754        0.00000000        0.00000000
H          -1.60683015        0.83520031        0.33323026
H          -1.60683015       -0.83520031       -0.33323026
H           1.60683015        0.83520031       -0.33323026
H           1.60683015       -0.83520031        0.33323026
6
MD Time 1200.00
C          -0.96652863       -0.00000000       -0.00000000
C           0.96652863        0.00000000        0.00000000
H          -1.60417531        0.83836475        0.33789081
H          -1.60417531       -0.83836475       -0.33789081
H           1.60417531        0.83836475       -0.33789081
H           1.60417531       -0.83836475        0.33789081
6
MD Time 1210.00
C          -0.96816447       -0.00000000       -0.00000000
C           0.96816447        0.00000000        0.00000000
H          -1.60058242        0.84173192        0.34245829
H          -1.60058242       -0.84173192       -0.34245829
H           1.60058242        0.84173192       -0.34245829
H           1.60058242       -0.84173192        0.34245829
6
MD Time 1220.00
C          -0.96966781       -0.00000000       -0.00000000
C           0.96966781        0.00000000        0.00000000
H          -1.59608105        0.84525559        0.34688454
H          -1.59608105       -0.84525559       -0.34688454
H           1.59608105        0.84525559       -0.34688454
H           1.59608105       -0.84525559        0.34688454
6
MD Time 1230.00
C          -0.97102996       -0.00000000       -0.00000000
C           0.97102996        0.00000000        0.00000000
H          -1.59071014        0.84889357        0.35112453
H          -1.59071014       -0.84889357       -0.35112453
H           1.59071014        0.84889357       -0.35112453
H           1.59071014       -0.84889357        0.35112453
6
MD Time 1240.00
C          -0.97224084       -0.00000000       -0.00000000
C           0.97224084        0.00000000        0.00000000
H          -1.58451769        0.85260831        0.35513690
H          -1.58451769       -0.85260831       -0.35513690
H           1.58451769        0.85260831       -0.35513690
H           1.58451769       -0.85260831        0.35513690
6
MD Time 1250.00
C          -0.97328906       -0.00000000       -0.00000000
C           0.97328906        0.00000000        0.00000000
H          -1.57756027        0.85636735        0.35888432
H          -1.57756027       -0.85636735       -0.35888432
H           1.57756027        0.85636735       -0.35888432
H           1.57756027       -0.85636735        0.35888432
6
MD Time 1260.00
C          -0.97416206       -0.00000000       -0.00000000
C           0.97416206        0.00000000        0.00000000
H          -1.56990236        0.86014358        0.36233385
H          -1.56990236       -0.86014358       -0.36233385
H           1.56990236        0.86014358       -0.36233385
H           1.56990236       -0.86014358        0.36233385
6
MD Time 1270.00
C          -0.97484622       -0.00000000       -0.00000000
C           0.97484622        0.00000000        0.00000000
H          -1.56161559        0.86391532        0.36545717
H          -1.56161559       -0.86391532       -0.36545717
H           1.56161559        0.86391532       -0.36545717
H           1.56161559       -0.86391532        0.36545717
6
MD Time 1280.00
C          -0.97532707       -0.00000000       -0.00000000
C           0.97532707        0.00000000        0.00000000
H          -1.55277777        0.86766621        0.36823076
H          -1.55277777       -0.86766621       -0.36823076
H           1.55277777        0.86766621       -0.36823076
H           1.55277777       -0.86766621        0.36823076
6
MD Time 1290.00
C          -0.97558944       -0.00000000       -0.00000000
C           0.97558944        0.00000000        0.00000000
H          -1.54347183        0.87138499        0.37063597
H          -1.54347183       -0.87138499       -0.37063597
H           1.54347183        0.87138499       -0.37063597
H           1.54347183       -0.87138499        0.37063597
6
MD Time 1300.00
C          -0.97561772       -0.00000000       -0.00000000
C           0.97561772        0.00000000        0.00000000
H          -1.53378462        0.87506499        0.37265900
H          -1.53378462       -0.87506499       -0.37265900
H           1.53378462        0.87506499       -0.37265900
H           1.53378462       -0.87506499        0.37265900
6
MD Time 1310.00
C          -0.97539606       -0.00000000       -0.00000000
C           0.97539606        0.00000000        0.00000000
H          -1.52380566        0.87870354        0.37429079
H          -1.52380566       -0.87870354       -0.37429079
H           1.52380566        0.87870354       -0.37429079
H           1.52380566       -0.87870354        0.37429079
6
MD Time 1320.00
C          -0.97490862       -0.00000000       -0.00000000
C           0.97490862        0.00000000        0.00000000
H          -1.51362576        0.88230121        0.37552684
H          -1.51362576       -0.88230121       -0.37552684
H           1.51362576        0.88230121       -0.37552684
H           1.51362576       -0.88230121        0.37552684
6
MD Time 1330.00
C          -0.97413984       -0.00000000       -0.00000000
C           0.97413984        0.00000000        0.00000000
H          -1.50333560        0.88586086        0.37636697
H          -1.50333560       -0.88586086       -0.37636697
H           1.50333560        0.88586086       -0.37636697
H           1.50333560       -0.88586086        0.37636697
6
MD Time 1340.00
C          -0.97307469       -0.00000000       -0.00000000
C           0.97307469        0.00000000        0.00000000
H          -1.49302438        0.88938667        0.37681493
H          -1.49302438       -0.88938667       -0.37681493
H           1.49302438        0.88938667       -0.37681493
H           1.49302438       -0.88938667        0.37681493
6
MD Time 1350.00
C          -0.97169896       -0.00000000       -0.00000000
C           0.97169896        0.00000000        0.00000000
H          -1.48277837        0.89288306        0.37687807
H          -1.48277837       -0.89288306       -0.37687807
H           1.48277837        0.89288306       -0.37687807
H           1.48277837       -0.89288306        0.37687807
6
MD Time 1360.00
C          -0.96999947       -0.00000000       -0.00000000
C           0.96999947        0.00000000        0.00000000
H          -1.47267958        0.89635356        0.37656683
H          -1.47267958       -0.89635356       -0.37656683
H           1.47267958        0.89635356       -0.37656683
H           1.47267958       -0.89635356        0.37656683
6
MD Time 1370.00
C          -0.96796434       -0.00000000       -0.00000000
C           0.96796434        0.00000000        0.00000000
H          -1.46280455        0.89979976        0.37589440
H          -1.46280455       -0.89979976       -0.37589440
H           1.46280455        0.89979976       -0.37589440
H           1.46280455       -0.89979976        0.37589440
6
MD Time 1380.00
C          -0.96558322       -0.00000000       -0.00000000
C           0.96558322        0.00000000        0.00000000
H          -1.45322315        0.90322031        0.37487616
H          -1.45322315       -0.90322031       -0.37487616
H           1.45322315        0.90322031       -0.37487616
H           1.45322315       -0.90322031        0.37487616
6
MD Time 1390.00
C          -0.96284748       -0.00000000       -0.00000000
C           0.96284748        0.00000000        0.00000000
H          -1.44399764        0.90661003        0.37352929
H          -1.44399764       -0.90661003       -0.37352929
H           1.44399764        0.90661003       -0.37352929
H           1.44399764       -0.90661003        0.37352929
6
MD Time 1400.00
C          -0.95975044       -0.00000000       -0.00000000
C           0.95975044        0.00000000        0.00000000
H          -1.43518188        0.90995921        0.37187238
H          -1.43518188       -0.90995921       -0.37187238
H           1.43518188        0.90995921       -0.37187238
H           1.43518188       -0.90995921        0.37187238
6
MD Time 1410.00
C          -0.95628744       -0.00000000       -0.00000000
C           0.95628744        0.00000000        0.00000000
H          -1.42682062        0.91325316        0.36992506
H          -1.42682062       -0.91325316       -0.36992506
H           1.42682062        0.91325316       -0.36992506
H           1.42682062       -0.91325316        0.36992506
6
MD Time 1420.00
C          -0.95245605       -0.00000000       -0.00000000
C           0.95245605        0.00000000        0.00000000
H          -1.41894917        0.91647194        0.36770773
H          -1.41894917       -0.91647194       -0.36770773
H           1.41894917        0.91647194       -0.36770773
H           1.41894917       -0.91647194        0.36770773
6
MD Time 1430.00
C          -0.94825611       -0.00000000       -0.00000000
C           0.94825611        0.00000000        0.00000000
H          -1.41159311        0.91959036        0.36524132
H          -1.41159311       -0.91959036       -0.36524132
H           1.41159311        0.91959036       -0.36524132
H           1.41159311       -0.91959036        0.36524132
6
MD Time 1440.00
C          -0.94368985       -0.00000000       -0.00000000
C           0.94368985        0.00000000        0.00000000
H          -1.40476830        0.92257832        0.36254719
H          -1.40476830       -0.92257832       -0.36254719
H           1.40476830        0.92257832       -0.36254719
H           1.40476830       -0.92257832        0.36254719
6
MD Time 1450.00
C          -0.93876188       -0.00000000       -0.00000000
C           0.93876188        0.00000000        0.00000000
H          -1.39848100        0.92540131        0.35964701
H          -1.39848100       -0.92540131       -0.35964701
H           1.39848100        0.92540131       -0.35964701
H           1.39848100       -0.92540131        0.35964701
6
MD Time 1460.00
C          -0.93347925       -0.00000000       -0.00000000
C           0.93347925        0.00000000        0.00000000
H          -1.39272823        0.92802116        0.35656277
H          -1.39272823       -0.92802116       -0.35656277
H           1.39272823        0.92802116       -0.35656277
H           1.39272823       -0.92802116        0.35656277
6
MD Time 1470.00
C          -0.92785145       -0.00000000       -0.00000000
C           0.92785145        0.00000000        0.00000000
H          -1.38749825        0.93039703        0.35331682
H          -1.38749825       -0.93039703       -0.35331682
H           1.38749825        0.93039703       -0.35331682
H           1.38749825       -0.93039703        0.35331682
6
MD Time 1480.00
C          -0.92189037       -0.00000000       -0.00000000
C           0.92189037        0.00000000        0.00000000
H          -1.38277114        0.93248654        0.34993195
H          -1.38277114       -0.93248654       -0.34993195
H           1.38277114        0.93248654       -0.34993195
H           1.38277114       -0.93248654        0.34993195
6
MD Time 1490.00
C          -0.91561030       -0.00000000       -0.00000000
C           0.91561030        0.00000000        0.00000000
H          -1.37851956        0.93424694        0.34643147
H          -1.37851956       -0.93424694       -0.34643147
H           1.37851956        0.93424694       -0.34643147
H           1.37851956       -0.93424694        0.34643147
6
MD Time 1500.00
C          -0.90902786       -0.00000000       -0.00000000
C           0.90902786        0.00000000        0.00000000
H          -1.37470957        0.93563643        0.34283937
H          -1.37470957       -0.93563643       -0.34283937
H           1.37470957        0.93563643       -0.34283937
H           1.37470957       -0.93563643        0.34283937
6
MD Time 1510.00
C          -0.90216198       -0.00000000       -0.00000000
C           0.90216198        0.00000000        0.00000000
H          -1.37130146        0.93661548        0.33918038
H          -1.37130146       -0.93661548       -0.33918038
H           1.37130146        0.93661548       -0.33918038
H           1.37130146       -0.93661548        0.33918038
6
MD Time 1520.00
C          -0.89503386       -0.00000000       -0.00000000
C           0.89503386        0.00000000        0.00000000
H          -1.36825073        0.93714807        0.33548012
H          -1.36825073       -0.93714807       -0.33548012
H           1.36825073        0.93714807       -0.33548012
H           1.36825073       -0.93714807        0.33548012
6
MD Time 1530.00
C          -0.88766688       -0.00000000       -0.00000000
C           0.88766688        0.00000000        0.00000000
H          -1.36550902        0.93720296        0.33176515
H          -1.36550902       -0.93720296       -0.33176515
H           1.36550902        0.93720296       -0.33176515
H           1.36550902       -0.93720296        0.33176515
6
MD Time 1540.00
C          -0.88008660       -0.00000000       -0.00000000
C           0.88008660        0.00000000        0.00000000
H          -1.36302508        0.93675477        0.32806303
H          -1.36302508       -0.93675477       -0.32806303
H           1.36302508        0.93675477       -0.32806303
H           1.36302508       -0.93675477        0.32806303
6
MD Time 1550.00
C          -0.87232066       -0.00000000       -0.00000000
C           0.87232066        0.00000000        0.00000000
H          -1.36074575        0.93578504        0.32440236
H          -1.36074575       -0.93578504       -0.32440236
H           1.36074575        0.93578504       -0.32440236
H           1.36074575       -0.93578504        0.32440236
6
MD Time 1560.00
C          -0.86439873       -0.00000000       -0.00000000
C           0.86439873        0.00000000       -0.00000000
H          -1.35861693        0.93428309        0.32081274
H          -1.35861693       -0.93428309       -0.32081274
H           1.35861693        0.93428309       -0.32081274
H           1.35861693       -0.93428309        0.32081274
6
MD Time 1570.00
C          -0.85635249       -0.00000000       -0.00000000
C           0.85635249        0.00000000       -0.00000000
H          -1.35658453        0.93224673        0.31732472
H          -1.35658453       -0.93224673       -0.31732472
H           1.35658453        0.93224673       -0.31732472
H           1.35658453       -0.93224673        0.31732472
6
MD Time 1580.00
C          -0.84821549       -0.00000000       -0.00000000
C           0.84821549        0.00000000       -0.00000000
H          -1.35459535        0.92968289        0.31396975
H          -1.35459535       -0.92968289       -0.31396975
H           1.35459535        0.92968289       -0.31396975
H           1.35459535       -0.92968289        0.31396975
6
MD Time 1590.00
C          -0.84002314       -0.00000000       -0.00000000
C           0.84002314        0.00000000       -0.00000000
H          -1.35259800        0.92660797        0.31077996
H          -1.35259800       -0.92660797       -0.31077996
H           1.35259800        0.92660797       -0.31077996
H           1.35259800       -0.92660797        0.31077996
6
MD Time 1600.00
C          -0.83181259       -0.00000000       -0.00000000
C           0.83181259        0.00000000       -0.00000000
H          -1.35054369        0.92304810        0.30778807
H          -1.35054369       -0.92304810       -0.30778807
H           1.35054369        0.92304810       -0.30778807
H           1.35054369       -0.92304810        0.30778807
6
MD Time 1610.00
C          -0.82362260       -0.00000000       -0.00000000
C           0.82362260        0.00000000       -0.00000000
H          -1.34838705        0.91903918        0.30502713
H          -1.34838705       -0.91903918       -0.30502713
H           1.34838705        0.91903918       -0.30502713
H           1.34838705       -0.91903918        0.30502713
6
MD Time 1620.00
C          -0.81549344       -0.00000000       -0.00000000
C           0.81549344        0.00000000       -0.00000000
H          -1.34608682        0.91462678        0.30253029
H          -1.34608682       -0.91462678       -0.30253029
H           1.34608682        0.91462678       -0.30253029
H           1.34608682       -0.91462678        0.30253029
6
MD Time 1630.00
C          -0.80746668       -0.00000000       -0.00000000
C           0.80746668        0.00000000       -0.00000000
H          -1.34360648        0.90986578        0.30033050
H          -1.34360648       -0.90986578       -0.30033050
H           1.34360648        0.90986578       -0.30033050
H           1.34360648       -0.90986578        0.30033050
6
MD Time 1640.00
C          -0.79958501       -0.00000000       -0.00000000
C           0.79958501        0.00000000       -0.00000000
H          -1.34091488        0.90481989        0.29846015
H          -1.34091488       -0.90481989       -0.29846015
H           1.34091488        0.90481989       -0.29846015
H           1.34091488       -0.90481989        0.29846015
6
MD Time 1650.00
C          -0.79189199       -0.00000000       -0.00000000
C           0.79189199        0.00000000       -0.00000000
H          -1.33798665        0.89956092        0.29695071
H          -1.33798665       -0.89956092       -0.29695071
H           1.33798665        0.89956092       -0.29695071
H           1.33798665       -0.89956092        0.29695071
6
MD Time 1660.00
C          -0.78443171       -0.00000000       -0.00000000
C           0.78443171        0.00000000       -0.00000000
H          -1.33480258        0.89416787        0.29583234
H          -1.33480258       -0.89416787       -0.29583234
H           1.33480258        0.89416787       -0.29583234
H           1.33480258       -0.89416787        0.29583234
6
MD Time 1670.00
C          -0.77724851       -0.00000000       -0.00000000
C           0.77724851        0.00000000       -0.00000000
H          -1.33134995        0.88872584        0.29513336
H          -1.33134995       -0.88872584       -0.29513336
H           1.33134995        0.88872584       -0.29513336
H           1.33134995       -0.88872584        0.29513336
6
MD Time 1680.00
C          -0.77038650       -0.00000000       -0.00000000
C           0.77038650        0.00000000       -0.00000000
H          -1.32762254        0.88332464        0.29487978
H          -1.32762254       -0.88332464       -0.29487978
H           1.32762254        0.88332464       -0.29487978
H           1.32762254       -0.88332464        0.29487978
6
MD Time 1690.00
C          -0.76388915       -0.00000000       -0.00000000
C           0.76388915        0.00000000       -0.00000000
H          -1.32362077        0.87805730        0.29509477
H          -1.32362077       -0.87805730       -0.29509477
H           1.32362077        0.87805730       -0.29509477
H           1.32362077       -0.87805730        0.29509477
6
MD Time 1700.00
C          -0.75779876       -0.00000000       -0.00000000
C           0.75779876        0.00000000       -0.00000000
H          -1.31935143        0.87301840        0.29579802
H          -1.31935143       -0.87301840       -0.29579802
H           1.31935143        0.87301840       -0.29579802
H           1.31935143       -0.87301840        0.29579802
6
MD Time 1710.00
C          -0.75215593       -0.00000000       -0.00000000
C           0.75215593        0.00000000       -0.00000000
H          -1.31482748        0.86830210        0.29700521
H          -1.31482748       -0.86830210       -0.29700521
H           1.31482748        0.86830210       -0.29700521
H           1.31482748       -0.86830210        0.29700521
6
MD Time 1720.00
C          -0.74699893       -0.00000000       -0.00000000
C           0.74699893        0.00000000       -0.00000000
H          -1.31006761        0.86400021        0.29872728
H          -1.31006761       -0.86400021       -0.29872728
H           1.31006761        0.86400021       -0.29872728
H           1.31006761       -0.86400021        0.29872728
6
MD Time 1730.00
C          -0.74236318       -0.00000000       -0.00000000
C           0.74236318        0.00000000       -0.00000000
H          -1.30509563        0.86020006        0.30096990
H          -1.30509563       -0.86020006       -0.30096990
H           1.30509563        0.86020006       -0.30096990
H           1.30509563       -0.86020006        0.30096990
6
MD Time 1740.00
C          -0.73828056       -0.00000000       -0.00000000
C           0.73828056        0.00000000       -0.00000000
H          -1.29993984        0.85698236        0.30373277
H          -1.29993984       -0.85698236       -0.30373277
H           1.29993984        0.85698236       -0.30373277
H           1.29993984       -0.85698236        0.30373277
6
MD Time 1750.00
C          -0.73477893       -0.00000000       -0.00000000
C           0.73477893        0.00000000       -0.00000000
H          -1.29463228        0.85441911        0.30700909
H          -1.29463228       -0.85441911       -0.30700909
H           1.29463228        0.85441911       -0.30700909
H           1.29463228       -0.85441911        0.30700909
6
MD Time 1760.00
C          -0.73188152       -0.00000000       -0.00000000
C           0.73188152        0.00000000       -0.00000000
H          -1.28920783        0.85257161        0.31078504
H          -1.28920783       -0.85257161       -0.31078504
H           1.28920783        0.85257161       -0.31078504
H           1.28920783       -0.85257161        0.31078504
6
MD Time 1770.00
C          -0.72960653       -0.00000000       -0.00000000
C           0.72960653        0.00000000       -0.00000000
H          -1.28370345        0.85148863        0.31503935
H          -1.28370345       -0.85148863       -0.31503935
H           1.28370345        0.85148863       -0.31503935
H           1.28370345       -0.85148863        0.31503935
6
MD Time 1780.00
C          -0.72796672       -0.00000000       -0.00000000
C           0.72796672        0.00000000       -0.00000000
H          -1.27815730        0.85120485        0.31974304
H          -1.27815730       -0.85120485       -0.31974304
H           1.27815730        0.85120485       -0.31974304
H           1.27815730       -0.85120485        0.31974304
6
MD Time 1790.00
C          -0.72696914       -0.00000000       -0.00000000
C           0.72696914        0.00000000       -0.00000000
H          -1.27260799        0.85173973        0.32485926
H          -1.27260799       -0.85173973       -0.32485926
H           1.27260799        0.85173973       -0.32485926
H           1.27260799       -0.85173973        0.32485926
6
MD Time 1800.00
C          -0.72661501       -0.00000000       -0.00000000
C           0.72661501        0.00000000       -0.00000000
H          -1.26709398        0.85309663        0.33034338
H          -1.26709398       -0.85309663       -0.33034338
H           1.26709398        0.85309663       -0.33034338
H           1.26709398       -0.85309663        0.33034338
6
MD Time 1810.00
C          -0.72689963       -0.00000000       -0.00000000
C           0.72689963        0.00000000       -0.00000000
H          -1.26165302        0.85526256        0.33614324
H          -1.26165302       -0.85526256       -0.33614324
H           1.26165302        0.85526256       -0.33614324
H           1.26165302       -0.85526256        0.33614324
6
MD Time 1820.00
C          -0.72781255       -0.00000000       -0.00000000
C           0.72781255        0.00000000       -0.00000000
H          -1.25632184        0.85820827        0.34219964
H          -1.25632184       -0.85820827       -0.34219964
H           1.25632184        0.85820827       -0.34219964
H           1.25632184       -0.85820827        0.34219964
6
MD Time 1830.00
C          -0.72933772       -0.00000000       -0.00000000
C           0.72933772        0.00000000       -0.00000000
H          -1.25113598        0.86188893        0.34844703
H          -1.25113598       -0.86188893       -0.34844703
H           1.25113598        0.86188893       -0.34844703
H           1.25113598       -0.86188893        0.34844703
6
MD Time 1840.00
C          -0.73145382       -0.00000000       -0.00000000
C           0.73145382        0.00000000       -0.00000000
H          -1.24612977        0.86624523        0.35481444
H          -1.24612977       -0.86624523       -0.35481444
H           1.24612977        0.86624523       -0.35481444
H           1.24612977       -0.86624523        0.35481444
6
MD Time 1850.00
C          -0.73413472       -0.00000000       -0.00000000
C           0.73413472        0.00000000       -0.00000000
H          -1.24133652        0.87120488        0.36122657
H          -1.24133652       -0.87120488       -0.36122657
H           1.24133652        0.87120488       -0.36122657
H           1.24133652       -0.87120488        0.36122657
6
MD Time 1860.00
C          -0.73734992       -0.00000000       -0.00000000
C           0.73734992        0.00000000       -0.00000000
H          -1.23678871        0.87668452        0.36760504
H          -1.23678871       -0.87668452       -0.36760504
H           1.23678871        0.87668452       -0.36760504
H           1.23678871       -0.87668452        0.36760504
6
MD Time 1870.00
C          -0.74106511       -0.00000000       -0.00000000
C           0.74106511        0.00000000       -0.00000000
H          -1.23251835        0.88259183        0.37386974
H          -1.23251835       -0.88259183       -0.37386974
H           1.23251835        0.88259183       -0.37386974
H           1.23251835       -0.88259183        0.37386974
6
MD Time 1880.00
C          -0.74524278       -0.00000000       -0.00000000
C           0.74524278        0.00000000       -0.00000000
H          -1.22855733        0.88882786        0.37994028
H          -1.22855733       -0.88882786       -0.37994028
H           1.22855733        0.88882786       -0.37994028
H           1.22855733       -0.88882786        0.37994028
6
MD Time 1890.00
C          -0.74984281       -0.00000000       -0.00000000
C           0.74984281        0.00000000       -0.00000000
H          -1.22493776        0.89528938        0.38573737
H          -1.22493776       -0.89528938       -0.38573737
H           1.22493776        0.89528938       -0.38573737
H           1.22493776       -0.89528938        0.38573737
6
MD Time 1900.00
C          -0.75482306       -0.00000000       -0.00000000
C           0.75482306        0.00000000       -0.00000000
H          -1.22169220        0.90187129        0.39118427
H          -1.22169220       -0.90187129       -0.39118427
H           1.22169220        0.90187129       -0.39118427
H           1.22169220       -0.90187129        0.39118427
6
MD Time 1910.00
C          -0.76014002       -0.00000000       -0.00000000
C           0.76014002        0.00000000       -0.00000000
H          -1.21885389        0.90846887        0.39620807
H          -1.21885389       -0.90846887       -0.39620807
H           1.21885389        0.90846887       -0.39620807
H           1.21885389       -0.90846887        0.39620807
6
MD Time 1920.00
C          -0.76574932       -0.00000000       -0.00000000
C           0.76574932        0.00000000       -0.00000000
H          -1.21645685        0.91497989        0.40074090
H          -1.21645685       -0.91497989       -0.40074090
H           1.21645685        0.91497989       -0.40074090
H           1.21645685       -0.91497989        0.40074090
6
MD Time 1930.00
C          -0.77160628       -0.00000000       -0.00000000
C           0.77160628        0.00000000       -0.00000000
H          -1.21453579        0.92130656        0.40472100
H          -1.21453579       -0.92130656       -0.40472100
H           1.21453579        0.92130656       -0.40472100
H           1.21453579       -0.92130656        0.40472100
6
MD Time 1940.00
C          -0.77766644       -0.00000000       -0.00000000
C           0.77766644        0.00000000       -0.00000000
H          -1.21312608        0.92735719        0.40809364
H          -1.21312608       -0.92735719       -0.40809364
H           1.21312608        0.92735719       -0.40809364
H           1.21312608       -0.92735719        0.40809364
6
MD Time 1950.00
C          -0.78388594       -0.00000000       -0.00000000
C           0.78388594        0.00000000       -0.00000000
H          -1.21226346        0.93304758        0.41081185
H          -1.21226346       -0.93304758       -0.41081185
H           1.21226346        0.93304758       -0.41081185
H           1.21226346       -0.93304758        0.41081185
6
MD Time 1960.00
C          -0.79022194       -0.00000000       -0.00000000
C           0.79022194        0.00000000       -0.00000000
H          -1.21198373        0.93830223        0.41283703
H          -1.21198373       -0.93830223       -0.41283703
H           1.21198373        0.93830223       -0.41283703
H           1.21198373       -0.93830223        0.41283703
6
MD Time 1970.00
C          -0.79663293       -0.00000000       -0.00000000
C           0.79663293        0.00000000       -0.00000000
H          -1.21232242        0.94305522        0.41413936
H          -1.21232242       -0.94305522       -0.41413936
H           1.21232242        0.94305522       -0.41413936
H           1.21232242       -0.94305522        0.41413936
6
MD Time 1980.00
C          -0.80307903       -0.00000000       -0.00000000
C           0.80307903        0.00000000       -0.00000000
H          -1.21331434        0.94725092        0.41469811
H          -1.21331434       -0.94725092       -0.41469811
H           1.21331434        0.94725092       -0.41469811
H           1.21331434       -0.94725092        0.41469811
6
MD Time 1990.00
C          -0.80952222       -0.00000000       -0.00000000
C           0.80952222        0.00000000       -0.00000000
H          -1.21499311        0.95084443        0.41450182
H          -1.21499311       -0.95084443       -0.41450182
H           1.21499311        0.95084443       -0.41450182
H           1.21499311       -0.95084443        0.41450182
6
MD Time 2000.00
C          -0.81592652       -0.00000000       -0.00000000
C           0.81592652        0.00000000       -0.00000000
H          -1.21739068        0.95380181        0.41354829
H          -1.21739068       -0.95380181       -0.41354829
H           1.21739068        0.95380181       -0.41354829
H           1.21739068       -0.95380181        0.41354829
6
MD Time 2010.00
C          -0.82225815       -0.00000000       -0.00000000
C           0.82225815        0.00000000       -0.00000000
H          -1.22053682        0.95610020        0.41184459
H          -1.22053682       -0.95610020       -0.41184459
H           1.22053682        0.95610020       -0.41184459
H           1.22053682       -0.95610020        0.41184459
6
MD Time 2020.00
C          -0.82848562       -0.00000000       -0.00000000
C           0.82848562       -0.00000000        0.00000000
H          -1.22445863        0.95772768        0.40940681
H          -1.22445863       -0.95772768       -0.40940681
H           1.22445863        0.95772768       -0.40940681
H           1.22445863       -0.95772768        0.40940681
6
MD Time 2030.00
C          -0.83457987       -0.00000000       -0.00000000
C           0.83457987       -0.00000000        0.00000000
H          -1.22917998        0.95868299        0.40625986
H          -1.22917998       -0.95868299       -0.40625986
H           1.22917998        0.95868299       -0.40625986
H           1.22917998       -0.95868299        0.40625986
6
MD Time 2040.00
C          -0.84051429       -0.00000000       -0.00000000
C           0.84051429       -0.00000000        0.00000000
H          -1.23472102        0.95897511        0.40243710
H          -1.23472102       -0.95897511       -0.40243710
H           1.23472102        0.95897511       -0.40243710
H           1.23472102       -0.95897511        0.40243710
6
MD Time 2050.00
C          -0.84626479       -0.00000000       -0.00000000
C           0.84626479       -0.00000000        0.00000000
H          -1.24109760        0.95862259        0.39797987
H          -1.24109760       -0.95862259       -0.39797987
H           1.24109760        0.95862259       -0.39797987
H           1.24109760       -0.95862259        0.39797987
6
MD Time 2060.00
C          -0.85180985       -0.00000000       -0.00000000
C           0.85180985       -0.00000000        0.00000000
H          -1.24832076        0.95765282        0.39293692
H          -1.24832076       -0.95765282       -0.39293692
H           1.24832076        0.95765282       -0.39293692
H           1.24832076       -0.95765282        0.39293692
6
MD Time 2070.00
C          -0.85713054       -0.00000000       -0.00000000
C           0.85713054       -0.00000000        0.00000000
H          -1.25639613        0.95610105        0.38736378
H          -1.25639613       -0.95610105       -0.38736378
H           1.25639613        0.95610105       -0.38736378
H           1.25639613       -0.95610105        0.38736378
6
MD Time 2080.00
C          -0.86221058       -0.00000000       -0.00000000
C           0.86221058       -0.00000000        0.00000000
H          -1.26532338        0.95400922        0.38132193
H          -1.26532338       -0.95400922       -0.38132193
H           1.26532338        0.95400922       -0.38132193
H           1.26532338       -0.95400922        0.38132193
6
MD Time 2090.00
C          -0.86703632       -0.00000000       -0.00000000
C           0.86703632       -0.00000000        0.00000000
H          -1.27509556        0.95142464        0.37487797
H          -1.27509556       -0.95142464       -0.37487797
H           1.27509556        0.95142464       -0.37487797
H           1.27509556       -0.95142464        0.37487797
6
MD Time 2100.00
C          -0.87159684       -0.00000000       -0.00000000
C           0.87159684       -0.00000000        0.00000000
H          -1.28569853        0.94839856        0.36810255
H          -1.28569853       -0.94839856       -0.36810255
H           1.28569853        0.94839856       -0.36810255
H           1.28569853       -0.94839856        0.36810255
6
MD Time 2110.00
C          -0.87588393       -0.00000000       -0.00000000
C           0.87588393       -0.00000000        0.00000000
H          -1.29711029        0.94498449        0.36106929
H          -1.29711029       -0.94498449       -0.36106929
H           1.29711029        0.94498449       -0.36106929
H           1.29711029       -0.94498449        0.36106929
6
MD Time 2120.00
C          -0.87989215       -0.00000000       -0.00000000
C           0.87989215       -0.00000000        0.00000000
H          -1.30930037        0.94123660        0.35385364
H          -1.30930037       -0.94123660       -0.35385364
H           1.30930037        0.94123660       -0.35385364
H           1.30930037       -0.94123660        0.35385364
6
MD Time 2130.00
C          -0.88361883       -0.00000000       -0.00000000
C           0.88361883       -0.00000000        0.00000000
H          -1.32222922        0.93720793        0.34653160
H          -1.32222922       -0.93720793       -0.34653160
H           1.32222922        0.93720793       -0.34653160
H           1.32222922       -0.93720793        0.34653160
6
MD Time 2140.00
C          -0.88706411       -0.00000000       -0.00000000
C           0.88706411       -0.00000000        0.00000000
H          -1.33584762        0.93294882        0.33917853
H          -1.33584762       -0.93294882       -0.33917853
H           1.33584762        0.93294882       -0.33917853
H           1.33584762       -0.93294882        0.33917853
6
MD Time 2150.00
C          -0.89023095       -0.00000000       -0.00000000
C           0.89023095       -0.00000000        0.00000000
H          -1.35009628        0.92850538        0.33186792
H          -1.35009628       -0.92850538       -0.33186792
H           1.35009628        0.92850538       -0.33186792
H           1.35009628       -0.92850538        0.33186792
6
MD Time 2160.00
C          -0.89312505       -0.00000000       -0.00000000
C           0.89312505        0.00000000        0.00000000
H          -1.36490551        0.92391828        0.32467033
H          -1.36490551       -0.92391828       -0.32467033
H           1.36490551        0.92391828       -0.32467033
H           1.36490551       -0.92391828        0.32467033
6
MD Time 2170.00
C          -0.89575486       -0.00000000       -0.00000000
C           0.89575486        0.00000000        0.00000000
H          -1.38019507        0.91922184        0.31765237
H          -1.38019507       -0.91922184       -0.31765237
H           1.38019507        0.91922184       -0.31765237
H           1.38019507       -0.91922184        0.31765237
6
MD Time 2180.00
C          -0.89813139       -0.00000000       -0.00000000
C           0.89813139        0.00000000        0.00000000
H          -1.39587437        0.91444356        0.31087595
H          -1.39587437       -0.91444356       -0.31087595
H           1.39587437        0.91444356       -0.31087595
H           1.39587437       -0.91444356        0.31087595
6
MD Time 2190.00
C          -0.90026815       -0.00000000       -0.00000000
C           0.90026815        0.00000000        0.00000000
H          -1.41184286        0.90960410        0.30439763
H          -1.41184286       -0.90960410       -0.30439763
H           1.41184286        0.90960410       -0.30439763
H           1.41184286       -0.90960410        0.30439763
6
MD Time 2200.00
C          -0.90218083       -0.00000000       -0.00000000
C           0.90218083        0.00000000        0.00000000
H          -1.42799081        0.90471765        0.29826827
H          -1.42799081       -0.90471765       -0.29826827
H           1.42799081        0.90471765       -0.29826827
H           1.42799081       -0.90471765        0.29826827
6
MD Time 2210.00
C          -0.90388710       -0.00000000       -0.00000000
C           0.90388710        0.00000000        0.00000000
H          -1.44420044        0.89979282        0.29253286
H          -1.44420044       -0.89979282       -0.29253286
H           1.44420044        0.89979282       -0.29253286
H           1.44420044       -0.89979282        0.29253286
6
MD Time 2220.00
C          -0.90540626       -0.00000000       -0.00000000
C           0.90540626        0.00000000        0.00000000
H          -1.46034738        0.89483385        0.28723051
H          -1.46034738       -0.89483385       -0.28723051
H           1.46034738        0.89483385       -0.28723051
H           1.46034738       -0.89483385        0.28723051
6
MD Time 2230.00
C          -0.90675884       -0.00000000       -0.00000000
C           0.90675884        0.00000000        0.00000000
H          -1.47630240        0.88984200        0.28239464
H          -1.47630240       -0.88984200       -0.28239464
H           1.47630240        0.88984200       -0.28239464
H           1.47630240       -0.88984200        0.28239464
6
MD Time 2240.00
C          -0.90796621       -0.00000000       -0.00000000
C           0.90796621        0.00000000        0.00000000
H          -1.49193343        0.88481722        0.27805328
H          -1.49193343       -0.88481722       -0.27805328
H           1.49193343        0.88481722       -0.27805328
H           1.49193343       -0.88481722        0.27805328
6
MD Time 2250.00
C          -0.90905009       -0.00000000       -0.00000000
C           0.90905009        0.00000000        0.00000000
H          -1.50710775        0.87975968        0.27422945
H          -1.50710775       -0.87975968       -0.27422945
H           1.50710775        0.87975968       -0.27422945
H           1.50710775       -0.87975968        0.27422945
6
MD Time 2260.00
C          -0.91003215       -0.00000000       -0.00000000
C           0.91003215        0.00000000        0.00000000
H          -1.52169424        0.87467136        0.27094156
H          -1.52169424       -0.87467136       -0.27094156
H           1.52169424        0.87467136       -0.27094156
H           1.52169424       -0.87467136        0.27094156
6
MD Time 2270.00
C          -0.91093353       -0.00000000       -0.00000000
C           0.91093353        0.00000000        0.00000000
H          -1.53556559        0.86955740        0.26820389
H          -1.53556559       -0.86955740       -0.26820389
H           1.53556559        0.86955740       -0.26820389
H           1.53556559       -0.86955740        0.26820389
6
MD Time 2280.00
C          -0.91177443       -0.00000000       -0.00000000
C           0.91177443        0.00000000        0.00000000
H          -1.54860050        0.86442719        0.26602695
H          -1.54860050       -0.86442719       -0.26602695
H           1.54860050        0.86442719       -0.26602695
H           1.54860050       -0.86442719        0.26602695
6
MD Time 2290.00
C          -0.91257369       -0.00000000       -0.00000000
C           0.91257369        0.00000000        0.00000000
H          -1.56068567        0.85929528        0.26441787
H          -1.56068567       -0.85929528       -0.26441787
H           1.56068567        0.85929528       -0.26441787
H           1.56068567       -0.85929528        0.26441787
6
MD Time 2300.00
C          -0.91334849       -0.00000000       -0.00000000
C           0.91334849        0.00000000        0.00000000
H          -1.57171757        0.85418191        0.26338073
H          -1.57171757       -0.85418191       -0.26338073
H           1.57171757        0.85418191       -0.26338073
H           1.57171757       -0.85418191        0.26338073
6
MD Time 2310.00
C          -0.91411399       -0.00000000       -0.00000000
C           0.91411399        0.00000000        0.00000000
H          -1.58160404        0.84911338        0.26291683
H          -1.58160404       -0.84911338       -0.26291683
H           1.58160404        0.84911338       -0.26291683
H           1.58160404       -0.84911338        0.26291683
6
MD Time 2320.00
C          -0.91488311       -0.00000000       -0.00000000
C           0.91488311        0.00000000        0.00000000
H          -1.59026553        0.84412207        0.26302489
H          -1.59026553       -0.84412207       -0.26302489
H           1.59026553        0.84412207       -0.26302489
H           1.59026553       -0.84412207        0.26302489
6
MD Time 2330.00
C          -0.91566631       -0.00000000       -0.00000000
C           0.91566631        0.00000000        0.00000000
H          -1.59763621        0.83924632        0.26370120
H          -1.59763621       -0.83924632       -0.26370120
H           1.59763621        0.83924632       -0.26370120
H           1.59763621       -0.83924632        0.26370120
6
MD Time 2340.00
C          -0.91647144       -0.00000000       -0.00000000
C           0.91647144        0.00000000        0.00000000
H          -1.60366470        0.83453004        0.26493972
H          -1.60366470       -0.83453004       -0.26493972
H           1.60366470        0.83453004       -0.26493972
H           1.60366470       -0.83453004        0.26493972
6
MD Time 2350.00
C          -0.91730363       -0.00000000       -0.00000000
C           0.91730363        0.00000000        0.00000000
H          -1.60831470        0.83002223        0.26673214
H          -1.60831470       -0.83002223       -0.26673214
H           1.60831470        0.83002223       -0.26673214
H           1.60831470       -0.83002223        0.26673214
6
MD Time 2360.00
C          -0.91816524       -0.00000000       -0.00000000
C           0.91816524        0.00000000        0.00000000
H          -1.61156524        0.82577630        0.26906783
H          -1.61156524       -0.82577630       -0.26906783
H           1.61156524        0.82577630       -0.26906783
H           1.61156524       -0.82577630        0.26906783
6
MD Time 2370.00
C          -0.91905580       -0.00000000       -0.00000000
C           0.91905580        0.00000000        0.00000000
H          -1.61341082        0.82184927        0.27193386
H          -1.61341082       -0.82184927       -0.27193386
H           1.61341082        0.82184927       -0.27193386
H           1.61341082       -0.82184927        0.27193386
6
MD Time 2380.00
C          -0.91997207       -0.00000000       -0.00000000
C           0.91997207        0.00000000        0.00000000
H          -1.61386132        0.81830083        0.27531486
H          -1.61386132       -0.81830083       -0.27531486
H           1.61386132        0.81830083       -0.27531486
H           1.61386132       -0.81830083        0.27531486
6
MD Time 2390.00
C          -0.92090811       -0.00000000       -0.00000000
C           0.92090811        0.00000000        0.00000000
H          -1.61294156        0.81519235        0.27919290
H          -1.61294156       -0.81519235       -0.27919290
H           1.61294156        0.81519235       -0.27919290
H           1.61294156       -0.81519235        0.27919290
6
MD Time 2400.00
C          -0.92185536       -0.00000000       -0.00000000
C           0.92185536        0.00000000        0.00000000
H          -1.61069079        0.81258564        0.28354736
H          -1.61069079       -0.81258564       -0.28354736
H           1.61069079        0.81258564       -0.28354736
H           1.61069079       -0.81258564        0.28354736
6
MD Time 2410.00
C          -0.92280284       -0.00000000       -0.00000000
C           0.92280284        0.00000000        0.00000000
H          -1.60716177        0.81054168        0.28835469
H          -1.60716177       -0.81054168       -0.28835469
H           1.60716177        0.81054168       -0.28835469
H           1.60716177       -0.81054168        0.28835469
6
MD Time 2420.00
C          -0.92373733       -0.00000000       -0.00000000
C           0.92373733        0.00000000        0.00000000
H          -1.60241965        0.80911919        0.29358825
H          -1.60241965       -0.80911919       -0.29358825
H           1.60241965        0.80911919       -0.29358825
H           1.60241965       -0.80911919        0.29358825
6
MD Time 2430.00
C          -0.92464369       -0.00000000       -0.00000000
C           0.92464369        0.00000000        0.00000000
H          -1.59654056        0.80837308        0.29921798
H          -1.59654056       -0.80837308       -0.29921798
H           1.59654056        0.80837308       -0.29921798
H           1.59654056       -0.80837308        0.29921798
6
MD Time 2440.00
C          -0.92550511       -0.00000000       -0.00000000
C           0.92550511        0.00000000        0.00000000
H          -1.58960989        0.80835272        0.30521022
H          -1.58960989       -0.80835272       -0.30521022
H           1.58960989        0.80835272       -0.30521022
H           1.58960989       -0.80835272        0.30521022
6
MD Time 2450.00
C          -0.92630353       -0.00000000       -0.00000000
C           0.92630353        0.00000000        0.00000000
H          -1.58172034        0.80910025        0.31152737
H          -1.58172034       -0.80910025       -0.31152737
H           1.58172034        0.80910025       -0.31152737
H           1.58172034       -0.80910025        0.31152737
6
MD Time 2460.00
C          -0.92702002       -0.00000000       -0.00000000
C           0.92702002        0.00000000        0.00000000
H          -1.57296980        0.81064875        0.31812769
H          -1.57296980       -0.81064875       -0.31812769
H           1.57296980        0.81064875       -0.31812769
H           1.57296980       -0.81064875        0.31812769
6
MD Time 2470.00
C          -0.92763521       -0.00000000       -0.00000000
C           0.92763521        0.00000000        0.00000000
H          -1.56345902        0.81302043        0.32496503
H          -1.56345902       -0.81302043       -0.32496503
H           1.56345902        0.81302043       -0.32496503
H           1.56345902       -0.81302043        0.32496503
6
MD Time 2480.00
C          -0.92812972       -0.00000000       -0.00000000
C           0.92812972        0.00000000        0.00000000
H          -1.55328934        0.81622500        0.33198869
H          -1.55328934       -0.81622500       -0.33198869
H           1.55328934        0.81622500       -0.33198869
H           1.55328934       -0.81622500        0.33198869
6
MD Time 2490.00
C          -0.92848459       -0.00000000       -0.00000000
C           0.92848459        0.00000000        0.00000000
H          -1.54256045        0.82025820        0.33914334
H          -1.54256045       -0.82025820       -0.33914334
H           1.54256045        0.82025820       -0.33914334
H           1.54256045       -0.82025820        0.33914334
6
MD Time 2500.00
C          -0.92868165       -0.00000000       -0.00000000
C           0.92868165        0.00000000        0.00000000
H          -1.53136843        0.82510061        0.34636906
H          -1.53136843       -0.82510061       -0.34636906
H           1.53136843        0.82510061       -0.34636906
H           1.53136843       -0.82510061        0.34636906
6
MD Time 2510.00
C          -0.92870386       -0.00000000       -0.00000000
C           0.92870386        0.00000000        0.00000000
H          -1.51980405        0.83071699        0.35360160
H          -1.51980405       -0.83071699       -0.35360160
H           1.51980405        0.83071699       -0.35360160
H           1.51980405       -0.83071699        0.35360160
6
MD Time 2520.00
C          -0.92853557       -0.00000000       -0.00000000
C           0.92853557        0.00000000        0.00000000
H          -1.50795152        0.83705600        0.36077278
H          -1.50795152       -0.83705600       -0.36077278
H           1.50795152        0.83705600       -0.36077278
H           1.50795152       -0.83705600        0.36077278
6
MD Time 2530.00
C          -0.92816268       -0.00000000       -0.00000000
C           0.92816268        0.00000000        0.00000000
H          -1.49588779        0.84405057        0.36781112
H          -1.49588779       -0.84405057       -0.36781112
H           1.49588779        0.84405057       -0.36781112
H           1.49588779       -0.84405057        0.36781112
6
MD Time 2540.00
C          -0.92757273       -0.00000000       -0.00000000
C           0.92757273        0.00000000        0.00000000
H          -1.48368223        0.85161888        0.37464273
H          -1.48368223       -0.85161888       -0.37464273
H           1.48368223        0.85161888       -0.37464273
H           1.48368223       -0.85161888        0.37464273
6
MD Time 2550.00
C          -0.92675494       -0.00000000       -0.00000000
C           0.92675494        0.00000000        0.00000000
H          -1.47139680        0.85966585        0.38119233
H          -1.47139680       -0.85966585       -0.38119233
H           1.47139680        0.85966585       -0.38119233
H           1.47139680       -0.85966585        0.38119233
6
MD Time 2560.00
C          -0.92570009       -0.00000000       -0.00000000
C           0.92570009        0.00000000        0.00000000
H          -1.45908663        0.86808518        0.38738448
H          -1.45908663       -0.86808518       -0.38738448
H           1.45908663        0.86808518       -0.38738448
H           1.45908663       -0.86808518        0.38738448
6
MD Time 2570.00
C          -0.92440049       -0.00000000       -0.00000000
C           0.92440049        0.00000000        0.00000000
H          -1.44680085        0.87676183        0.39314495
H          -1.44680085       -0.87676183       -0.39314495
H           1.44680085        0.87676183       -0.39314495
H           1.44680085       -0.87676183        0.39314495
6
MD Time 2580.00
C          -0.92284979       -0.00000000       -0.00000000
C           0.92284979        0.00000000        0.00000000
H          -1.43458354        0.88557468        0.39840211
H          -1.43458354       -0.88557468       -0.39840211
H           1.43458354        0.88557468       -0.39840211
H           1.43458354       -0.88557468        0.39840211
6
MD Time 2590.00
C          -0.92104286       -0.00000000       -0.00000000
C           0.92104286        0.00000000        0.00000000
H          -1.42247483        0.89439947        0.40308828
H          -1.42247483       -0.89439947       -0.40308828
H           1.42247483        0.89439947       -0.40308828
H           1.42247483       -0.89439947        0.40308828
6
MD Time 2600.00
C          -0.91897561       -0.00000000       -0.00000000
C           0.91897561        0.00000000        0.00000000
H          -1.41051187        0.90311160        0.40714112
H          -1.41051187       -0.90311160       -0.40714112
H           1.41051187        0.90311160       -0.40714112
H           1.41051187       -0.90311160        0.40714112
6
MD Time 2610.00
C          -0.91664492       -0.00000000       -0.00000000
C           0.91664492        0.00000000        0.00000000
H          -1.39872973        0.91158898        0.41050479
H          -1.39872973       -0.91158898       -0.41050479
H           1.39872973        0.91158898       -0.41050479
H           1.39872973       -0.91158898        0.41050479
6
MD Time 2620.00
C          -0.91404848       -0.00000000       -0.00000000
C           0.91404848        0.00000000        0.00000000
H          -1.38716223        0.91971449        0.41313104
H          -1.38716223       -0.91971449       -0.41313104
H           1.38716223        0.91971449       -0.41313104
H           1.38716223       -0.91971449        0.41313104
6
MD Time 2630.00
C          -0.91118475       -0.00000000       -0.00000000
C           0.91118475        0.00000000        0.00000000
H          -1.37584250        0.92737836        0.41498006
H          -1.37584250       -0.92737836       -0.41498006
H           1.37584250        0.92737836       -0.41498006
H           1.37584250       -0.92737836        0.41498006
6
MD Time 2640.00
C          -0.90805288       -0.00000000       -0.00000000
C           0.90805288        0.00000000        0.00000000
H          -1.36480344        0.93448012        0.41602120
H          -1.36480344       -0.93448012       -0.41602120
H           1.36480344        0.93448012       -0.41602120
H           1.36480344       -0.93448012        0.41602120
6
MD Time 2650.00
C          -0.90465273       -0.00000000       -0.00000000
C           0.90465273        0.00000000        0.00000000
H          -1.35407804        0.94093030        0.41623353
H          -1.35407804       -0.94093030       -0.41623353
H           1.35407804        0.94093030       -0.41623353
H           1.35407804       -0.94093030        0.41623353
6
MD Time 2660.00
C          -0.90098487       -0.00000000       -0.00000000
C           0.90098487        0.00000000        0.00000000
H          -1.34369953        0.94665180        0.41560617
H          -1.34369953       -0.94665180       -0.41560617
H           1.34369953        0.94665180       -0.41560617
H           1.34369953       -0.94665180        0.41560617
6
MD Time 2670.00
C          -0.89705059       -0.00000000       -0.00000000
C           0.89705059        0.00000000        0.00000000
H          -1.33370145        0.95158098        0.41413854
H          -1.33370145       -0.95158098       -0.41413854
H           1.33370145        0.95158098       -0.41413854
H           1.33370145       -0.95158098        0.41413854
6
MD Time 2680.00
C          -0.89285199       -0.00000000       -0.00000000
C           0.89285199        0.00000000        0.00000000
H          -1.32411761        0.95566855        0.41184050
H          -1.32411761       -0.95566855       -0.41184050
H           1.32411761        0.95566855       -0.41184050
H           1.32411761       -0.95566855        0.41184050
6
MD Time 2690.00
C          -0.88839203       -0.00000000       -0.00000000
C           0.88839203        0.00000000        0.00000000
H          -1.31498203        0.95888009        0.40873227
H          -1.31498203       -0.95888009       -0.40873227
H           1.31498203        0.95888009       -0.40873227
H           1.31498203       -0.95888009        0.40873227
6
MD Time 2700.00
C          -0.88367464       -0.00000000       -0.00000000
C           0.88367464        0.00000000        0.00000000
H          -1.30632872        0.96119654        0.40484441
H          -1.30632872       -0.96119654       -0.40484441
H           1.30632872        0.96119654       -0.40484441
H           1.30632872       -0.96119654        0.40484441
6
MD Time 2710.00
C          -0.87870484       -0.00000000       -0.00000000
C           0.87870484        0.00000000        0.00000000
H          -1.29819150        0.96261433        0.40021758
H          -1.29819150       -0.96261433       -0.40021758
H           1.29819150        0.96261433       -0.40021758
H           1.29819150       -0.96261433        0.40021758
6
MD Time 2720.00
C          -0.87348884       -0.00000000       -0.00000000
C           0.87348884        0.00000000        0.00000000
H          -1.29060376        0.96314538        0.39490228
H          -1.29060376       -0.96314538       -0.39490228
H           1.29060376        0.96314538       -0.39490228
H           1.29060376       -0.96314538        0.39490228
6
MD Time 2730.00
C          -0.86803419       -0.00000000       -0.00000000
C           0.86803419        0.00000000        0.00000000
H          -1.28359807        0.96281687        0.38895840
H          -1.28359807       -0.96281687       -0.38895840
H           1.28359807        0.96281687       -0.38895840
H           1.28359807       -0.96281687        0.38895840
6
MD Time 2740.00
C          -0.86234998       -0.00000000       -0.00000000
C           0.86234998        0.00000000        0.00000000
H          -1.27720588        0.96167075        0.38245476
H          -1.27720588       -0.96167075       -0.38245476
H           1.27720588        0.96167075       -0.38245476
H           1.27720588       -0.96167075        0.38245476
6
MD Time 2750.00
C          -0.85644699       -0.00000000       -0.00000000
C           0.85644699        0.00000000        0.00000000
H          -1.27145701        0.95976298        0.37546838
H          -1.27145701       -0.95976298       -0.37546838
H           1.27145701        0.95976298       -0.37546838
H           1.27145701       -0.95976298        0.37546838
6
MD Time 2760.00
C          -0.85033791       -0.00000000       -0.00000000
C           0.85033791        0.00000000        0.00000000
H          -1.26637914        0.95716242        0.36808368
H          -1.26637914       -0.95716242       -0.36808368
H           1.26637914        0.95716242       -0.36808368
H           1.26637914       -0.95716242        0.36808368
6
MD Time 2770.00
C          -0.84403757       -0.00000000       -0.00000000
C           0.84403757        0.00000000        0.00000000
H          -1.26199715        0.95394942        0.36039148
H          -1.26199715       -0.95394942       -0.36039148
H           1.26199715        0.95394942       -0.36039148
H           1.26199715       -0.95394942        0.36039148
6
MD Time 2780.00
C          -0.83756317       -0.00000000       -0.00000000
C           0.83756317        0.00000000        0.00000000
H          -1.25833235        0.95021396        0.35248774
H          -1.25833235       -0.95021396       -0.35248774
H           1.25833235        0.95021396       -0.35248774
H           1.25833235       -0.95021396        0.35248774
6
MD Time 2790.00
C          -0.83093459       -0.00000000       -0.00000000
C           0.83093459        0.00000000        0.00000000
H          -1.25540162        0.94605341        0.34447216
H          -1.25540162       -0.94605341       -0.34447216
H           1.25540162        0.94605341       -0.34447216
H           1.25540162       -0.94605341        0.34447216
6
MD Time 2800.00
C          -0.82417466       -0.00000000       -0.00000000
C           0.82417466        0.00000000        0.00000000
H          -1.25321640        0.94156986        0.33644658
H          -1.25321640       -0.94156986       -0.33644658
H           1.25321640        0.94156986       -0.33644658
H           1.25321640       -0.94156986        0.33644658
6
MD Time 2810.00
C          -0.81730943       -0.00000000       -0.00000000
C           0.81730943        0.00000000        0.00000000
H          -1.25178153        0.93686721        0.32851318
H          -1.25178153       -0.93686721       -0.32851318
H           1.25178153        0.93686721       -0.32851318
H           1.25178153       -0.93686721        0.32851318
6
MD Time 2820.00
C          -0.81036848       -0.00000000       -0.00000000
C           0.81036848        0.00000000        0.00000000
H          -1.25109412        0.93204795        0.32077259
H          -1.25109412       -0.93204795       -0.32077259
H           1.25109412        0.93204795       -0.32077259
H           1.25109412       -0.93204795        0.32077259
6
MD Time 2830.00
C          -0.80338518       -0.00000000       -0.00000000
C           0.80338518        0.00000000        0.00000000
H          -1.25114226        0.92720986        0.31332200
H          -1.25114226       -0.92720986       -0.31332200
H           1.25114226        0.92720986       -0.31332200
H           1.25114226       -0.92720986        0.31332200
6
MD Time 2840.00
C          -0.79639691       -0.00000000       -0.00000000
C           0.79639691        0.00000000        0.00000000
H          -1.25190396        0.92244284        0.30625324
H          -1.25190396       -0.92244284       -0.30625324
H           1.25190396        0.92244284       -0.30625324
H           1.25190396       -0.92244284        0.30625324
6
MD Time 2850.00
C          -0.78944517       -0.00000000       -0.00000000
C           0.78944517        0.00000000        0.00000000
H          -1.25334610        0.91782604        0.29965101
H          -1.25334610       -0.91782604       -0.29965101
H           1.25334610        0.91782604       -0.29965101
H           1.25334610       -0.91782604        0.29965101
6
MD Time 2860.00
C          -0.78257559       -0.00000000       -0.00000000
C           0.78257559        0.00000000        0.00000000
H          -1.25542378        0.91342549        0.29359141
H          -1.25542378       -0.91342549       -0.29359141
H           1.25542378        0.91342549       -0.29359141
H           1.25542378       -0.91342549        0.29359141
6
MD Time 2870.00
C          -0.77583785       -0.00000000       -0.00000000
C           0.77583785        0.00000000        0.00000000
H          -1.25808001        0.90929243        0.28814066
H          -1.25808001       -0.90929243       -0.28814066
H           1.25808001        0.90929243       -0.28814066
H           1.25808001       -0.90929243        0.28814066
6
MD Time 2880.00
C          -0.76928533       -0.00000000       -0.00000000
C           0.76928533        0.00000000        0.00000000
H          -1.26124594        0.90546249        0.28335427
H          -1.26124594       -0.90546249       -0.28335427
H           1.26124594        0.90546249       -0.28335427
H           1.26124594       -0.90546249        0.28335427
6
MD Time 2890.00
C          -0.76297460       -0.00000000       -0.00000000
C           0.76297460        0.00000000        0.00000000
H          -1.26484158        0.90195568        0.27927656
H          -1.26484158       -0.90195568       -0.27927656
H           1.26484158        0.90195568       -0.27927656
H           1.26484158       -0.90195568        0.27927656
6
MD Time 2900.00
C          -0.75696475       -0.00000000       -0.00000000
C           0.75696475        0.00000000        0.00000000
H          -1.26877727        0.89877734        0.27594058
H          -1.26877727       -0.89877734       -0.27594058
H           1.26877727        0.89877734       -0.27594058
H           1.26877727       -0.89877734        0.27594058
6
MD Time 2910.00
C          -0.75131640       -0.00000000       -0.00000000
C           0.75131640        0.00000000        0.00000000
H          -1.27295553        0.89591971        0.27336830
H          -1.27295553       -0.89591971       -0.27336830
H           1.27295553        0.89591971       -0.27336830
H           1.27295553       -0.89591971        0.27336830
6
MD Time 2920.00
C          -0.74609059       -0.00000000       -0.00000000
C           0.74609059        0.00000000        0.00000000
H          -1.27727353        0.89336412        0.27157121
H          -1.27727353       -0.89336412       -0.27157121
H           1.27727353        0.89336412       -0.27157121
H           1.27727353       -0.89336412        0.27157121
6
MD Time 2930.00
C          -0.74134751       -0.00000000       -0.00000000
C           0.74134751        0.00000000        0.00000000
H          -1.28162588        0.89108361        0.27055107
H          -1.28162588       -0.89108361       -0.27055107
H           1.28162588        0.89108361       -0.27055107
H           1.28162588       -0.89108361        0.27055107
6
MD Time 2940.00
C          -0.73714506       -0.00000000       -0.00000000
C           0.73714506        0.00000000        0.00000000
H          -1.28590756        0.88904559        0.27030079
H          -1.28590756       -0.88904559       -0.27030079
H           1.28590756        0.88904559       -0.27030079
H           1.28590756       -0.88904559        0.27030079
6
MD Time 2950.00
C          -0.73353739       -0.00000000       -0.00000000
C           0.73353739        0.00000000        0.00000000
H          -1.29001704        0.88721461        0.27080541
H          -1.29001704       -0.88721461       -0.27080541
H           1.29001704        0.88721461       -0.27080541
H           1.29001704       -0.88721461        0.27080541
6
MD Time 2960.00
C          -0.73057344       -0.00000000       -0.00000000
C           0.73057344        0.00000000        0.00000000
H          -1.29385913        0.88555487        0.27204313
H          -1.29385913       -0.88555487       -0.27204313
H           1.29385913        0.88555487       -0.27204313
H           1.29385913       -0.88555487        0.27204313
6
MD Time 2970.00
C          -0.72829556       -0.00000000       -0.00000000
C           0.72829556        0.00000000        0.00000000
H          -1.29734776        0.88403249        0.27398621
H          -1.29734776       -0.88403249       -0.27398621
H           1.29734776        0.88403249       -0.27398621
H           1.29734776       -0.88403249        0.27398621
6
MD Time 2980.00
C          -0.72673824       -0.00000000       -0.00000000
C           0.72673824        0.00000000        0.00000000
H          -1.30040832        0.88261743        0.27660195
H          -1.30040832       -0.88261743       -0.27660195
H           1.30040832        0.88261743       -0.27660195
H           1.30040832       -0.88261743        0.27660195
6
MD Time 2990.00
C          -0.72592706       -0.00000000       -0.00000000
C           0.72592706        0.00000000        0.00000000
H          -1.30297969        0.88128510        0.27985345
H          -1.30297969       -0.88128510       -0.27985345
H           1.30297969        0.88128510       -0.27985345
H           1.30297969       -0.88128510        0.27985345
