6
MD Time 0.00
C          -1.00424993        0.00000000        0.00000000
C           1.00424993        0.00000000        0.00000000
H          -1.57974221        0.85087473        0.35244385
H          -1.57974221       -0.85087473       -0.35244385
H           1.57974221        0.85087473       -0.35244385
H           1.57974221       -0.85087473        0.35244385
6
MD Time 10.00
C          -1.00410474       -0.00000000       -0.00000000
C           1.00410474       -0.00000000        0.00000000
H          -1.57962083        0.85108043        0.35230769
H          -1.57962083       -0.85108043       -0.35230769
H           1.57962083        0.85108043       -0.35230769
H           1.57962083       -0.85108043        0.35230769
6
MD Time 20.00
C          -1.00366936       -0.00000000       -0.00000000
C           1.00366936       -0.00000000        0.00000000
H          -1.57925503        0.85169416        0.35189841
H          -1.57925503       -0.85169416       -0.35189841
H           1.57925503        0.85169416       -0.35189841
H           1.57925503       -0.85169416        0.35189841
6
MD Time 30.00
C          -1.00294435       -0.00000000       -0.00000000
C           1.00294435       -0.00000000        0.00000000
H          -1.57863994        0.85270579        0.35121363
H          -1.57863994       -0.85270579       -0.35121363
H           1.57863994        0.85270579       -0.35121363
H           1.57863994       -0.85270579        0.35121363
6
MD Time 40.00
C          -1.00193059       -0.00000000       -0.00000000
C           1.00193059       -0.00000000        0.00000000
H          -1.57776763        0.85409882        0.35024952
H          -1.57776763       -0.85409882       -0.35024952
H           1.57776763        0.85409882       -0.35024952
H           1.57776763       -0.85409882        0.35024952
6
MD Time 50.00
C          -1.00062924       -0.00000000       -0.00000000
C           1.00062924       -0.00000000        0.00000000
H          -1.57662739        0.85585080        0.34900094
H          -1.57662739       -0.85585080       -0.34900094
H           1.57662739        0.85585080       -0.34900094
H           1.57662739       -0.85585080        0.34900094
6
MD Time 60.00
C          -0.99904171       -0.00000000       -0.00000000
C           0.99904171       -0.00000000        0.00000000
H          -1.57520619        0.85793396        0.34746172
H          -1.57520619       -0.85793396       -0.34746172
H           1.57520619        0.85793396       -0.34746172
H           1.57520619       -0.85793396        0.34746172
6
MD Time 70.00
C          -0.99716953       -0.00000000       -0.00000000
C           0.99716953       -0.00000000        0.00000000
H          -1.57348907        0.86031599        0.34562492
H          -1.57348907       -0.86031599       -0.34562492
H           1.57348907        0.86031599       -0.34562492
H           1.57348907       -0.86031599        0.34562492
6
MD Time 80.00
C          -0.99501430       -0.00000000       -0.00000000
C           0.99501430       -0.00000000        0.00000000
H          -1.57145974        0.86296089        0.34348312
H          -1.57145974       -0.86296089       -0.34348312
H           1.57145974        0.86296089       -0.34348312
H           1.57145974       -0.86296089        0.34348312
6
MD Time 90.00
C          -0.99257760       -0.00000000       -0.00000000
C           0.99257760       -0.00000000        0.00000000
H          -1.56910109        0.86582990        0.34102876
H          -1.56910109       -0.86582990       -0.34102876
H           1.56910109        0.86582990       -0.34102876
H           1.56910109       -0.86582990        0.34102876
6
MD Time 100.00
C          -0.98986085       -0.00000000       -0.00000000
C           0.98986085       -0.00000000        0.00000000
H          -1.56639580        0.86888247        0.33825446
H          -1.56639580       -0.86888247       -0.33825446
H           1.56639580        0.86888247       -0.33825446
H           1.56639580       -0.86888247        0.33825446
6
MD Time 110.00
C          -0.98686531       -0.00000000       -0.00000000
C           0.98686531       -0.00000000        0.00000000
H          -1.56332688        0.87207723        0.33515336
H          -1.56332688       -0.87207723       -0.33515336
H           1.56332688        0.87207723       -0.33515336
H           1.56332688       -0.87207723        0.33515336
6
MD Time 120.00
C          -0.98359191       -0.00000000       -0.00000000
C           0.98359191       -0.00000000        0.00000000
H          -1.55987825        0.87537292        0.33171935
H          -1.55987825       -0.87537292       -0.33171935
H           1.55987825        0.87537292       -0.33171935
H           1.55987825       -0.87537292        0.33171935
6
MD Time 130.00
C          -0.98004122       -0.00000000       -0.00000000
C           0.98004122       -0.00000000        0.00000000
H          -1.55603519        0.87872929        0.32794737
H          -1.55603519       -0.87872929       -0.32794737
H           1.55603519        0.87872929       -0.32794737
H           1.55603519       -0.87872929        0.32794737
6
MD Time 140.00
C          -0.97621338       -0.00000000       -0.00000000
C           0.97621338       -0.00000000        0.00000000
H          -1.55178480        0.88210793        0.32383363
H          -1.55178480       -0.88210793       -0.32383363
H           1.55178480        0.88210793       -0.32383363
H           1.55178480       -0.88210793        0.32383363
6
MD Time 150.00
C          -0.97210802       -0.00000000       -0.00000000
C           0.97210802       -0.00000000        0.00000000
H          -1.54711639        0.88547301        0.31937575
H          -1.54711639       -0.88547301       -0.31937575
H           1.54711639        0.88547301       -0.31937575
H           1.54711639       -0.88547301        0.31937575
6
MD Time 160.00
C          -0.96772425       -0.00000000       -0.00000000
C           0.96772425       -0.00000000        0.00000000
H          -1.54202179        0.88879192        0.31457288
H          -1.54202179       -0.88879192       -0.31457288
H           1.54202179        0.88879192       -0.31457288
H           1.54202179       -0.88879192        0.31457288
6
MD Time 170.00
C          -0.96306064       -0.00000000       -0.00000000
C           0.96306064       -0.00000000        0.00000000
H          -1.53649558        0.89203581        0.30942580
H          -1.53649558       -0.89203581       -0.30942580
H           1.53649558        0.89203581       -0.30942580
H           1.53649558       -0.89203581        0.30942580
6
MD Time 180.00
C          -0.95811517       -0.00000000       -0.00000000
C           0.95811517       -0.00000000        0.00000000
H          -1.53053524        0.89518004        0.30393693
H          -1.53053524       -0.89518004       -0.30393693
H           1.53053524        0.89518004       -0.30393693
H           1.53053524       -0.89518004        0.30393693
6
MD Time 190.00
C          -0.95288524       -0.00000000       -0.00000000
C           0.95288524       -0.00000000        0.00000000
H          -1.52414128        0.89820448        0.29811030
H          -1.52414128       -0.89820448       -0.29811030
H           1.52414128        0.89820448       -0.29811030
H           1.52414128       -0.89820448        0.29811030
6
MD Time 200.00
C          -0.94736773       -0.00000000       -0.00000000
C           0.94736773       -0.00000000        0.00000000
H          -1.51731723        0.90109372        0.29195149
H          -1.51731723       -0.90109372       -0.29195149
H           1.51731723        0.90109372       -0.29195149
H           1.51731723       -0.90109372        0.29195149
6
MD Time 210.00
C          -0.94155897       -0.00000000       -0.00000000
C           0.94155897       -0.00000000        0.00000000
H          -1.51006961        0.90383719        0.28546756
H          -1.51006961       -0.90383719       -0.28546756
H           1.51006961        0.90383719       -0.28546756
H           1.51006961       -0.90383719        0.28546756
6
MD Time 220.00
C          -0.93545482       -0.00000000       -0.00000000
C           0.93545482       -0.00000000        0.00000000
H          -1.50240783        0.90642912        0.27866684
H          -1.50240783       -0.90642912       -0.27866684
H           1.50240783        0.90642912       -0.27866684
H           1.50240783       -0.90642912        0.27866684
6
MD Time 230.00
C          -0.92905070       -0.00000000       -0.00000000
C           0.92905070       -0.00000000        0.00000000
H          -1.49434401        0.90886846        0.27155885
H          -1.49434401       -0.90886846       -0.27155885
H           1.49434401        0.90886846       -0.27155885
H           1.49434401       -0.90886846        0.27155885
6
MD Time 240.00
C          -0.92234171       -0.00000000       -0.00000000
C           0.92234171       -0.00000000        0.00000000
H          -1.48589275        0.91115859        0.26415404
H          -1.48589275       -0.91115859       -0.26415404
H           1.48589275        0.91115859       -0.26415404
H           1.48589275       -0.91115859        0.26415404
6
MD Time 250.00
C          -0.91532266       -0.00000000       -0.00000000
C           0.91532266       -0.00000000        0.00000000
H          -1.47707089        0.91330705        0.25646364
H          -1.47707089       -0.91330705       -0.25646364
H           1.47707089        0.91330705       -0.25646364
H           1.47707089       -0.91330705        0.25646364
6
MD Time 260.00
C          -0.90798822       -0.00000000       -0.00000000
C           0.90798822       -0.00000000       -0.00000000
H          -1.46789719        0.91532507        0.24849941
H          -1.46789719       -0.91532507       -0.24849941
H           1.46789719        0.91532507       -0.24849941
H           1.46789719       -0.91532507        0.24849941
6
MD Time 270.00
C          -0.90033299       -0.00000000       -0.00000000
C           0.90033299       -0.00000000       -0.00000000
H          -1.45839194        0.91722706        0.24027345
H          -1.45839194       -0.91722706       -0.24027345
H           1.45839194        0.91722706       -0.24027345
H           1.45839194       -0.91722706        0.24027345
6
MD Time 280.00
C          -0.89235166       -0.00000000       -0.00000000
C           0.89235166       -0.00000000       -0.00000000
H          -1.44857667        0.91903005        0.23179794
H          -1.44857667       -0.91903005       -0.23179794
H           1.44857667        0.91903005       -0.23179794
H           1.44857667       -0.91903005        0.23179794
6
MD Time 290.00
C          -0.88403917       -0.00000000       -0.00000000
C           0.88403917       -0.00000000       -0.00000000
H          -1.43847365        0.92075295        0.22308502
H          -1.43847365       -0.92075295       -0.22308502
H           1.43847365        0.92075295       -0.22308502
H           1.43847365       -0.92075295        0.22308502
6
MD Time 300.00
C          -0.87539083       -0.00000000       -0.00000000
C           0.87539083       -0.00000000       -0.00000000
H          -1.42810559        0.92241587        0.21414651
H          -1.42810559       -0.92241587       -0.21414651
H           1.42810559        0.92241587       -0.21414651
H           1.42810559       -0.92241587        0.21414651
6
MD Time 310.00
C          -0.86640251       -0.00000000       -0.00000000
C           0.86640251       -0.00000000       -0.00000000
H          -1.41749516        0.92403935        0.20499382
H          -1.41749516       -0.92403935       -0.20499382
H           1.41749516        0.92403935       -0.20499382
H           1.41749516       -0.92403935        0.20499382
6
MD Time 320.00
C          -0.85707087       -0.00000000       -0.00000000
C           0.85707087       -0.00000000       -0.00000000
H          -1.40666467        0.92564353        0.19563779
H          -1.40666467       -0.92564353       -0.19563779
H           1.40666467        0.92564353       -0.19563779
H           1.40666467       -0.92564353        0.19563779
6
MD Time 330.00
C          -0.84739352       -0.00000000       -0.00000000
C           0.84739352       -0.00000000       -0.00000000
H          -1.39563564        0.92724742        0.18608861
H          -1.39563564       -0.92724742       -0.18608861
H           1.39563564        0.92724742       -0.18608861
H           1.39563564       -0.92724742        0.18608861
6
MD Time 340.00
C          -0.83736925       -0.00000000       -0.00000000
C           0.83736925       -0.00000000        0.00000000
H          -1.38442856        0.92886808        0.17635572
H          -1.38442856       -0.92886808       -0.17635572
H           1.38442856        0.92886808       -0.17635572
H           1.38442856       -0.92886808        0.17635572
6
MD Time 350.00
C          -0.82699835       -0.00000000       -0.00000000
C           0.82699835       -0.00000000        0.00000000
H          -1.37306255        0.93051996        0.16644784
H          -1.37306255       -0.93051996       -0.16644784
H           1.37306255        0.93051996       -0.16644784
H           1.37306255       -0.93051996        0.16644784
6
MD Time 360.00
C          -0.81628279       -0.00000000       -0.00000000
C           0.81628279       -0.00000000        0.00000000
H          -1.36155519        0.93221420        0.15637295
H          -1.36155519       -0.93221420       -0.15637295
H           1.36155519        0.93221420       -0.15637295
H           1.36155519       -0.93221420        0.15637295
6
MD Time 370.00
C          -0.80522658       -0.00000000       -0.00000000
C           0.80522658       -0.00000000        0.00000000
H          -1.34992235        0.93395809        0.14613839
H          -1.34992235       -0.93395809       -0.14613839
H           1.34992235        0.93395809       -0.14613839
H           1.34992235       -0.93395809        0.14613839
6
MD Time 380.00
C          -0.79383610       -0.00000000       -0.00000000
C           0.79383610       -0.00000000        0.00000000
H          -1.33817812        0.93575462        0.13575087
H          -1.33817812       -0.93575462       -0.13575087
H           1.33817812        0.93575462       -0.13575087
H           1.33817812       -0.93575462        0.13575087
6
MD Time 390.00
C          -0.78212047       -0.00000000       -0.00000000
C           0.78212047       -0.00000000        0.00000000
H          -1.32633483        0.93760211        0.12521667
H          -1.32633483       -0.93760211       -0.12521667
H           1.32633483        0.93760211       -0.12521667
H           1.32633483       -0.93760211        0.12521667
6
MD Time 400.00
C          -0.77009200       -0.00000000       -0.00000000
C           0.77009200       -0.00000000        0.00000000
H          -1.31440304        0.93949405        0.11454177
H          -1.31440304       -0.93949405       -0.11454177
H           1.31440304        0.93949405       -0.11454177
H           1.31440304       -0.93949405        0.11454177
6
MD Time 410.00
C          -0.75776666       -0.00000000       -0.00000000
C           0.75776666       -0.00000000        0.00000000
H          -1.30239178        0.94141893        0.10373200
H          -1.30239178       -0.94141893       -0.10373200
H           1.30239178        0.94141893       -0.10373200
H           1.30239178       -0.94141893        0.10373200
6
MD Time 420.00
C          -0.74516469        0.00000000       -0.00000000
C           0.74516469       -0.00000000        0.00000000
H          -1.29030861        0.94336035        0.09279328
H          -1.29030861       -0.94336035       -0.09279328
H           1.29030861        0.94336035       -0.09279328
H           1.29030861       -0.94336035        0.09279328
6
MD Time 430.00
C          -0.73231122        0.00000000       -0.00000000
C           0.73231122       -0.00000000        0.00000000
H          -1.27815997        0.94529710        0.08173181
H          -1.27815997       -0.94529710       -0.08173181
H           1.27815997        0.94529710       -0.08173181
H           1.27815997       -0.94529710        0.08173181
6
MD Time 440.00
C          -0.71923708        0.00000000       -0.00000000
C           0.71923708       -0.00000000        0.00000000
H          -1.26595139        0.94720345        0.07055435
H          -1.26595139       -0.94720345       -0.07055435
H           1.26595139        0.94720345       -0.07055435
H           1.26595139       -0.94720345        0.07055435
6
MD Time 450.00
C          -0.70597963        0.00000000       -0.00000000
C           0.70597963       -0.00000000        0.00000000
H          -1.25368783        0.94904950        0.05926843
H          -1.25368783       -0.94904950       -0.05926843
H           1.25368783        0.94904950       -0.05926843
H           1.25368783       -0.94904950        0.05926843
6
MD Time 460.00
C          -0.69258377        0.00000000       -0.00000000
C           0.69258377       -0.00000000        0.00000000
H          -1.24137406        0.95080164        0.04788267
H          -1.24137406       -0.95080164       -0.04788267
H           1.24137406        0.95080164       -0.04788267
H           1.24137406       -0.95080164        0.04788267
6
MD Time 470.00
C          -0.67910304        0.00000000       -0.00000000
C           0.67910304       -0.00000000        0.00000000
H          -1.22901504        0.95242313        0.03640707
H          -1.22901504       -0.95242313       -0.03640707
H           1.22901504        0.95242313       -0.03640707
H           1.22901504       -0.95242313        0.03640707
6
MD Time 480.00
C          -0.66560073        0.00000000       -0.00000000
C           0.66560073       -0.00000000        0.00000000
H          -1.21661638        0.95387478        0.02485330
H          -1.21661638       -0.95387478       -0.02485330
H           1.21661638        0.95387478       -0.02485330
H           1.21661638       -0.95387478        0.02485330
6
MD Time 490.00
C          -0.65215109        0.00000000       -0.00000000
C           0.65215109       -0.00000000        0.00000000
H          -1.20418492        0.95511581        0.01323503
H          -1.20418492       -0.95511581       -0.01323503
H           1.20418492        0.95511581       -0.01323503
H           1.20418492       -0.95511581        0.01323503
6
MD Time 500.00
C          -0.63884043        0.00000000       -0.00000000
C           0.63884043       -0.00000000        0.00000000
H          -1.19172935        0.95610482        0.00156821
H          -1.19172935       -0.95610482       -0.00156821
H           1.19172935        0.95610482       -0.00156821
H           1.19172935       -0.95610482        0.00156821
6
MD Time 510.00
C          -0.62576801        0.00000000       -0.00000000
C           0.62576801       -0.00000000        0.00000000
H          -1.17926100        0.95680103       -0.01012863
H          -1.17926100       -0.95680103        0.01012863
H           1.17926100        0.95680103        0.01012863
H           1.17926100       -0.95680103       -0.01012863
6
MD Time 520.00
C          -0.61304656        0.00000000       -0.00000000
C           0.61304656       -0.00000000        0.00000000
H          -1.16679477        0.95716570       -0.02183416
H          -1.16679477       -0.95716570        0.02183416
H           1.16679477        0.95716570        0.02183416
H           1.16679477       -0.95716570       -0.02183416
6
MD Time 530.00
C          -0.60080221        0.00000000       -0.00000000
C           0.60080221       -0.00000000        0.00000000
H          -1.15435030        0.95716384       -0.03352407
H          -1.15435030       -0.95716384        0.03352407
H           1.15435030        0.95716384        0.03352407
H           1.15435030       -0.95716384       -0.03352407
6
MD Time 540.00
C          -0.58917355        0.00000000       -0.00000000
C           0.58917355       -0.00000000        0.00000000
H          -1.14195319        0.95676622       -0.04517099
H          -1.14195319       -0.95676622        0.04517099
H           1.14195319        0.95676622        0.04517099
H           1.14195319       -0.95676622       -0.04517099
6
MD Time 550.00
C          -0.57830954        0.00000000       -0.00000000
C           0.57830954       -0.00000000        0.00000000
H          -1.12963650        0.95595161       -0.05674457
H          -1.12963650       -0.95595161        0.05674457
H           1.12963650        0.95595161        0.05674457
H           1.12963650       -0.95595161       -0.05674457
6
MD Time 560.00
C          -0.56836610        0.00000000       -0.00000000
C           0.56836610       -0.00000000        0.00000000
H          -1.11744231        0.95470929       -0.06821162
H          -1.11744231       -0.95470929        0.06821162
H           1.11744231        0.95470929        0.06821162
H           1.11744231       -0.95470929       -0.06821162
6
MD Time 570.00
C          -0.55950115        0.00000000       -0.00000000
C           0.55950115       -0.00000000        0.00000000
H          -1.10542319        0.95304167       -0.07953647
H          -1.10542319       -0.95304167        0.07953647
H           1.10542319        0.95304167        0.07953647
H           1.10542319       -0.95304167       -0.07953647
6
MD Time 580.00
C          -0.55186819        0.00000000       -0.00000000
C           0.55186819       -0.00000000        0.00000000
H          -1.09364371        0.95096705       -0.09068144
H          -1.09364371       -0.95096705        0.09068144
H           1.09364371        0.95096705        0.09068144
H           1.09364371       -0.95096705       -0.09068144
6
MD Time 590.00
C          -0.54560870        0.00000000       -0.00000000
C           0.54560870       -0.00000000        0.00000000
H          -1.08218153        0.94852215       -0.10160751
H          -1.08218153       -0.94852215        0.10160751
H           1.08218153        0.94852215        0.10160751
H           1.08218153       -0.94852215       -0.10160751
6
MD Time 600.00
C          -0.54084383        0.00000000       -0.00000000
C           0.54084383       -0.00000000        0.00000000
H          -1.07112808        0.94576444       -0.11227510
H          -1.07112808       -0.94576444        0.11227510
H           1.07112808        0.94576444        0.11227510
H           1.07112808       -0.94576444       -0.11227510
6
MD Time 610.00
C          -0.53766642        0.00000000       -0.00000000
C           0.53766642       -0.00000000        0.00000000
H          -1.06058857        0.94277378       -0.12264497
H          -1.06058857       -0.94277378        0.12264497
H           1.06058857        0.94277378        0.12264497
H           1.06058857       -0.94277378       -0.12264497
6
MD Time 620.00
C          -0.53613403        0.00000000       -0.00000000
C           0.53613403       -0.00000000        0.00000000
H          -1.05068113        0.93965327       -0.13267919
H          -1.05068113       -0.93965327        0.13267919
H           1.05068113        0.93965327        0.13267919
H           1.05068113       -0.93965327       -0.13267919
6
MD Time 630.00
C          -0.53626432        0.00000000       -0.00000000
C           0.53626432       -0.00000000        0.00000000
H          -1.04153499        0.93652880       -0.14234216
H          -1.04153499       -0.93652880        0.14234216
H           1.04153499        0.93652880        0.14234216
H           1.04153499       -0.93652880       -0.14234216
6
MD Time 640.00
C          -0.53803330        0.00000000       -0.00000000
C           0.53803330       -0.00000000        0.00000000
H          -1.03328744        0.93354718       -0.15160153
H          -1.03328744       -0.93354718        0.15160153
H           1.03328744        0.93354718        0.15160153
H           1.03328744       -0.93354718       -0.15160153
6
MD Time 650.00
C          -0.54137682        0.00000000       -0.00000000
C           0.54137682       -0.00000000        0.00000000
H          -1.02607980        0.93087234       -0.16042890
H          -1.02607980       -0.93087234        0.16042890
H           1.02607980        0.93087234        0.16042890
H           1.02607980       -0.93087234       -0.16042890
6
MD Time 660.00
C          -0.54619525        0.00000000       -0.00000000
C           0.54619525       -0.00000000        0.00000000
H          -1.02005236        0.92867971       -0.16880031
H          -1.02005236       -0.92867971        0.16880031
H           1.02005236        0.92867971        0.16880031
H           1.02005236       -0.92867971       -0.16880031
6
MD Time 670.00
C          -0.55236043        0.00000000       -0.00000000
C           0.55236043       -0.00000000        0.00000000
H          -1.01533857        0.92714862       -0.17669627
H          -1.01533857       -0.92714862        0.17669627
H           1.01533857        0.92714862        0.17669627
H           1.01533857       -0.92714862       -0.17669627
6
MD Time 680.00
C          -0.55972409        0.00000000       -0.00000000
C           0.55972409       -0.00000000        0.00000000
H          -1.01205898        0.92645313       -0.18410134
H          -1.01205898       -0.92645313        0.18410134
H           1.01205898        0.92645313        0.18410134
H           1.01205898       -0.92645313       -0.18410134
6
MD Time 690.00
C          -0.56812661        0.00000000       -0.00000000
C           0.56812661       -0.00000000        0.00000000
H          -1.01031546        0.92675186       -0.19100331
H          -1.01031546       -0.92675186        0.19100331
H           1.01031546        0.92675186        0.19100331
H           1.01031546       -0.92675186       -0.19100331
6
MD Time 700.00
C          -0.57740517        0.00000000       -0.00000000
C           0.57740517       -0.00000000        0.00000000
H          -1.01018612        0.92817764       -0.19739194
H          -1.01018612       -0.92817764        0.19739194
H           1.01018612        0.92817764        0.19739194
H           1.01018612       -0.92817764       -0.19739194
6
MD Time 710.00
C          -0.58740060        0.00000000       -0.00000000
C           0.58740060       -0.00000000        0.00000000
H          -1.01172160        0.93082795       -0.20325759
H          -1.01172160       -0.93082795        0.20325759
H           1.01172160        0.93082795        0.20325759
H           1.01172160       -0.93082795       -0.20325759
6
MD Time 720.00
C          -0.59796259        0.00000000       -0.00000000
C           0.59796259       -0.00000000        0.00000000
H          -1.01494302        0.93475734       -0.20858987
H          -1.01494302       -0.93475734        0.20858987
H           1.01494302        0.93475734        0.20858987
H           1.01494302       -0.93475734       -0.20858987
6
MD Time 730.00
C          -0.60895318        0.00000000       -0.00000000
C           0.60895318       -0.00000000        0.00000000
H          -1.01984168        0.93997236       -0.21337655
H          -1.01984168       -0.93997236        0.21337655
H           1.01984168        0.93997236        0.21337655
H           1.01984168       -0.93997236       -0.21337655
6
MD Time 740.00
C          -0.62024870        0.00000000       -0.00000000
C           0.62024870       -0.00000000        0.00000000
H          -1.02638054        0.94642989       -0.21760296
H          -1.02638054       -0.94642989        0.21760296
H           1.02638054        0.94642989        0.21760296
H           1.02638054       -0.94642989       -0.21760296
6
MD Time 750.00
C          -0.63174040        0.00000000       -0.00000000
C           0.63174040       -0.00000000        0.00000000
H          -1.03449699        0.95403870       -0.22125187
H          -1.03449699       -0.95403870        0.22125187
H           1.03449699        0.95403870        0.22125187
H           1.03449699       -0.95403870       -0.22125187
6
MD Time 760.00
C          -0.64333417        0.00000000       -0.00000000
C           0.64333417       -0.00000000        0.00000000
H          -1.04410681        0.96266401       -0.22430390
H          -1.04410681       -0.96266401        0.22430390
H           1.04410681        0.96266401        0.22430390
H           1.04410681       -0.96266401       -0.22430390
6
MD Time 770.00
C          -0.65494954        0.00000000        0.00000000
C           0.65494954       -0.00000000        0.00000000
H          -1.05510842        0.97213439       -0.22673835
H          -1.05510842       -0.97213439        0.22673835
H           1.05510842        0.97213439        0.22673835
H           1.05510842       -0.97213439       -0.22673835
6
MD Time 780.00
C          -0.66651844        0.00000000        0.00000000
C           0.66651844       -0.00000000        0.00000000
H          -1.06738744        0.98225019       -0.22853433
H          -1.06738744       -0.98225019        0.22853433
H           1.06738744        0.98225019        0.22853433
H           1.06738744       -0.98225019       -0.22853433
6
MD Time 790.00
C          -0.67798374        0.00000000        0.00000000
C           0.67798374       -0.00000000        0.00000000
H          -1.08082087        0.99279245       -0.22967184
H          -1.08082087       -0.99279245        0.22967184
H           1.08082087        0.99279245        0.22967184
H           1.08082087       -0.99279245       -0.22967184
6
MD Time 800.00
C          -0.68929781        0.00000000        0.00000000
C           0.68929781       -0.00000000        0.00000000
H          -1.09528080        1.00353167       -0.23013296
H          -1.09528080       -1.00353167        0.23013296
H           1.09528080        1.00353167        0.23013296
H           1.09528080       -1.00353167       -0.23013296
6
MD Time 810.00
C          -0.70042116        0.00000000        0.00000000
C           0.70042116       -0.00000000        0.00000000
H          -1.11063756        1.01423578       -0.22990274
H          -1.11063756       -1.01423578        0.22990274
H           1.11063756        1.01423578        0.22990274
H           1.11063756       -1.01423578       -0.22990274
6
MD Time 820.00
C          -0.71132129        0.00000000        0.00000000
C           0.71132129       -0.00000000        0.00000000
H          -1.12676217        1.02467694       -0.22896995
H          -1.12676217       -1.02467694        0.22896995
H           1.12676217        1.02467694        0.22896995
H           1.12676217       -1.02467694       -0.22896995
6
MD Time 830.00
C          -0.72197162        0.00000000        0.00000000
C           0.72197162       -0.00000000        0.00000000
H          -1.14352821        1.03463700       -0.22732754
H          -1.14352821       -1.03463700        0.22732754
H           1.14352821        1.03463700        0.22732754
H           1.14352821       -1.03463700       -0.22732754
6
MD Time 840.00
C          -0.73235059        0.00000000        0.00000000
C           0.73235059       -0.00000000        0.00000000
H          -1.16081321        1.04391165       -0.22497289
H          -1.16081321       -1.04391165        0.22497289
H           1.16081321        1.04391165        0.22497289
H           1.16081321       -1.04391165       -0.22497289
6
MD Time 850.00
C          -0.74244098        0.00000000        0.00000000
C           0.74244098       -0.00000000        0.00000000
H          -1.17849950        1.05231344       -0.22190786
H          -1.17849950       -1.05231344        0.22190786
H           1.17849950        1.05231344        0.22190786
H           1.17849950       -1.05231344       -0.22190786
6
MD Time 860.00
C          -0.75222924        0.00000000        0.00000000
C           0.75222924       -0.00000000        0.00000000
H          -1.19647482        1.05967364       -0.21813872
H          -1.19647482       -1.05967364        0.21813872
H           1.19647482        1.05967364        0.21813872
H           1.19647482       -1.05967364       -0.21813872
6
MD Time 870.00
C          -0.76170498        0.00000000        0.00000000
C           0.76170498       -0.00000000        0.00000000
H          -1.21463265        1.06584348       -0.21367593
H          -1.21463265       -1.06584348        0.21367593
H           1.21463265        1.06584348        0.21367593
H           1.21463265       -1.06584348       -0.21367593
6
MD Time 880.00
C          -0.77086054        0.00000000        0.00000000
C           0.77086054       -0.00000000        0.00000000
H          -1.23287235        1.07069467       -0.20853391
H          -1.23287235       -1.07069467        0.20853391
H           1.23287235        1.07069467        0.20853391
H           1.23287235       -1.07069467       -0.20853391
6
MD Time 890.00
C          -0.77969059        0.00000000        0.00000000
C           0.77969059       -0.00000000        0.00000000
H          -1.25109923        1.07411953       -0.20273071
H          -1.25109923       -1.07411953        0.20273071
H           1.25109923        1.07411953        0.20273071
H           1.25109923       -1.07411953       -0.20273071
6
MD Time 900.00
C          -0.78819179        0.00000000        0.00000000
C           0.78819179       -0.00000000        0.00000000
H          -1.26922454        1.07603093       -0.19628768
H          -1.26922454       -1.07603093        0.19628768
H           1.26922454        1.07603093        0.19628768
H           1.26922454       -1.07603093       -0.19628768
6
MD Time 910.00
C          -0.79636252       -0.00000000        0.00000000
C           0.79636252       -0.00000000        0.00000000
H          -1.28716552        1.07636206       -0.18922922
H          -1.28716552       -1.07636206        0.18922922
H           1.28716552        1.07636206        0.18922922
H           1.28716552       -1.07636206       -0.18922922
6
MD Time 920.00
C          -0.80420258       -0.00000000        0.00000000
C           0.80420258       -0.00000000        0.00000000
H          -1.30484537        1.07506622       -0.18158242
H          -1.30484537       -1.07506622        0.18158242
H           1.30484537        1.07506622        0.18158242
H           1.30484537       -1.07506622       -0.18158242
6
MD Time 930.00
C          -0.81171293       -0.00000000        0.00000000
C           0.81171293        0.00000000        0.00000000
H          -1.32219336        1.07211657       -0.17337676
H          -1.32219336       -1.07211657        0.17337676
H           1.32219336        1.07211657        0.17337676
H           1.32219336       -1.07211657       -0.17337676
6
MD Time 940.00
C          -0.81889542       -0.00000000        0.00000000
C           0.81889542        0.00000000       -0.00000000
H          -1.33914504        1.06750614       -0.16464388
H          -1.33914504       -1.06750614        0.16464388
H           1.33914504        1.06750614        0.16464388
H           1.33914504       -1.06750614       -0.16464388
6
MD Time 950.00
C          -0.82575259       -0.00000000        0.00000000
C           0.82575259        0.00000000       -0.00000000
H          -1.35564244        1.06124784       -0.15541724
H          -1.35564244       -1.06124784        0.15541724
H           1.35564244        1.06124784        0.15541724
H           1.35564244       -1.06124784       -0.15541724
6
MD Time 960.00
C          -0.83228738       -0.00000000        0.00000000
C           0.83228738        0.00000000       -0.00000000
H          -1.37163449        1.05337463       -0.14573184
H          -1.37163449       -1.05337463        0.14573184
H           1.37163449        1.05337463        0.14573184
H           1.37163449       -1.05337463       -0.14573184
6
MD Time 970.00
C          -0.83850286       -0.00000000        0.00000000
C           0.83850286        0.00000000       -0.00000000
H          -1.38707752        1.04393990       -0.13562398
H          -1.38707752       -1.04393990        0.13562398
H           1.38707752        1.04393990        0.13562398
H           1.38707752       -1.04393990       -0.13562398
6
MD Time 980.00
C          -0.84440199       -0.00000000        0.00000000
C           0.84440199        0.00000000       -0.00000000
H          -1.40193586        1.03301791       -0.12513084
H          -1.40193586       -1.03301791        0.12513084
H           1.40193586        1.03301791        0.12513084
H           1.40193586       -1.03301791       -0.12513084
6
MD Time 990.00
C          -0.84998734       -0.00000000        0.00000000
C           0.84998734        0.00000000       -0.00000000
H          -1.41618258        1.02070423       -0.11429021
H          -1.41618258       -1.02070423        0.11429021
H           1.41618258        1.02070423        0.11429021
H           1.41618258       -1.02070423       -0.11429021
6
MD Time 1000.00
C          -0.85526076       -0.00000000        0.00000000
C           0.85526076        0.00000000       -0.00000000
H          -1.42980032        1.00711628       -0.10314001
H          -1.42980032       -1.00711628        0.10314001
H           1.42980032        1.00711628        0.10314001
H           1.42980032       -1.00711628       -0.10314001
6
MD Time 1010.00
C          -0.86022315       -0.00000000        0.00000000
C           0.86022315        0.00000000       -0.00000000
H          -1.44278218        0.99239368       -0.09171784
H          -1.44278218       -0.99239368        0.09171784
H           1.44278218        0.99239368        0.09171784
H           1.44278218       -0.99239368       -0.09171784
6
MD Time 1020.00
C          -0.86487413       -0.00000000        0.00000000
C           0.86487413        0.00000000       -0.00000000
H          -1.45513253        0.97669834       -0.08006045
H          -1.45513253       -0.97669834        0.08006045
H           1.45513253        0.97669834        0.08006045
H           1.45513253       -0.97669834       -0.08006045
6
MD Time 1030.00
C          -0.86921178       -0.00000000        0.00000000
C           0.86921178        0.00000000       -0.00000000
H          -1.46686781        0.96021424       -0.06820312
H          -1.46686781       -0.96021424        0.06820312
H           1.46686781        0.96021424        0.06820312
H           1.46686781       -0.96021424       -0.06820312
6
MD Time 1040.00
C          -0.87323245       -0.00000000        0.00000000
C           0.87323245        0.00000000       -0.00000000
H          -1.47801705        0.94314642       -0.05617895
H          -1.47801705       -0.94314642        0.05617895
H           1.47801705        0.94314642        0.05617895
H           1.47801705       -0.94314642       -0.05617895
6
MD Time 1050.00
C          -0.87693056       -0.00000000        0.00000000
C           0.87693056        0.00000000       -0.00000000
H          -1.48862196        0.92571934       -0.04401818
H          -1.48862196       -0.92571934        0.04401818
H           1.48862196        0.92571934        0.04401818
H           1.48862196       -0.92571934       -0.04401818
6
MD Time 1060.00
C          -0.88029860       -0.00000000        0.00000000
C           0.88029860        0.00000000       -0.00000000
H          -1.49873656        0.90817399       -0.03174737
H          -1.49873656       -0.90817399        0.03174737
H           1.49873656        0.90817399        0.03174737
H           1.49873656       -0.90817399       -0.03174737
6
MD Time 1070.00
C          -0.88332718       -0.00000000        0.00000000
C           0.88332718        0.00000000       -0.00000000
H          -1.50842585        0.89076387       -0.01938869
H          -1.50842585       -0.89076387        0.01938869
H           1.50842585        0.89076387        0.01938869
H           1.50842585       -0.89076387       -0.01938869
6
MD Time 1080.00
C          -0.88600537       -0.00000000        0.00000000
C           0.88600537        0.00000000       -0.00000000
H          -1.51776371        0.87374948       -0.00695929
H          -1.51776371       -0.87374948        0.00695929
H           1.51776371        0.87374948        0.00695929
H           1.51776371       -0.87374948       -0.00695929
6
MD Time 1090.00
C          -0.88832108       -0.00000000        0.00000000
C           0.88832108        0.00000000       -0.00000000
H          -1.52682962        0.85739143        0.00552926
H          -1.52682962       -0.85739143       -0.00552926
H           1.52682962        0.85739143       -0.00552926
H           1.52682962       -0.85739143        0.00552926
6
MD Time 1100.00
C          -0.89026181       -0.00000000        0.00000000
C           0.89026181        0.00000000       -0.00000000
H          -1.53570421        0.84194224        0.01807107
H          -1.53570421       -0.84194224       -0.01807107
H           1.53570421        0.84194224       -0.01807107
H           1.53570421       -0.84194224        0.01807107
6
MD Time 1110.00
C          -0.89181551       -0.00000000        0.00000000
C           0.89181551        0.00000000       -0.00000000
H          -1.54446396        0.82763730        0.03066581
H          -1.54446396       -0.82763730       -0.03066581
H           1.54446396        0.82763730       -0.03066581
H           1.54446396       -0.82763730        0.03066581
6
MD Time 1120.00
C          -0.89297154       -0.00000000        0.00000000
C           0.89297154        0.00000000       -0.00000000
H          -1.55317513        0.81468553        0.04331800
H          -1.55317513       -0.81468553       -0.04331800
H           1.55317513        0.81468553       -0.04331800
H           1.55317513       -0.81468553        0.04331800
6
MD Time 1130.00
C          -0.89372177       -0.00000000        0.00000000
C           0.89372177        0.00000000       -0.00000000
H          -1.56188753        0.80326053        0.05603586
H          -1.56188753       -0.80326053       -0.05603586
H           1.56188753        0.80326053       -0.05603586
H           1.56188753       -0.80326053        0.05603586
6
MD Time 1140.00
C          -0.89406155       -0.00000000       -0.00000000
C           0.89406155        0.00000000       -0.00000000
H          -1.57062881        0.79349324        0.06882959
H          -1.57062881       -0.79349324       -0.06882959
H           1.57062881        0.79349324       -0.06882959
H           1.57062881       -0.79349324        0.06882959
6
MD Time 1150.00
C          -0.89399051       -0.00000000       -0.00000000
C           0.89399051        0.00000000       -0.00000000
H          -1.57939982        0.78546669        0.08170923
H          -1.57939982       -0.78546669       -0.08170923
H           1.57939982        0.78546669       -0.08170923
H           1.57939982       -0.78546669        0.08170923
6
MD Time 1160.00
C          -0.89351310       -0.00000000       -0.00000000
C           0.89351310        0.00000000       -0.00000000
H          -1.58817179        0.77921368        0.09468239
H          -1.58817179       -0.77921368       -0.09468239
H           1.58817179        0.77921368       -0.09468239
H           1.58817179       -0.77921368        0.09468239
6
MD Time 1170.00
C          -0.89263876       -0.00000000       -0.00000000
C           0.89263876        0.00000000       -0.00000000
H          -1.59688561        0.77471748        0.10775192
H          -1.59688561       -0.77471748       -0.10775192
H           1.59688561        0.77471748       -0.10775192
H           1.59688561       -0.77471748        0.10775192
6
MD Time 1180.00
C          -0.89138165       -0.00000000       -0.00000000
C           0.89138165        0.00000000       -0.00000000
H          -1.60545336        0.77191539        0.12091386
H          -1.60545336       -0.77191539       -0.12091386
H           1.60545336        0.77191539       -0.12091386
H           1.60545336       -0.77191539        0.12091386
6
MD Time 1190.00
C          -0.88976015       -0.00000000       -0.00000000
C           0.88976015        0.00000000       -0.00000000
H          -1.61376196        0.77070483        0.13415594
H          -1.61376196       -0.77070483       -0.13415594
H           1.61376196        0.77070483       -0.13415594
H           1.61376196       -0.77070483        0.13415594
6
MD Time 1200.00
C          -0.88779598       -0.00000000       -0.00000000
C           0.88779598        0.00000000       -0.00000000
H          -1.62167828        0.77095087        0.14745671
H          -1.62167828       -0.77095087       -0.14745671
H           1.62167828        0.77095087       -0.14745671
H           1.62167828       -0.77095087        0.14745671
6
MD Time 1210.00
C          -0.88551325       -0.00000000       -0.00000000
C           0.88551325        0.00000000       -0.00000000
H          -1.62905531        0.77249466        0.16078539
H          -1.62905531       -0.77249466       -0.16078539
H           1.62905531        0.77249466       -0.16078539
H           1.62905531       -0.77249466        0.16078539
6
MD Time 1220.00
C          -0.88293738       -0.00000000       -0.00000000
C           0.88293738        0.00000000       -0.00000000
H          -1.63573855        0.77516182        0.17410234
H          -1.63573855       -0.77516182       -0.17410234
H           1.63573855        0.77516182       -0.17410234
H           1.63573855       -0.77516182        0.17410234
6
MD Time 1230.00
C          -0.88009414       -0.00000000       -0.00000000
C           0.88009414        0.00000000       -0.00000000
H          -1.64157212        0.77877016        0.18736014
H          -1.64157212       -0.77877016       -0.18736014
H           1.64157212        0.77877016       -0.18736014
H           1.64157212       -0.77877016        0.18736014
6
MD Time 1240.00
C          -0.87700875       -0.00000000       -0.00000000
C           0.87700875        0.00000000       -0.00000000
H          -1.64640423        0.78313636        0.20050500
H          -1.64640423       -0.78313636       -0.20050500
H           1.64640423        0.78313636       -0.20050500
H           1.64640423       -0.78313636        0.20050500
6
MD Time 1250.00
C          -0.87370524       -0.00000000       -0.00000000
C           0.87370524        0.00000000       -0.00000000
H          -1.65009162        0.78808143        0.21347843
H          -1.65009162       -0.78808143       -0.21347843
H           1.65009162        0.78808143       -0.21347843
H           1.65009162       -0.78808143        0.21347843
6
MD Time 1260.00
C          -0.87020582       -0.00000000       -0.00000000
C           0.87020582        0.00000000       -0.00000000
H          -1.65250297        0.79343482        0.22621892
H          -1.65250297       -0.79343482       -0.22621892
H           1.65250297        0.79343482       -0.22621892
H           1.65250297       -0.79343482        0.22621892
6
MD Time 1270.00
C          -0.86653065       -0.00000000       -0.00000000
C           0.86653065        0.00000000       -0.00000000
H          -1.65352131        0.79903746        0.23866359
H          -1.65352131       -0.79903746       -0.23866359
H           1.65352131        0.79903746       -0.23866359
H           1.65352131       -0.79903746        0.23866359
6
MD Time 1280.00
C          -0.86269753       -0.00000000       -0.00000000
C           0.86269753        0.00000000       -0.00000000
H          -1.65304559        0.80474367        0.25074969
H          -1.65304559       -0.80474367       -0.25074969
H           1.65304559        0.80474367       -0.25074969
H           1.65304559       -0.80474367        0.25074969
6
MD Time 1290.00
C          -0.85872188       -0.00000000       -0.00000000
C           0.85872188        0.00000000       -0.00000000
H          -1.65099145        0.81042243        0.26241589
H          -1.65099145       -0.81042243       -0.26241589
H           1.65099145        0.81042243       -0.26241589
H           1.65099145       -0.81042243        0.26241589
6
MD Time 1300.00
C          -0.85461671       -0.00000000       -0.00000000
C           0.85461671        0.00000000       -0.00000000
H          -1.64729156        0.81595790        0.27360339
H          -1.64729156       -0.81595790       -0.27360339
H           1.64729156        0.81595790       -0.27360339
H           1.64729156       -0.81595790        0.27360339
6
MD Time 1310.00
C          -0.85039268       -0.00000000       -0.00000000
C           0.85039268        0.00000000       -0.00000000
H          -1.64189552        0.82124967        0.28425681
H          -1.64189552       -0.82124967       -0.28425681
H           1.64189552        0.82124967       -0.28425681
H           1.64189552       -0.82124967        0.28425681
6
MD Time 1320.00
C          -0.84605819       -0.00000000       -0.00000000
C           0.84605819        0.00000000       -0.00000000
H          -1.63476962        0.82621270        0.29432495
H          -1.63476962       -0.82621270       -0.29432495
H           1.63476962        0.82621270       -0.29432495
H           1.63476962       -0.82621270        0.29432495
6
MD Time 1330.00
C          -0.84161951       -0.00000000       -0.00000000
C           0.84161951        0.00000000       -0.00000000
H          -1.62589646        0.83077714        0.30376139
H          -1.62589646       -0.83077714       -0.30376139
H           1.62589646        0.83077714       -0.30376139
H           1.62589646       -0.83077714        0.30376139
6
MD Time 1340.00
C          -0.83708079       -0.00000000       -0.00000000
C           0.83708079        0.00000000       -0.00000000
H          -1.61527460        0.83488820        0.31252495
H          -1.61527460       -0.83488820       -0.31252495
H           1.61527460        0.83488820       -0.31252495
H           1.61527460       -0.83488820        0.31252495
6
MD Time 1350.00
C          -0.83244423       -0.00000000       -0.00000000
C           0.83244423        0.00000000       -0.00000000
H          -1.60291825        0.83850604        0.32058013
H          -1.60291825       -0.83850604       -0.32058013
H           1.60291825        0.83850604       -0.32058013
H           1.60291825       -0.83850604        0.32058013
6
MD Time 1360.00
C          -0.82771006       -0.00000000       -0.00000000
C           0.82771006        0.00000000       -0.00000000
H          -1.58885714        0.84160577        0.32789752
H          -1.58885714       -0.84160577       -0.32789752
H           1.58885714        0.84160577       -0.32789752
H           1.58885714       -0.84160577        0.32789752
6
MD Time 1370.00
C          -0.82287661       -0.00000000       -0.00000000
C           0.82287661        0.00000000       -0.00000000
H          -1.57313638        0.84417762        0.33445412
H          -1.57313638       -0.84417762       -0.33445412
H           1.57313638        0.84417762       -0.33445412
H           1.57313638       -0.84417762        0.33445412
6
MD Time 1380.00
C          -0.81794027       -0.00000000       -0.00000000
C           0.81794027        0.00000000       -0.00000000
H          -1.55581655        0.84622728        0.34023370
H          -1.55581655       -0.84622728       -0.34023370
H           1.55581655        0.84622728       -0.34023370
H           1.55581655       -0.84622728        0.34023370
6
MD Time 1390.00
C          -0.81289550       -0.00000000       -0.00000000
C           0.81289550        0.00000000        0.00000000
H          -1.53697386        0.84777633        0.34522718
H          -1.53697386       -0.84777633       -0.34522718
H           1.53697386        0.84777633       -0.34522718
H           1.53697386       -0.84777633        0.34522718
6
MD Time 1400.00
C          -0.80773477       -0.00000000       -0.00000000
C           0.80773477        0.00000000        0.00000000
H          -1.51670029        0.84886281        0.34943289
H          -1.51670029       -0.84886281       -0.34943289
H           1.51670029        0.84886281       -0.34943289
H           1.51670029       -0.84886281        0.34943289
6
MD Time 1410.00
C          -0.80244855       -0.00000000        0.00000000
C           0.80244855        0.00000000        0.00000000
H          -1.49510375        0.84954187        0.35285698
H          -1.49510375       -0.84954187       -0.35285698
H           1.49510375        0.84954187       -0.35285698
H           1.49510375       -0.84954187        0.35285698
6
MD Time 1420.00
C          -0.79702530       -0.00000000        0.00000000
C           0.79702530        0.00000000        0.00000000
H          -1.47230806        0.84988625        0.35551353
H          -1.47230806       -0.84988625       -0.35551353
H           1.47230806        0.84988625       -0.35551353
H           1.47230806       -0.84988625        0.35551353
6
MD Time 1430.00
C          -0.79145148       -0.00000000        0.00000000
C           0.79145148        0.00000000        0.00000000
H          -1.44845275        0.84998671        0.35742475
H          -1.44845275       -0.84998671       -0.35742475
H           1.44845275        0.84998671       -0.35742475
H           1.44845275       -0.84998671        0.35742475
6
MD Time 1440.00
C          -0.78571173       -0.00000000        0.00000000
C           0.78571173        0.00000000        0.00000000
H          -1.42369229        0.84995196        0.35862084
H          -1.42369229       -0.84995196       -0.35862084
H           1.42369229        0.84995196       -0.35862084
H           1.42369229       -0.84995196        0.35862084
6
MD Time 1450.00
C          -0.77978905       -0.00000000        0.00000000
C           0.77978905        0.00000000        0.00000000
H          -1.39819493        0.84990810        0.35913964
H          -1.39819493       -0.84990810       -0.35913964
H           1.39819493        0.84990810       -0.35913964
H           1.39819493       -0.84990810        0.35913964
6
MD Time 1460.00
C          -0.77366524       -0.00000000        0.00000000
C           0.77366524        0.00000000        0.00000000
H          -1.37214064        0.84999711        0.35902590
H          -1.37214064       -0.84999711       -0.35902590
H           1.37214064        0.84999711       -0.35902590
H           1.37214064       -0.84999711        0.35902590
6
MD Time 1470.00
C          -0.76732143       -0.00000000        0.00000000
C           0.76732143        0.00000000        0.00000000
H          -1.34571831        0.85037436        0.35833009
H          -1.34571831       -0.85037436       -0.35833009
H           1.34571831        0.85037436       -0.35833009
H           1.34571831       -0.85037436        0.35833009
6
MD Time 1480.00
C          -0.76073887       -0.00000000        0.00000000
C           0.76073887        0.00000000        0.00000000
H          -1.31912195        0.85120465        0.35710665
H          -1.31912195       -0.85120465       -0.35710665
H           1.31912195        0.85120465       -0.35710665
H           1.31912195       -0.85120465        0.35710665
6
MD Time 1490.00
C          -0.75389993       -0.00000000       -0.00000000
C           0.75389993        0.00000000        0.00000000
H          -1.29254605        0.85265687        0.35541168
H          -1.29254605       -0.85265687       -0.35541168
H           1.29254605        0.85265687       -0.35541168
H           1.29254605       -0.85265687        0.35541168
6
MD Time 1500.00
C          -0.74678926       -0.00000000       -0.00000000
C           0.74678926        0.00000000        0.00000000
H          -1.26618027        0.85489710        0.35330018
H          -1.26618027       -0.85489710       -0.35330018
H           1.26618027        0.85489710       -0.35330018
H           1.26618027       -0.85489710        0.35330018
6
MD Time 1510.00
C          -0.73939508       -0.00000000       -0.00000000
C           0.73939508        0.00000000        0.00000000
H          -1.24020368        0.85808046        0.35082277
H          -1.24020368       -0.85808046       -0.35082277
H           1.24020368        0.85808046       -0.35082277
H           1.24020368       -0.85808046        0.35082277
6
MD Time 1520.00
C          -0.73171054       -0.00000000       -0.00000000
C           0.73171054        0.00000000        0.00000000
H          -1.21477925        0.86234214        0.34802240
H          -1.21477925       -0.86234214       -0.34802240
H           1.21477925        0.86234214       -0.34802240
H           1.21477925       -0.86234214        0.34802240
6
MD Time 1530.00
C          -0.72373503       -0.00000000       -0.00000000
C           0.72373503        0.00000000        0.00000000
H          -1.19004893        0.86778836        0.34493113
H          -1.19004893       -0.86778836       -0.34493113
H           1.19004893        0.86778836       -0.34493113
H           1.19004893       -0.86778836        0.34493113
6
MD Time 1540.00
C          -0.71547532       -0.00000000       -0.00000000
C           0.71547532        0.00000000        0.00000000
H          -1.16613003        0.87448809        0.34156753
H          -1.16613003       -0.87448809       -0.34156753
H           1.16613003        0.87448809       -0.34156753
H           1.16613003       -0.87448809        0.34156753
6
MD Time 1550.00
C          -0.70694647       -0.00000000       -0.00000000
C           0.70694647        0.00000000        0.00000000
H          -1.14311325        0.88246661        0.33793493
H          -1.14311325       -0.88246661       -0.33793493
H           1.14311325        0.88246661       -0.33793493
H           1.14311325       -0.88246661        0.33793493
6
MD Time 1560.00
C          -0.69817241       -0.00000000       -0.00000000
C           0.69817241        0.00000000        0.00000000
H          -1.12106266        0.89170164        0.33402094
H          -1.12106266       -0.89170164       -0.33402094
H           1.12106266        0.89170164       -0.33402094
H           1.12106266       -0.89170164        0.33402094
6
MD Time 1570.00
C          -0.68918620       -0.00000000       -0.00000000
C           0.68918620        0.00000000        0.00000000
H          -1.10001758        0.90212259        0.32979818
H          -1.10001758       -0.90212259       -0.32979818
H           1.10001758        0.90212259       -0.32979818
H           1.10001758       -0.90212259        0.32979818
6
MD Time 1580.00
C          -0.68003007        0.00000000       -0.00000000
C           0.68003007        0.00000000        0.00000000
H          -1.07999599        0.91361309        0.32522631
H          -1.07999599       -0.91361309       -0.32522631
H           1.07999599        0.91361309       -0.32522631
H           1.07999599       -0.91361309        0.32522631
6
MD Time 1590.00
C          -0.67075509        0.00000000       -0.00000000
C           0.67075509        0.00000000        0.00000000
H          -1.06099903        0.92601635        0.32025495
H          -1.06099903       -0.92601635       -0.32025495
H           1.06099903        0.92601635       -0.32025495
H           1.06099903       -0.92601635        0.32025495
6
MD Time 1600.00
C          -0.66142081        0.00000000       -0.00000000
C           0.66142081        0.00000000        0.00000000
H          -1.04301602        0.93914275        0.31482730
H          -1.04301602       -0.93914275       -0.31482730
H           1.04301602        0.93914275       -0.31482730
H           1.04301602       -0.93914275        0.31482730
6
MD Time 1610.00
C          -0.65209474        0.00000000       -0.00000000
C           0.65209474       -0.00000000        0.00000000
H          -1.02602939        0.95277873        0.30888391
H          -1.02602939       -0.95277873       -0.30888391
H           1.02602939        0.95277873       -0.30888391
H           1.02602939       -0.95277873        0.30888391
6
MD Time 1620.00
C          -0.64285176        0.00000000       -0.00000000
C           0.64285176       -0.00000000        0.00000000
H          -1.01001908        0.96669600        0.30236638
H          -1.01001908       -0.96669600       -0.30236638
H           1.01001908        0.96669600       -0.30236638
H           1.01001908       -0.96669600        0.30236638
6
MD Time 1630.00
C          -0.63377348        0.00000000       -0.00000000
C           0.63377348       -0.00000000        0.00000000
H          -0.99496618        0.98066031        0.29522053
H          -0.99496618       -0.98066031       -0.29522053
H           0.99496618        0.98066031       -0.29522053
H           0.99496618       -0.98066031        0.29522053
6
MD Time 1640.00
C          -0.62494752        0.00000000       -0.00000000
C           0.62494752       -0.00000000        0.00000000
H          -0.98085568        0.99443920        0.28739904
H          -0.98085568       -0.99443920       -0.28739904
H           0.98085568        0.99443920       -0.28739904
H           0.98085568       -0.99443920        0.28739904
6
MD Time 1650.00
C          -0.61646650        0.00000000       -0.00000000
C           0.61646650       -0.00000000        0.00000000
H          -0.96767827        1.00780845        0.27886338
H          -0.96767827       -1.00780845       -0.27886338
H           0.96767827        1.00780845       -0.27886338
H           0.96767827       -1.00780845        0.27886338
6
MD Time 1660.00
C          -0.60842690        0.00000000       -0.00000000
C           0.60842690       -0.00000000        0.00000000
H          -0.95543138        1.02055713        0.26958509
H          -0.95543138       -1.02055713       -0.26958509
H           0.95543138        1.02055713       -0.26958509
H           0.95543138       -1.02055713        0.26958509
6
MD Time 1670.00
C          -0.60092738        0.00000000       -0.00000000
C           0.60092738       -0.00000000        0.00000000
H          -0.94411961        1.03249138        0.25954651
H          -0.94411961       -1.03249138       -0.25954651
H           0.94411961        1.03249138       -0.25954651
H           0.94411961       -1.03249138        0.25954651
6
MD Time 1680.00
C          -0.59406679        0.00000000       -0.00000000
C           0.59406679       -0.00000000        0.00000000
H          -0.93375458        1.04343714        0.24874098
H          -0.93375458       -1.04343714       -0.24874098
H           0.93375458        1.04343714       -0.24874098
H           0.93375458       -1.04343714        0.24874098
6
MD Time 1690.00
C          -0.58794168        0.00000000       -0.00000000
C           0.58794168       -0.00000000        0.00000000
H          -0.92435455        1.05324204        0.23717268
H          -0.92435455       -1.05324204       -0.23717268
H           0.92435455        1.05324204       -0.23717268
H           0.92435455       -1.05324204        0.23717268
6
MD Time 1700.00
C          -0.58264334        0.00000000       -0.00000000
C           0.58264334       -0.00000000        0.00000000
H          -0.91594361        1.06177677        0.22485623
H          -0.91594361       -1.06177677       -0.22485623
H           0.91594361        1.06177677       -0.22485623
H           0.91594361       -1.06177677        0.22485623
6
MD Time 1710.00
C          -0.57825468        0.00000000       -0.00000000
C           0.57825468       -0.00000000        0.00000000
H          -0.90855086        1.06893605        0.21181600
H          -0.90855086       -1.06893605       -0.21181600
H           0.90855086        1.06893605       -0.21181600
H           0.90855086       -1.06893605        0.21181600
6
MD Time 1720.00
C          -0.57484687        0.00000000       -0.00000000
C           0.57484687       -0.00000000        0.00000000
H          -0.90220933        1.07463943        0.19808541
H          -0.90220933       -1.07463943       -0.19808541
H           0.90220933        1.07463943       -0.19808541
H           0.90220933       -1.07463943        0.19808541
6
MD Time 1730.00
C          -0.57247624        0.00000000       -0.00000000
C           0.57247624       -0.00000000        0.00000000
H          -0.89695490        1.07883197        0.18370600
H          -0.89695490       -1.07883197       -0.18370600
H           0.89695490        1.07883197       -0.18370600
H           0.89695490       -1.07883197        0.18370600
6
MD Time 1740.00
C          -0.57118152        0.00000000       -0.00000000
C           0.57118152       -0.00000000        0.00000000
H          -0.89282512        1.08148485        0.16872658
H          -0.89282512       -1.08148485       -0.16872658
H           0.89282512        1.08148485       -0.16872658
H           0.89282512       -1.08148485        0.16872658
6
MD Time 1750.00
C          -0.57098193        0.00000000       -0.00000000
C           0.57098193       -0.00000000        0.00000000
H          -0.88985801        1.08259593        0.15320228
H          -0.88985801       -1.08259593       -0.15320228
H           0.88985801        1.08259593       -0.15320228
H           0.88985801       -1.08259593        0.15320228
6
MD Time 1760.00
C          -0.57187604        0.00000000       -0.00000000
C           0.57187604       -0.00000000       -0.00000000
H          -0.88809103        1.08219024        0.13719361
H          -0.88809103       -1.08219024       -0.13719361
H           0.88809103        1.08219024       -0.13719361
H           0.88809103       -1.08219024        0.13719361
6
MD Time 1770.00
C          -0.57384176        0.00000000       -0.00000000
C           0.57384176       -0.00000000       -0.00000000
H          -0.88755997        1.08032028        0.12076547
H          -0.88755997       -1.08032028       -0.12076547
H           0.88755997        1.08032028       -0.12076547
H           0.88755997       -1.08032028        0.12076547
6
MD Time 1780.00
C          -0.57683734        0.00000000       -0.00000000
C           0.57683734       -0.00000000       -0.00000000
H          -0.88829821        1.07706615        0.10398620
H          -0.88829821       -1.07706615       -0.10398620
H           0.88829821        1.07706615       -0.10398620
H           0.88829821       -1.07706615        0.10398620
6
MD Time 1790.00
C          -0.58080334        0.00000000       -0.00000000
C           0.58080334       -0.00000000       -0.00000000
H          -0.89033608        1.07253525        0.08692662
H          -0.89033608       -1.07253525       -0.08692662
H           0.89033608        1.07253525       -0.08692662
H           0.89033608       -1.07253525        0.08692662
6
MD Time 1800.00
C          -0.58566525        0.00000000       -0.00000000
C           0.58566525       -0.00000000       -0.00000000
H          -0.89370058        1.06686152        0.06965893
H          -0.89370058       -1.06686152       -0.06965893
H           0.89370058        1.06686152       -0.06965893
H           0.89370058       -1.06686152        0.06965893
6
MD Time 1810.00
C          -0.59133664        0.00000000       -0.00000000
C           0.59133664       -0.00000000       -0.00000000
H          -0.89841541        1.06020407        0.05225571
H          -0.89841541       -1.06020407       -0.05225571
H           0.89841541        1.06020407       -0.05225571
H           0.89841541       -1.06020407        0.05225571
6
MD Time 1820.00
C          -0.59772245        0.00000000       -0.00000000
C           0.59772245       -0.00000000       -0.00000000
H          -0.90450131        1.05274490        0.03478878
H          -0.90450131       -1.05274490       -0.03478878
H           0.90450131        1.05274490       -0.03478878
H           0.90450131       -1.05274490        0.03478878
6
MD Time 1830.00
C          -0.60472222        0.00000000       -0.00000000
C           0.60472222       -0.00000000       -0.00000000
H          -0.91197657        1.04468552        0.01732798
H          -0.91197657       -1.04468552       -0.01732798
H           0.91197657        1.04468552       -0.01732798
H           0.91197657       -1.04468552        0.01732798
6
MD Time 1840.00
C          -0.61223313        0.00000000       -0.00000000
C           0.61223313       -0.00000000       -0.00000000
H          -0.92085765        1.03624248       -0.00006001
H          -0.92085765       -1.03624248        0.00006001
H           0.92085765        1.03624248        0.00006001
H           0.92085765       -1.03624248       -0.00006001
6
MD Time 1850.00
C          -0.62015256        0.00000000       -0.00000000
C           0.62015256       -0.00000000       -0.00000000
H          -0.93115973        1.02764131       -0.01731287
H          -0.93115973       -1.02764131        0.01731287
H           0.93115973        1.02764131        0.01731287
H           0.93115973       -1.02764131       -0.01731287
6
MD Time 1860.00
C          -0.62838041        0.00000000       -0.00000000
C           0.62838041       -0.00000000       -0.00000000
H          -0.94289680        1.01910928       -0.03437371
H          -0.94289680       -1.01910928        0.03437371
H           0.94289680        1.01910928        0.03437371
H           0.94289680       -1.01910928       -0.03437371
6
MD Time 1870.00
C          -0.63682090        0.00000000       -0.00000000
C           0.63682090       -0.00000000       -0.00000000
H          -0.95608118        1.01086667       -0.05119195
H          -0.95608118       -1.01086667        0.05119195
H           0.95608118        1.01086667        0.05119195
H           0.95608118       -1.01086667       -0.05119195
6
MD Time 1880.00
C          -0.64538408        0.00000000       -0.00000000
C           0.64538408       -0.00000000       -0.00000000
H          -0.97072234        1.00311735       -0.06772378
H          -0.97072234       -1.00311735        0.06772378
H           0.97072234        1.00311735        0.06772378
H           0.97072234       -1.00311735       -0.06772378
6
MD Time 1890.00
C          -0.65398706        0.00000000       -0.00000000
C           0.65398706       -0.00000000       -0.00000000
H          -0.98682467        0.99603895       -0.08393221
H          -0.98682467       -0.99603895        0.08393221
H           0.98682467        0.99603895        0.08393221
H           0.98682467       -0.99603895       -0.08393221
6
MD Time 1900.00
C          -0.66255495        0.00000000       -0.00000000
C           0.66255495       -0.00000000       -0.00000000
H          -1.00438460        0.98977365       -0.09978652
H          -1.00438460       -0.98977365        0.09978652
H           1.00438460        0.98977365        0.09978652
H           1.00438460       -0.98977365       -0.09978652
6
MD Time 1910.00
C          -0.67102166        0.00000000       -0.00000000
C           0.67102166       -0.00000000       -0.00000000
H          -1.02338705        0.98442044       -0.11526121
H          -1.02338705       -0.98442044        0.11526121
H           1.02338705        0.98442044        0.11526121
H           1.02338705       -0.98442044       -0.11526121
6
MD Time 1920.00
C          -0.67933038        0.00000000       -0.00000000
C           0.67933038       -0.00000000       -0.00000000
H          -1.04380167        0.98002979       -0.13033461
H          -1.04380167       -0.98002979        0.13033461
H           1.04380167        0.98002979        0.13033461
H           1.04380167       -0.98002979       -0.13033461
6
MD Time 1930.00
C          -0.68743388        0.00000000       -0.00000000
C           0.68743388       -0.00000000       -0.00000000
H          -1.06557940        0.97660138       -0.14498713
H          -1.06557940       -0.97660138        0.14498713
H           1.06557940        0.97660138        0.14498713
H           1.06557940       -0.97660138       -0.14498713
6
MD Time 1940.00
C          -0.69529456        0.00000000       -0.00000000
C           0.69529456       -0.00000000       -0.00000000
H          -1.08864979        0.97408528       -0.15919964
H          -1.08864979       -0.97408528        0.15919964
H           1.08864979        0.97408528        0.15919964
H           1.08864979       -0.97408528       -0.15919964
6
MD Time 1950.00
C          -0.70288415        0.00000000       -0.00000000
C           0.70288415       -0.00000000       -0.00000000
H          -1.11291951        0.97238628       -0.17295208
H          -1.11291951       -0.97238628        0.17295208
H           1.11291951        0.97238628        0.17295208
H           1.11291951       -0.97238628       -0.17295208
6
MD Time 1960.00
C          -0.71018321        0.00000000       -0.00000000
C           0.71018321       -0.00000000       -0.00000000
H          -1.13827230        0.97137105       -0.18622244
H          -1.13827230       -0.97137105        0.18622244
H           1.13827230        0.97137105        0.18622244
H           1.13827230       -0.97137105       -0.18622244
6
MD Time 1970.00
C          -0.71718034        0.00000000       -0.00000000
C           0.71718034       -0.00000000       -0.00000000
H          -1.16457032        0.97087709       -0.19898626
H          -1.16457032       -0.97087709        0.19898626
H           1.16457032        0.97087709        0.19898626
H           1.16457032       -0.97087709       -0.19898626
6
MD Time 1980.00
C          -0.72387121        0.00000000       -0.00000000
C           0.72387121       -0.00000000        0.00000000
H          -1.19165688        0.97072252       -0.21121668
H          -1.19165688       -0.97072252        0.21121668
H           1.19165688        0.97072252        0.21121668
H           1.19165688       -0.97072252       -0.21121668
6
MD Time 1990.00
C          -0.73025746        0.00000000       -0.00000000
C           0.73025746       -0.00000000        0.00000000
H          -1.21936005        0.97071588       -0.22288481
H          -1.21936005       -0.97071588        0.22288481
H           1.21936005        0.97071588        0.22288481
H           1.21936005       -0.97071588       -0.22288481
6
MD Time 2000.00
C          -0.73634554        0.00000000       -0.00000000
C           0.73634554       -0.00000000        0.00000000
H          -1.24749691        0.97066495       -0.23396050
H          -1.24749691       -0.97066495        0.23396050
H           1.24749691        0.97066495        0.23396050
H           1.24749691       -0.97066495       -0.23396050
6
MD Time 2010.00
C          -0.74214563        0.00000000       -0.00000000
C           0.74214563       -0.00000000        0.00000000
H          -1.27587786        0.97038440       -0.24441311
H          -1.27587786       -0.97038440        0.24441311
H           1.27587786        0.97038440        0.24441311
H           1.27587786       -0.97038440       -0.24441311
6
MD Time 2020.00
C          -0.74767055        0.00000000       -0.00000000
C           0.74767055       -0.00000000        0.00000000
H          -1.30431086        0.96970168       -0.25421246
H          -1.30431086       -0.96970168        0.25421246
H           1.30431086        0.96970168        0.25421246
H           1.30431086       -0.96970168       -0.25421246
6
MD Time 2030.00
C          -0.75293486        0.00000000       -0.00000000
C           0.75293486       -0.00000000        0.00000000
H          -1.33260516        0.96846137       -0.26332960
H          -1.33260516       -0.96846137        0.26332960
H           1.33260516        0.96846137        0.26332960
H           1.33260516       -0.96846137       -0.26332960
6
MD Time 2040.00
C          -0.75795407        0.00000000       -0.00000000
C           0.75795407       -0.00000000        0.00000000
H          -1.36057448        0.96652804       -0.27173755
H          -1.36057448       -0.96652804        0.27173755
H           1.36057448        0.96652804        0.27173755
H           1.36057448       -0.96652804       -0.27173755
6
MD Time 2050.00
C          -0.76274401        0.00000000       -0.00000000
C           0.76274401       -0.00000000        0.00000000
H          -1.38803956        0.96378788       -0.27941181
H          -1.38803956       -0.96378788        0.27941181
H           1.38803956        0.96378788        0.27941181
H           1.38803956       -0.96378788       -0.27941181
6
MD Time 2060.00
C          -0.76732031        0.00000000       -0.00000000
C           0.76732031       -0.00000000        0.00000000
H          -1.41483014        0.96014924       -0.28633083
H          -1.41483014       -0.96014924        0.28633083
H           1.41483014        0.96014924        0.28633083
H           1.41483014       -0.96014924       -0.28633083
6
MD Time 2070.00
C          -0.77169801        0.00000000       -0.00000000
C           0.77169801       -0.00000000        0.00000000
H          -1.44078631        0.95554261       -0.29247627
H          -1.44078631       -0.95554261        0.29247627
H           1.44078631        0.95554261        0.29247627
H           1.44078631       -0.95554261       -0.29247627
6
MD Time 2080.00
C          -0.77589127        0.00000000       -0.00000000
C           0.77589127       -0.00000000        0.00000000
H          -1.46575948        0.94992000       -0.29783321
H          -1.46575948       -0.94992000        0.29783321
H           1.46575948        0.94992000        0.29783321
H           1.46575948       -0.94992000       -0.29783321
6
MD Time 2090.00
C          -0.77991322        0.00000000       -0.00000000
C           0.77991322       -0.00000000        0.00000000
H          -1.48961304        0.94325413       -0.30239027
H          -1.48961304       -0.94325413        0.30239027
H           1.48961304        0.94325413        0.30239027
H           1.48961304       -0.94325413       -0.30239027
6
MD Time 2100.00
C          -0.78377573        0.00000000       -0.00000000
C           0.78377573       -0.00000000        0.00000000
H          -1.51222264        0.93553744       -0.30613968
H          -1.51222264       -0.93553744        0.30613968
H           1.51222264        0.93553744        0.30613968
H           1.51222264       -0.93553744       -0.30613968
6
MD Time 2110.00
C          -0.78748936        0.00000000       -0.00000000
C           0.78748936       -0.00000000        0.00000000
H          -1.53347647        0.92678113       -0.30907732
H          -1.53347647       -0.92678113        0.30907732
H           1.53347647        0.92678113        0.30907732
H           1.53347647       -0.92678113       -0.30907732
6
MD Time 2120.00
C          -0.79106326        0.00000000       -0.00000000
C           0.79106326       -0.00000000        0.00000000
H          -1.55327528        0.91701430       -0.31120273
H          -1.55327528       -0.91701430        0.31120273
H           1.55327528        0.91701430        0.31120273
H           1.55327528       -0.91701430       -0.31120273
6
MD Time 2130.00
C          -0.79450514        0.00000000       -0.00000000
C           0.79450514       -0.00000000        0.00000000
H          -1.57153257        0.90628321       -0.31251914
H          -1.57153257       -0.90628321        0.31251914
H           1.57153257        0.90628321        0.31251914
H           1.57153257       -0.90628321       -0.31251914
6
MD Time 2140.00
C          -0.79782113        0.00000000       -0.00000000
C           0.79782113       -0.00000000        0.00000000
H          -1.58817467        0.89465065       -0.31303349
H          -1.58817467       -0.89465065        0.31303349
H           1.58817467        0.89465065        0.31303349
H           1.58817467       -0.89465065       -0.31303350
6
MD Time 2150.00
C          -0.80101579        0.00000000       -0.00000000
C           0.80101579       -0.00000000        0.00000000
H          -1.60314092        0.88219562       -0.31275650
H          -1.60314092       -0.88219562        0.31275650
H           1.60314092        0.88219562        0.31275650
H           1.60314092       -0.88219562       -0.31275650
6
MD Time 2160.00
C          -0.80409196        0.00000000       -0.00000000
C           0.80409196       -0.00000000        0.00000000
H          -1.61638401        0.86901303       -0.31170263
H          -1.61638401       -0.86901303        0.31170263
H           1.61638401        0.86901303        0.31170263
H           1.61638401       -0.86901303       -0.31170263
6
MD Time 2170.00
C          -0.80705068        0.00000000       -0.00000000
C           0.80705068       -0.00000000        0.00000000
H          -1.62787037        0.85521364       -0.30989025
H          -1.62787037       -0.85521364        0.30989025
H           1.62787037        0.85521364        0.30989025
H           1.62787037       -0.85521364       -0.30989025
6
MD Time 2180.00
C          -0.80989111        0.00000000       -0.00000000
C           0.80989111       -0.00000000        0.00000000
H          -1.63758071        0.84092408       -0.30734162
H          -1.63758071       -0.84092408        0.30734162
H           1.63758071        0.84092408        0.30734162
H           1.63758071       -0.84092408       -0.30734162
6
MD Time 2190.00
C          -0.81261029        0.00000000       -0.00000000
C           0.81261029       -0.00000000        0.00000000
H          -1.64551069        0.82628693       -0.30408294
H          -1.64551069       -0.82628693        0.30408294
H           1.64551069        0.82628693        0.30408294
H           1.64551069       -0.82628693       -0.30408294
6
MD Time 2200.00
C          -0.81520309        0.00000000       -0.00000000
C           0.81520309       -0.00000000        0.00000000
H          -1.65167169        0.81146074       -0.30014441
H          -1.65167169       -0.81146074        0.30014441
H           1.65167169        0.81146074        0.30014441
H           1.65167169       -0.81146074       -0.30014441
6
MD Time 2210.00
C          -0.81766197        0.00000000       -0.00000000
C           0.81766197       -0.00000000        0.00000000
H          -1.65609155        0.79661995       -0.29556011
H          -1.65609155       -0.79661995        0.29556011
H           1.65609155        0.79661995        0.29556011
H           1.65609155       -0.79661995       -0.29556011
6
MD Time 2220.00
C          -0.81997686        0.00000000       -0.00000000
C           0.81997686       -0.00000000        0.00000000
H          -1.65881546        0.78195456       -0.29036795
H          -1.65881546       -0.78195456        0.29036795
H           1.65881546        0.78195456        0.29036795
H           1.65881546       -0.78195456       -0.29036795
6
MD Time 2230.00
C          -0.82213500        0.00000000       -0.00000000
C           0.82213500       -0.00000000        0.00000000
H          -1.65990653        0.76766940       -0.28460936
H          -1.65990653       -0.76766940        0.28460936
H           1.65990653        0.76766940        0.28460936
H           1.65990653       -0.76766940       -0.28460936
6
MD Time 2240.00
C          -0.82412087        0.00000000       -0.00000000
C           0.82412087       -0.00000000        0.00000000
H          -1.65944632        0.75398283       -0.27832889
H          -1.65944632       -0.75398283        0.27832889
H           1.65944632        0.75398283        0.27832889
H           1.65944632       -0.75398283       -0.27832889
6
MD Time 2250.00
C          -0.82591614        0.00000000       -0.00000000
C           0.82591614       -0.00000000        0.00000000
H          -1.65753476        0.74112468       -0.27157368
H          -1.65753476       -0.74112468        0.27157368
H           1.65753476        0.74112468        0.27157368
H           1.65753476       -0.74112468       -0.27157368
6
MD Time 2260.00
C          -0.82749979       -0.00000000       -0.00000000
C           0.82749979       -0.00000000       -0.00000000
H          -1.65428954        0.72933323       -0.26439257
H          -1.65428954       -0.72933323        0.26439257
H           1.65428954        0.72933323        0.26439257
H           1.65428954       -0.72933323       -0.26439257
6
MD Time 2270.00
C          -0.82884835       -0.00000000       -0.00000000
C           0.82884835        0.00000000       -0.00000000
H          -1.64984464        0.71885119       -0.25683515
H          -1.64984464       -0.71885119        0.25683515
H           1.64984464        0.71885119        0.25683515
H           1.64984464       -0.71885119       -0.25683515
6
MD Time 2280.00
C          -0.82993633       -0.00000000       -0.00000000
C           0.82993633        0.00000000       -0.00000000
H          -1.64434770        0.70992024       -0.24895049
H          -1.64434770       -0.70992024        0.24895049
H           1.64434770        0.70992024        0.24895049
H           1.64434770       -0.70992024       -0.24895049
6
MD Time 2290.00
C          -0.83073690       -0.00000000       -0.00000000
C           0.83073690        0.00000000       -0.00000000
H          -1.63795617        0.70277446       -0.24078570
H          -1.63795617       -0.70277446        0.24078570
H           1.63795617        0.70277446        0.24078570
H           1.63795617       -0.70277446       -0.24078570
6
MD Time 2300.00
C          -0.83122279       -0.00000000       -0.00000000
C           0.83122279        0.00000000       -0.00000000
H          -1.63083210        0.69763245       -0.23238452
H          -1.63083210       -0.69763245        0.23238452
H           1.63083210        0.69763245        0.23238452
H           1.63083210       -0.69763245       -0.23238452
6
MD Time 2310.00
C          -0.83136739       -0.00000000       -0.00000000
C           0.83136739        0.00000000       -0.00000000
H          -1.62313565        0.69468854       -0.22378575
H          -1.62313565       -0.69468854        0.22378575
H           1.62313565        0.69468854        0.22378575
H           1.62313565       -0.69468854       -0.22378575
6
MD Time 2320.00
C          -0.83114607       -0.00000000       -0.00000000
C           0.83114607        0.00000000       -0.00000000
H          -1.61501759        0.69410359       -0.21502202
H          -1.61501759       -0.69410359        0.21502202
H           1.61501759        0.69410359        0.21502202
H           1.61501759       -0.69410359       -0.21502202
6
MD Time 2330.00
C          -0.83053754       -0.00000000       -0.00000000
C           0.83053754        0.00000000       -0.00000000
H          -1.60661148        0.69599595       -0.20611884
H          -1.60661148       -0.69599595        0.20611884
H           1.60661148        0.69599595        0.20611884
H           1.60661148       -0.69599595       -0.20611884
6
MD Time 2340.00
C          -0.82952510       -0.00000000       -0.00000000
C           0.82952510        0.00000000       -0.00000000
H          -1.59802610        0.70043366       -0.19709412
H          -1.59802610       -0.70043366        0.19709412
H           1.59802610        0.70043366        0.19709412
H           1.59802610       -0.70043366       -0.19709412
6
MD Time 2350.00
C          -0.82809782       -0.00000000       -0.00000000
C           0.82809782        0.00000000       -0.00000000
H          -1.58933911        0.70742848       -0.18795835
H          -1.58933911       -0.70742848        0.18795835
H           1.58933911        0.70742848        0.18795835
H           1.58933911       -0.70742848       -0.18795835
6
MD Time 2360.00
C          -0.82625118       -0.00000000       -0.00000000
C           0.82625118        0.00000000       -0.00000000
H          -1.58059279        0.71693280       -0.17871536
H          -1.58059279       -0.71693280        0.17871536
H           1.58059279        0.71693280        0.17871536
H           1.58059279       -0.71693280       -0.17871536
6
MD Time 2370.00
C          -0.82398739       -0.00000000       -0.00000000
C           0.82398739        0.00000000       -0.00000000
H          -1.57179241        0.72883966       -0.16936355
H          -1.57179241       -0.72883966        0.16936355
H           1.57179241        0.72883966        0.16936355
H           1.57179241       -0.72883966       -0.16936355
6
MD Time 2380.00
C          -0.82131513       -0.00000000       -0.00000000
C           0.82131513        0.00000000       -0.00000000
H          -1.56290756        0.74298625       -0.15989759
H          -1.56290756       -0.74298625        0.15989759
H           1.56290756        0.74298625        0.15989759
H           1.56290756       -0.74298625       -0.15989759
6
MD Time 2390.00
C          -0.81824885       -0.00000000       -0.00000000
C           0.81824885        0.00000000       -0.00000000
H          -1.55387623        0.75916028       -0.15031016
H          -1.55387623       -0.75916028        0.15031016
H           1.55387623        0.75916028        0.15031016
H           1.55387623       -0.75916028       -0.15031016
6
MD Time 2400.00
C          -0.81480769       -0.00000000       -0.00000000
C           0.81480769        0.00000000       -0.00000000
H          -1.54461102        0.77710883       -0.14059372
H          -1.54461102       -0.77710883        0.14059372
H           1.54461102        0.77710883        0.14059372
H           1.54461102       -0.77710883       -0.14059372
6
MD Time 2410.00
C          -0.81101417       -0.00000000       -0.00000000
C           0.81101417        0.00000000       -0.00000000
H          -1.53500677        0.79654848       -0.13074204
H          -1.53500677       -0.79654848        0.13074204
H           1.53500677        0.79654848        0.13074204
H           1.53500677       -0.79654848       -0.13074204
6
MD Time 2420.00
C          -0.80689283       -0.00000000       -0.00000000
C           0.80689283        0.00000000       -0.00000000
H          -1.52494848        0.81717604       -0.12075137
H          -1.52494848       -0.81717604        0.12075137
H           1.52494848        0.81717604        0.12075137
H           1.52494848       -0.81717604       -0.12075137
6
MD Time 2430.00
C          -0.80246900       -0.00000000       -0.00000000
C           0.80246900        0.00000000       -0.00000000
H          -1.51431898        0.83867875       -0.11062127
H          -1.51431898       -0.83867875        0.11062127
H           1.51431898        0.83867875        0.11062127
H           1.51431898       -0.83867875       -0.11062127
6
MD Time 2440.00
C          -0.79776769       -0.00000000       -0.00000000
C           0.79776769        0.00000000       -0.00000000
H          -1.50300546        0.86074345       -0.10035509
H          -1.50300546       -0.86074345        0.10035509
H           1.50300546        0.86074345        0.10035509
H           1.50300546       -0.86074345       -0.10035509
6
MD Time 2450.00
C          -0.79281276       -0.00000000       -0.00000000
C           0.79281276        0.00000000       -0.00000000
H          -1.49090475        0.88306412       -0.08996010
H          -1.49090475       -0.88306412        0.08996010
H           1.49090475        0.88306412        0.08996010
H           1.49090475       -0.88306412       -0.08996010
6
MD Time 2460.00
C          -0.78762644       -0.00000000       -0.00000000
C           0.78762644        0.00000000       -0.00000000
H          -1.47792708        0.90534784       -0.07944745
H          -1.47792708       -0.90534784        0.07944745
H           1.47792708        0.90534784        0.07944745
H           1.47792708       -0.90534784       -0.07944744
6
MD Time 2470.00
C          -0.78222899       -0.00000000       -0.00000000
C           0.78222899        0.00000000       -0.00000000
H          -1.46399855        0.92731906       -0.06883187
H          -1.46399855       -0.92731906        0.06883187
H           1.46399855        0.92731906        0.06883187
H           1.46399855       -0.92731906       -0.06883187
6
MD Time 2480.00
C          -0.77663864       -0.00000000       -0.00000000
C           0.77663864        0.00000000       -0.00000000
H          -1.44906238        0.94872239       -0.05813138
H          -1.44906238       -0.94872239        0.05813138
H           1.44906238        0.94872239        0.05813138
H           1.44906238       -0.94872239       -0.05813138
6
MD Time 2490.00
C          -0.77087170       -0.00000000       -0.00000000
C           0.77087170        0.00000000       -0.00000000
H          -1.43307927        0.96932424       -0.04736680
H          -1.43307927       -0.96932424        0.04736680
H           1.43307927        0.96932424        0.04736680
H           1.43307927       -0.96932424       -0.04736680
6
MD Time 2500.00
C          -0.76494279       -0.00000000       -0.00000000
C           0.76494279        0.00000000       -0.00000000
H          -1.41602709        0.98891357       -0.03656139
H          -1.41602709       -0.98891357        0.03656139
H           1.41602709        0.98891357        0.03656139
H           1.41602709       -0.98891357       -0.03656139
6
MD Time 2510.00
C          -0.75886511       -0.00000000       -0.00000000
C           0.75886511        0.00000000       -0.00000000
H          -1.39790019        1.00730191       -0.02574034
H          -1.39790019       -1.00730191        0.02574034
H           1.39790019        1.00730191        0.02574034
H           1.39790019       -1.00730191       -0.02574034
6
MD Time 2520.00
C          -0.75265079       -0.00000000       -0.00000000
C           0.75265079        0.00000000       -0.00000000
H          -1.37870845        1.02432307       -0.01493041
H          -1.37870845       -1.02432307        0.01493041
H           1.37870845        1.02432307        0.01493041
H           1.37870845       -1.02432307       -0.01493041
6
MD Time 2530.00
C          -0.74631125       -0.00000000       -0.00000000
C           0.74631125        0.00000000       -0.00000000
H          -1.35847627        1.03983250       -0.00415949
H          -1.35847627       -1.03983250        0.00415949
H           1.35847627        1.03983250        0.00415949
H           1.35847627       -1.03983250       -0.00415949
6
MD Time 2540.00
C          -0.73985755       -0.00000000       -0.00000000
C           0.73985755        0.00000000       -0.00000000
H          -1.33724154        1.05370668        0.00654378
H          -1.33724154       -1.05370668       -0.00654378
H           1.33724154        1.05370668       -0.00654378
H           1.33724154       -1.05370668        0.00654378
6
MD Time 2550.00
C          -0.73330073       -0.00000000       -0.00000000
C           0.73330073        0.00000000       -0.00000000
H          -1.31505478        1.06584243        0.01715037
H          -1.31505478       -1.06584244       -0.01715037
H           1.31505478        1.06584244       -0.01715037
H           1.31505478       -1.06584243        0.01715037
6
MD Time 2560.00
C          -0.72665209       -0.00000000       -0.00000000
C           0.72665209        0.00000000       -0.00000000
H          -1.29197832        1.07615646        0.02763121
H          -1.29197832       -1.07615646       -0.02763121
H           1.29197832        1.07615646       -0.02763121
H           1.29197832       -1.07615646        0.02763121
6
MD Time 2570.00
C          -0.71992350       -0.00000000       -0.00000000
C           0.71992350        0.00000000       -0.00000000
H          -1.26808567        1.08458495        0.03795756
H          -1.26808567       -1.08458495       -0.03795756
H           1.26808567        1.08458495       -0.03795756
H           1.26808567       -1.08458495        0.03795756
6
MD Time 2580.00
C          -0.71312762       -0.00000000       -0.00000000
C           0.71312762        0.00000000       -0.00000000
H          -1.24346108        1.09108349        0.04810135
H          -1.24346108       -1.09108349       -0.04810135
H           1.24346108        1.09108349       -0.04810135
H           1.24346108       -1.09108349        0.04810135
6
MD Time 2590.00
C          -0.70627812       -0.00000000       -0.00000000
C           0.70627812        0.00000000       -0.00000000
H          -1.21819913        1.09562721        0.05803555
H          -1.21819913       -1.09562721       -0.05803555
H           1.21819913        1.09562721       -0.05803555
H           1.21819913       -1.09562721        0.05803555
6
MD Time 2600.00
C          -0.69938989       -0.00000000       -0.00000000
C           0.69938989        0.00000000       -0.00000000
H          -1.19240454        1.09821119        0.06773460
H          -1.19240454       -1.09821119       -0.06773460
H           1.19240454        1.09821119       -0.06773460
H           1.19240454       -1.09821119        0.06773460
6
MD Time 2610.00
C          -0.69247916       -0.00000000       -0.00000000
C           0.69247916        0.00000000       -0.00000000
H          -1.16619198        1.09885123        0.07717476
H          -1.16619198       -1.09885123       -0.07717476
H           1.16619198        1.09885123       -0.07717476
H           1.16619198       -1.09885123        0.07717476
6
MD Time 2620.00
C          -0.68556362       -0.00000000       -0.00000000
C           0.68556362        0.00000000        0.00000000
H          -1.13968605        1.09758482        0.08633469
H          -1.13968605       -1.09758482       -0.08633469
H           1.13968605        1.09758482       -0.08633469
H           1.13968605       -1.09758482        0.08633469
6
MD Time 2630.00
C          -0.67866258       -0.00000000       -0.00000000
C           0.67866258        0.00000000        0.00000000
H          -1.11302116        1.09447254        0.09519587
H          -1.11302116       -1.09447254       -0.09519587
H           1.11302116        1.09447254       -0.09519587
H           1.11302116       -1.09447254        0.09519587
6
MD Time 2640.00
C          -0.67179697       -0.00000000       -0.00000000
C           0.67179697        0.00000000        0.00000000
H          -1.08634144        1.08959964        0.10374325
H          -1.08634144       -1.08959964       -0.10374325
H           1.08634144        1.08959964       -0.10374325
H           1.08634144       -1.08959964        0.10374325
6
MD Time 2650.00
C          -0.66498946       -0.00000000       -0.00000000
C           0.66498946        0.00000000        0.00000000
H          -1.05980064        1.08307781        0.11196587
H          -1.05980064       -1.08307781       -0.11196587
H           1.05980064        1.08307781       -0.11196587
H           1.05980064       -1.08307781        0.11196587
6
MD Time 2660.00
C          -0.65826448       -0.00000000       -0.00000000
C           0.65826448        0.00000000        0.00000000
H          -1.03356179        1.07504722        0.11985751
H          -1.03356179       -1.07504722       -0.11985751
H           1.03356179        1.07504722       -0.11985751
H           1.03356179       -1.07504722        0.11985751
6
MD Time 2670.00
C          -0.65164823       -0.00000000       -0.00000000
C           0.65164823        0.00000000        0.00000000
H          -1.00779681        1.06567837        0.12741738
H          -1.00779681       -1.06567837       -0.12741738
H           1.00779681        1.06567837       -0.12741738
H           1.00779681       -1.06567837        0.12741738
6
MD Time 2680.00
C          -0.64516868       -0.00000000       -0.00000000
C           0.64516868        0.00000000        0.00000000
H          -0.98268573        1.05517377        0.13465084
H          -0.98268573       -1.05517377       -0.13465084
H           0.98268573        1.05517377       -0.13465084
H           0.98268573       -1.05517377        0.13465084
6
MD Time 2690.00
C          -0.63885558       -0.00000000       -0.00000000
C           0.63885558        0.00000000        0.00000000
H          -0.95841573        1.04376909        0.14156990
H          -0.95841573       -1.04376909       -0.14156990
H           0.95841573        1.04376909       -0.14156990
H           0.95841573       -1.04376909        0.14156990
6
MD Time 2700.00
C          -0.63274040       -0.00000000       -0.00000000
C           0.63274040        0.00000000        0.00000000
H          -0.93517960        1.03173319        0.14819374
H          -0.93517960       -1.03173319       -0.14819374
H           0.93517960        1.03173319       -0.14819374
H           0.93517960       -1.03173319        0.14819374
6
MD Time 2710.00
C          -0.62685625       -0.00000000       -0.00000000
C           0.62685625        0.00000000        0.00000000
H          -0.91317391        1.01936671        0.15454874
H          -0.91317391       -1.01936671       -0.15454874
H           0.91317391        1.01936671       -0.15454874
H           0.91317391       -1.01936671        0.15454874
6
MD Time 2720.00
C          -0.62123779       -0.00000000       -0.00000000
C           0.62123779        0.00000000        0.00000000
H          -0.89259638        1.00699838        0.16066828
H          -0.89259638       -1.00699838       -0.16066828
H           0.89259638        1.00699838       -0.16066828
H           0.89259638       -1.00699838        0.16066828
6
MD Time 2730.00
C          -0.61592107       -0.00000000       -0.00000000
C           0.61592107        0.00000000        0.00000000
H          -0.87364287        0.99497851        0.16659182
H          -0.87364287       -0.99497851       -0.16659182
H           0.87364287        0.99497851       -0.16659182
H           0.87364287       -0.99497851        0.16659182
6
MD Time 2740.00
C          -0.61094327       -0.00000000       -0.00000000
C           0.61094327        0.00000000        0.00000000
H          -0.85650355        0.98366908        0.17236338
H          -0.85650355       -0.98366908       -0.17236338
H           0.85650355        0.98366908       -0.17236338
H           0.85650355       -0.98366908        0.17236338
6
MD Time 2750.00
C          -0.60634245       -0.00000000        0.00000000
C           0.60634245        0.00000000        0.00000000
H          -0.84135865        0.97343015        0.17802919
H          -0.84135865       -0.97343015       -0.17802919
H           0.84135865        0.97343015       -0.17802919
H           0.84135865       -0.97343015        0.17802919
6
MD Time 2760.00
C          -0.60215711       -0.00000000        0.00000000
C           0.60215711        0.00000000        0.00000000
H          -0.82837368        0.96460310        0.18363451
H          -0.82837368       -0.96460310       -0.18363451
H           0.82837368        0.96460310       -0.18363451
H           0.82837368       -0.96460310        0.18363451
6
MD Time 2770.00
C          -0.59842571       -0.00000000        0.00000000
C           0.59842571        0.00000000        0.00000000
H          -0.81769447        0.95749149        0.18921991
H          -0.81769447       -0.95749149       -0.18921991
H           0.81769447        0.95749149       -0.18921991
H           0.81769447       -0.95749149        0.18921991
6
MD Time 2780.00
C          -0.59518602       -0.00000000        0.00000000
C           0.59518602        0.00000000        0.00000000
H          -0.80944228        0.95234154        0.19481716
H          -0.80944228       -0.95234154       -0.19481716
H           0.80944228        0.95234154       -0.19481716
H           0.80944228       -0.95234154        0.19481716
6
MD Time 2790.00
C          -0.59247439       -0.00000000        0.00000000
C           0.59247439        0.00000000        0.00000000
H          -0.80370935        0.94932459        0.20044524
H          -0.80370935       -0.94932459       -0.20044524
H           0.80370935        0.94932459       -0.20044524
H           0.80370935       -0.94932459        0.20044524
6
MD Time 2800.00
C          -0.59032484       -0.00000000        0.00000000
C           0.59032484        0.00000000        0.00000000
H          -0.80055533        0.94852411        0.20610716
H          -0.80055533       -0.94852411       -0.20610716
H           0.80055533        0.94852411       -0.20610716
H           0.80055533       -0.94852411        0.20610716
6
MD Time 2810.00
C          -0.58876815       -0.00000000        0.00000000
C           0.58876815        0.00000000        0.00000000
H          -0.80000491        0.94992929        0.21178787
H          -0.80000491       -0.94992929       -0.21178787
H           0.80000491        0.94992929       -0.21178787
H           0.80000491       -0.94992929        0.21178787
6
MD Time 2820.00
C          -0.58783079       -0.00000000        0.00000000
C           0.58783079        0.00000000        0.00000000
H          -0.80204689        0.95343642        0.21745388
H          -0.80204689       -0.95343642       -0.21745388
H           0.80204689        0.95343642       -0.21745388
H           0.80204689       -0.95343642        0.21745388
6
MD Time 2830.00
C          -0.58753398       -0.00000000        0.00000000
C           0.58753398        0.00000000        0.00000000
H          -0.80663481        0.95885775        0.22305447
H          -0.80663481       -0.95885775       -0.22305447
H           0.80663481        0.95885775       -0.22305447
H           0.80663481       -0.95885775        0.22305447
6
MD Time 2840.00
C          -0.58789282        0.00000000        0.00000000
C           0.58789282        0.00000000        0.00000000
H          -0.81368911        0.96593639        0.22852444
H          -0.81368911       -0.96593639       -0.22852444
H           0.81368911        0.96593639       -0.22852444
H           0.81368911       -0.96593639        0.22852444
6
MD Time 2850.00
C          -0.58891558        0.00000000        0.00000000
C           0.58891558       -0.00000000        0.00000000
H          -0.82310054        0.97436476        0.23378790
H          -0.82310054       -0.97436476       -0.23378790
H           0.82310054        0.97436476       -0.23378790
H           0.82310054       -0.97436476        0.23378790
6
MD Time 2860.00
C          -0.59060326        0.00000000        0.00000000
C           0.59060326       -0.00000000        0.00000000
H          -0.83473454        0.98380427        0.23876254
H          -0.83473454       -0.98380427       -0.23876254
H           0.83473454        0.98380427       -0.23876254
H           0.83473454       -0.98380427        0.23876254
6
MD Time 2870.00
C          -0.59294938        0.00000000        0.00000000
C           0.59294938       -0.00000000        0.00000000
H          -0.84843613        0.99390383        0.24336395
H          -0.84843613       -0.99390383       -0.24336395
H           0.84843613        0.99390383       -0.24336395
H           0.84843613       -0.99390383        0.24336395
6
MD Time 2880.00
C          -0.59594010        0.00000000        0.00000000
C           0.59594010       -0.00000000        0.00000000
H          -0.86403506        1.00431557        0.24750944
H          -0.86403506       -1.00431557       -0.24750944
H           0.86403506        1.00431557       -0.24750944
H           0.86403506       -1.00431557        0.24750944
6
MD Time 2890.00
C          -0.59955456        0.00000000        0.00000000
C           0.59955456       -0.00000000        0.00000000
H          -0.88135076        1.01470722        0.25112121
H          -0.88135076       -1.01470722       -0.25112121
H           0.88135076        1.01470722       -0.25112121
H           0.88135076       -1.01470722        0.25112121
6
MD Time 2900.00
C          -0.60376548        0.00000000        0.00000000
C           0.60376548       -0.00000000        0.00000000
H          -0.90019688        1.02477078        0.25412876
H          -0.90019688       -1.02477078       -0.25412876
H           0.90019688        1.02477078       -0.25412876
H           0.90019688       -1.02477078        0.25412876
6
MD Time 2910.00
C          -0.60853996        0.00000000        0.00000000
C           0.60853996       -0.00000000        0.00000000
H          -0.92038530        1.03422795        0.25647042
H          -0.92038530       -1.03422795       -0.25647042
H           0.92038530        1.03422795       -0.25647042
H           0.92038530       -1.03422795        0.25647042
6
MD Time 2920.00
C          -0.61384038        0.00000000        0.00000000
C           0.61384038       -0.00000000        0.00000000
H          -0.94172942        1.04283290        0.25809429
H          -0.94172942       -1.04283290       -0.25809429
H           0.94172942        1.04283290       -0.25809429
H           0.94172942       -1.04283290        0.25809429
6
MD Time 2930.00
C          -0.61962542        0.00000000        0.00000000
C           0.61962542       -0.00000000        0.00000000
H          -0.96404680        1.05037302        0.25895857
H          -0.96404680       -1.05037302       -0.25895857
H           0.96404680        1.05037302       -0.25895857
H           0.96404680       -1.05037302        0.25895857
6
MD Time 2940.00
C          -0.62585103        0.00000000        0.00000000
C           0.62585103       -0.00000000        0.00000000
H          -0.98716111        1.05666835        0.25903151
H          -0.98716111       -1.05666835       -0.25903151
H           0.98716111        1.05666835       -0.25903151
H           0.98716111       -1.05666835        0.25903151
6
MD Time 2950.00
C          -0.63247150        0.00000000        0.00000000
C           0.63247150       -0.00000000        0.00000000
H          -1.01090357        1.06157015        0.25829101
H          -1.01090357       -1.06157015       -0.25829101
H           1.01090357        1.06157015       -0.25829101
H           1.01090357       -1.06157015        0.25829101
6
MD Time 2960.00
C          -0.63944034        0.00000000        0.00000000
C           0.63944034       -0.00000000        0.00000000
H          -1.03511391        1.06495909        0.25672409
H          -1.03511391       -1.06495909       -0.25672409
H           1.03511391        1.06495909       -0.25672409
H           1.03511391       -1.06495909        0.25672409
6
MD Time 2970.00
C          -0.64671116        0.00000000        0.00000000
C           0.64671116       -0.00000000        0.00000000
H          -1.05964095        1.06674331        0.25432629
H          -1.05964095       -1.06674331       -0.25432629
H           1.05964095        1.06674331       -0.25432629
H           1.05964095       -1.06674331        0.25432629
6
MD Time 2980.00
C          -0.65423836        0.00000000        0.00000000
C           0.65423836       -0.00000000        0.00000000
H          -1.08434302        1.06685656        0.25110096
H          -1.08434302       -1.06685656       -0.25110096
H           1.08434302        1.06685656       -0.25110096
H           1.08434302       -1.06685656        0.25110096
6
MD Time 2990.00
C          -0.66197771        0.00000000        0.00000000
C           0.66197771       -0.00000000       -0.00000000
H          -1.10908812        1.06525664        0.24705867
H          -1.10908812       -1.06525664       -0.24705867
H           1.10908812        1.06525664       -0.24705867
H           1.10908812       -1.06525664        0.24705867
