6
MD Time 0.00
C          -1.00425000        0.00000000        0.00000000
C           1.00425000        0.00000000        0.00000000
H          -1.57974232        0.85087479        0.35244388
H          -1.57974232       -0.85087479       -0.35244388
H           1.57974232        0.85087479       -0.35244388
H           1.57974232       -0.85087479        0.35244388
6
MD Time 10.00
C          -1.00408635        0.00000000        0.00000000
C           1.00408635        0.00000000       -0.00000000
H          -1.57955903        0.85103228        0.35230341
H          -1.57955903       -0.85103228       -0.35230341
H           1.57955903        0.85103228       -0.35230341
H           1.57955903       -0.85103228        0.35230341
6
MD Time 20.00
C          -1.00359537       -0.00000000        0.00000000
C           1.00359537        0.00000000       -0.00000000
H          -1.57900876        0.85150329        0.35188141
H          -1.57900876       -0.85150329       -0.35188141
H           1.57900876        0.85150329       -0.35188141
H           1.57900876       -0.85150329        0.35188141
6
MD Time 30.00
C          -1.00277699       -0.00000000        0.00000000
C           1.00277699        0.00000000       -0.00000000
H          -1.57809037        0.85228348        0.35117611
H          -1.57809037       -0.85228348       -0.35117611
H           1.57809037        0.85228348       -0.35117611
H           1.57809037       -0.85228348        0.35117611
6
MD Time 40.00
C          -1.00163104       -0.00000000        0.00000000
C           1.00163108        0.00000000       -0.00000000
H          -1.57680215        0.85336573        0.35018465
H          -1.57680215       -0.85336573       -0.35018465
H           1.57680190        0.85336561       -0.35018454
H           1.57680190       -0.85336561        0.35018454
6
MD Time 50.00
C          -1.00015732       -0.00000000        0.00000000
C           1.00015740        0.00000000       -0.00000000
H          -1.57514147        0.85474012        0.34890297
H          -1.57514147       -0.85474012       -0.34890297
H           1.57514097        0.85473987       -0.34890275
H           1.57514097       -0.85473987        0.34890275
6
MD Time 60.00
C          -0.99835556       -0.00000000        0.00000000
C           0.99835566        0.00000000       -0.00000000
H          -1.57310521        0.85639419        0.34732609
H          -1.57310521       -0.85639419       -0.34732609
H           1.57310461        0.85639391       -0.34732583
H           1.57310461       -0.85639391        0.34732583
6
MD Time 70.00
C          -0.99622533       -0.00000000        0.00000000
C           0.99622545        0.00000000        0.00000000
H          -1.57068994        0.85831322        0.34544820
H          -1.57068994       -0.85831322       -0.34544820
H           1.57068926        0.85831291       -0.34544790
H           1.57068926       -0.85831291        0.34544790
6
MD Time 80.00
C          -0.99376613       -0.00000000        0.00000000
C           0.99376626        0.00000000        0.00000000
H          -1.56789187        0.86048035        0.34326276
H          -1.56789187       -0.86048035       -0.34326276
H           1.56789110        0.86048002       -0.34326242
H           1.56789110       -0.86048002        0.34326242
6
MD Time 90.00
C          -0.99097729       -0.00000000        0.00000000
C           0.99097743        0.00000000        0.00000000
H          -1.56470701        0.86287683        0.34076260
H          -1.56470701       -0.86287683       -0.34076260
H           1.56470618        0.86287649       -0.34076224
H           1.56470618       -0.86287649        0.34076224
6
MD Time 100.00
C          -0.98785798       -0.00000000        0.00000000
C           0.98785813        0.00000000        0.00000000
H          -1.56113137        0.86548236        0.33794017
H          -1.56113137       -0.86548236       -0.33794017
H           1.56113049        0.86548204       -0.33793979
H           1.56113049       -0.86548204        0.33793979
6
MD Time 110.00
C          -0.98440720       -0.00000000        0.00000000
C           0.98440735        0.00000000        0.00000000
H          -1.55716110        0.86827533        0.33478760
H          -1.55716110       -0.86827533       -0.33478760
H           1.55716018        0.86827505       -0.33478721
H           1.55716018       -0.86827505        0.33478721
6
MD Time 120.00
C          -0.98062374       -0.00000000        0.00000000
C           0.98062390        0.00000000        0.00000000
H          -1.55279264        0.87123318        0.33129697
H          -1.55279264       -0.87123318       -0.33129697
H           1.55279167        0.87123292       -0.33129656
H           1.55279167       -0.87123292        0.33129656
6
MD Time 130.00
C          -0.97650616       -0.00000000        0.00000000
C           0.97650633        0.00000000        0.00000000
H          -1.54802286        0.87433260        0.32746037
H          -1.54802286       -0.87433260       -0.32746037
H           1.54802185        0.87433239       -0.32745995
H           1.54802185       -0.87433239        0.32745995
6
MD Time 140.00
C          -0.97205280       -0.00000000        0.00000000
C           0.97205298        0.00000000        0.00000000
H          -1.54284925        0.87754994        0.32327013
H          -1.54284925       -0.87754994       -0.32327013
H           1.54284819        0.87754976       -0.32326969
H           1.54284819       -0.87754976        0.32326969
6
MD Time 150.00
C          -0.96726174       -0.00000000        0.00000000
C           0.96726192        0.00000000        0.00000000
H          -1.53726999        0.88086138        0.31871893
H          -1.53726999       -0.88086138       -0.31871893
H           1.53726889        0.88086126       -0.31871848
H           1.53726889       -0.88086126        0.31871848
6
MD Time 160.00
C          -0.96213080       -0.00000000        0.00000000
C           0.96213099        0.00000000        0.00000000
H          -1.53128416        0.88424329        0.31379994
H          -1.53128416       -0.88424329       -0.31379994
H           1.53128303        0.88424324       -0.31379948
H           1.53128303       -0.88424324        0.31379948
6
MD Time 170.00
C          -0.95665758       -0.00000000        0.00000000
C           0.95665775       -0.00000000        0.00000000
H          -1.52489172        0.88767242        0.30850695
H          -1.52489172       -0.88767242       -0.30850695
H           1.52489067        0.88767251       -0.30850653
H           1.52489067       -0.88767251        0.30850653
6
MD Time 180.00
C          -0.95083935       -0.00000000        0.00000000
C           0.95083951       -0.00000000        0.00000000
H          -1.51809381        0.89112621        0.30283452
H          -1.51809381       -0.89112621       -0.30283452
H           1.51809285        0.89112646       -0.30283415
H           1.51809285       -0.89112646        0.30283415
6
MD Time 190.00
C          -0.94467321       -0.00000000        0.00000000
C           0.94467334       -0.00000000        0.00000000
H          -1.51089261        0.89458289        0.29677801
H          -1.51089261       -0.89458289       -0.29677801
H           1.51089185        0.89458335       -0.29677773
H           1.51089185       -0.89458335        0.29677773
6
MD Time 200.00
C          -0.93815598       -0.00000000        0.00000000
C           0.93815608       -0.00000000        0.00000000
H          -1.50329160        0.89802174        0.29033375
H          -1.50329160       -0.89802174       -0.29033375
H           1.50329105        0.89802242       -0.29033356
H           1.50329105       -0.89802242        0.29033356
6
MD Time 210.00
C          -0.93128431       -0.00000000        0.00000000
C           0.93128434       -0.00000000        0.00000000
H          -1.49529539        0.90142315        0.28349898
H          -1.49529539       -0.90142315       -0.28349898
H           1.49529518        0.90142414       -0.28349894
H           1.49529518       -0.90142414        0.28349894
6
MD Time 220.00
C          -0.92405464       -0.00000000        0.00000000
C           0.92405462       -0.00000000        0.00000000
H          -1.48691000        0.90476889        0.27627207
H          -1.48691000       -0.90476889       -0.27627207
H           1.48691012        0.90477017       -0.27627219
H           1.48691012       -0.90477017        0.27627219
6
MD Time 230.00
C          -0.91646335       -0.00000000        0.00000000
C           0.91646325       -0.00000000        0.00000000
H          -1.47814260        0.90804198        0.26865242
H          -1.47814260       -0.90804198       -0.26865242
H           1.47814319        0.90804363       -0.26865275
H           1.47814319       -0.90804363        0.26865275
6
MD Time 240.00
C          -0.90850670       -0.00000000        0.00000000
C           0.90850652       -0.00000000        0.00000000
H          -1.46900176        0.91122694        0.26064061
H          -1.46900176       -0.91122694       -0.26064061
H           1.46900280        0.91122894       -0.26064113
H           1.46900280       -0.91122894        0.26064113
6
MD Time 250.00
C          -0.90018099       -0.00000000        0.00000000
C           0.90018071       -0.00000000        0.00000000
H          -1.45949717        0.91430967        0.25223830
H          -1.45949717       -0.91430967       -0.25223830
H           1.45949879        0.91431208       -0.25223908
H           1.45949879       -0.91431208        0.25223908
6
MD Time 260.00
C          -0.89148260       -0.00000000        0.00000000
C           0.89148223       -0.00000000        0.00000000
H          -1.44963988        0.91727756        0.24344839
H          -1.44963988       -0.91727756       -0.24344839
H           1.44964204        0.91728033       -0.24344940
H           1.44964204       -0.91728033        0.24344940
6
MD Time 270.00
C          -0.88240814       -0.00000000        0.00000000
C           0.88240767       -0.00000000        0.00000000
H          -1.43944196        0.92011931        0.23427488
H          -1.43944196       -0.92011931       -0.23427488
H           1.43944476        0.92012248       -0.23427617
H           1.43944476       -0.92012248        0.23427617
6
MD Time 280.00
C          -0.87295453       -0.00000000        0.00000000
C           0.87295396       -0.00000000        0.00000000
H          -1.42891670        0.92282502        0.22472301
H          -1.42891670       -0.92282502       -0.22472301
H           1.42892008        0.92282852       -0.22472456
H           1.42892008       -0.92282852        0.22472456
6
MD Time 290.00
C          -0.86311920       -0.00000000        0.00000000
C           0.86311853       -0.00000000        0.00000000
H          -1.41807828        0.92538593        0.21479919
H          -1.41807828       -0.92538593       -0.21479919
H           1.41808230        0.92538975       -0.21480102
H           1.41808230       -0.92538975        0.21480102
6
MD Time 300.00
C          -0.85290023       -0.00000000        0.00000000
C           0.85289946       -0.00000000        0.00000000
H          -1.40694193        0.92779445        0.20451102
H          -1.40694193       -0.92779445       -0.20451102
H           1.40694653        0.92779849       -0.20451311
H           1.40694653       -0.92779849        0.20451311
6
MD Time 310.00
C          -0.84229659       -0.00000000        0.00000000
C           0.84229573       -0.00000000        0.00000000
H          -1.39552361        0.93004387        0.19386732
H          -1.39552361       -0.93004387       -0.19386732
H           1.39552878        0.93004809       -0.19386968
H           1.39552878       -0.93004809        0.19386968
6
MD Time 320.00
C          -0.83130842       -0.00000000        0.00000000
C           0.83130747       -0.00000000        0.00000000
H          -1.38384007        0.93212834        0.18287815
H          -1.38384007       -0.93212834       -0.18287815
H           1.38384575        0.93213264       -0.18288075
H           1.38384575       -0.93213264        0.18288075
6
MD Time 330.00
C          -0.81993727       -0.00000000        0.00000000
C           0.81993624       -0.00000000        0.00000000
H          -1.37190867        0.93404260        0.17155482
H          -1.37190867       -0.93404260       -0.17155482
H           1.37191480        0.93404688       -0.17155764
H           1.37191480       -0.93404688        0.17155764
6
MD Time 340.00
C          -0.80818652       -0.00000000        0.00000000
C           0.80818543       -0.00000000        0.00000000
H          -1.35974728        0.93578185        0.15990994
H          -1.35974728       -0.93578185       -0.15990994
H           1.35975379        0.93578600       -0.15991297
H           1.35975379       -0.93578600        0.15991297
6
MD Time 350.00
C          -0.79606177       -0.00000000        0.00000000
C           0.79606063       -0.00000000        0.00000000
H          -1.34737422        0.93734157        0.14795748
H          -1.34737422       -0.93734157       -0.14795748
H           1.34738102        0.93734547       -0.14796070
H           1.34738102       -0.93734547        0.14796070
6
MD Time 360.00
C          -0.78357134       -0.00000000        0.00000000
C           0.78357017       -0.00000000        0.00000000
H          -1.33480816        0.93871736        0.13571283
H          -1.33480816       -0.93871736       -0.13571283
H           1.33481513        0.93872085       -0.13571621
H           1.33481513       -0.93872085        0.13571621
6
MD Time 370.00
C          -0.77072682       -0.00000000        0.00000000
C           0.77072564       -0.00000000       -0.00000000
H          -1.32206799        0.93990476        0.12319286
H          -1.32206799       -0.93990476       -0.12319286
H           1.32207505        0.93990773       -0.12319639
H           1.32207505       -0.93990773        0.12319639
6
MD Time 380.00
C          -0.75754382       -0.00000000        0.00000000
C           0.75754263       -0.00000000       -0.00000000
H          -1.30917287        0.94089918        0.11041606
H          -1.30917287       -0.94089918       -0.11041606
H           1.30917993        0.94090152       -0.11041970
H           1.30917993       -0.94090152        0.11041970
6
MD Time 390.00
C          -0.74404264       -0.00000000        0.00000000
C           0.74404146       -0.00000000       -0.00000000
H          -1.29614210        0.94169578        0.09740255
H          -1.29614210       -0.94169578       -0.09740255
H           1.29614914        0.94169747       -0.09740633
H           1.29614914       -0.94169747        0.09740633
6
MD Time 400.00
C          -0.73024928       -0.00000000        0.00000000
C           0.73024811       -0.00000000       -0.00000000
H          -1.28299529        0.94228955        0.08417428
H          -1.28299529       -0.94228955       -0.08417428
H           1.28300224        0.94229050       -0.08417818
H           1.28300224       -0.94229050        0.08417818
6
MD Time 410.00
C          -0.71619636       -0.00000000        0.00000000
C           0.71619522       -0.00000000       -0.00000000
H          -1.26975228        0.94267522        0.07075508
H          -1.26975228       -0.94267522       -0.07075508
H           1.26975908        0.94267535       -0.07075910
H           1.26975908       -0.94267535        0.07075910
6
MD Time 420.00
C          -0.70192440       -0.00000000        0.00000000
C           0.70192329       -0.00000000       -0.00000000
H          -1.25643331        0.94284740        0.05717076
H          -1.25643331       -0.94284740       -0.05717076
H           1.25643992        0.94284670       -0.05717490
H           1.25643992       -0.94284670        0.05717490
6
MD Time 430.00
C          -0.68748301       -0.00000000        0.00000000
C           0.68748194       -0.00000000       -0.00000000
H          -1.24305923        0.94280080        0.04344920
H          -1.24305923       -0.94280080       -0.04344920
H           1.24306556        0.94279919       -0.04345345
H           1.24306556       -0.94279919        0.04345345
6
MD Time 440.00
C          -0.67293235       -0.00000000        0.00000000
C           0.67293133       -0.00000000       -0.00000000
H          -1.22965164        0.94253038        0.02962038
H          -1.22965164       -0.94253038       -0.02962038
H           1.22965769        0.94252788       -0.02962474
H           1.22965769       -0.94252788        0.02962474
6
MD Time 450.00
C          -0.65834460       -0.00000000        0.00000000
C           0.65834364       -0.00000000       -0.00000000
H          -1.21623336        0.94203184        0.01571641
H          -1.21623336       -0.94203184       -0.01571641
H           1.21623905        0.94202840       -0.01572087
H           1.21623905       -0.94202840        0.01572087
6
MD Time 460.00
C          -0.64380543       -0.00000000        0.00000000
C           0.64380454       -0.00000000       -0.00000000
H          -1.20282867        0.94130186        0.00177150
H          -1.20282867       -0.94130186       -0.00177150
H           1.20283399        0.94129753       -0.00177607
H           1.20283399       -0.94129753        0.00177607
6
MD Time 470.00
C          -0.62941542       -0.00000000        0.00000000
C           0.62941459       -0.00000000       -0.00000000
H          -1.18946391        0.94033881       -0.01217814
H          -1.18946391       -0.94033881        0.01217814
H           1.18946883        0.94033358        0.01217347
H           1.18946883       -0.94033358       -0.01217347
6
MD Time 480.00
C          -0.61529114       -0.00000000        0.00000000
C           0.61529038       -0.00000000       -0.00000000
H          -1.17616795        0.93914318       -0.02609449
H          -1.17616795       -0.93914318        0.02609449
H           1.17617247        0.93913713        0.02608971
H           1.17617247       -0.93913713       -0.02608971
6
MD Time 490.00
C          -0.60156583       -0.00000000        0.00000000
C           0.60156515       -0.00000000       -0.00000000
H          -1.16297287        0.93771836       -0.03993790
H          -1.16297287       -0.93771836        0.03993790
H           1.16297696        0.93771153        0.03993302
H           1.16297696       -0.93771153       -0.03993302
6
MD Time 500.00
C          -0.58838931       -0.00000000        0.00000000
C           0.58838869       -0.00000000       -0.00000000
H          -1.14991452        0.93607134       -0.05366748
H          -1.14991452       -0.93607134        0.05366748
H           1.14991821        0.93606382        0.05366251
H           1.14991821       -0.93606382       -0.05366251
6
MD Time 510.00
C          -0.57592673       -0.00000000        0.00000000
C           0.57592618       -0.00000000       -0.00000000
H          -1.13703328        0.93421352       -0.06724149
H          -1.13703328       -0.93421352        0.06724149
H           1.13703658        0.93420540        0.06723643
H           1.13703658       -0.93420540       -0.06723643
6
MD Time 520.00
C          -0.56435600       -0.00000000        0.00000000
C           0.56435551       -0.00000000       -0.00000000
H          -1.12437460        0.93216156       -0.08061785
H          -1.12437460       -0.93216156        0.08061785
H           1.12437754        0.93215295        0.08061270
H           1.12437754       -0.93215295       -0.08061270
6
MD Time 530.00
C          -0.55386333       -0.00000000        0.00000000
C           0.55386289       -0.00000000       -0.00000000
H          -1.11198963        0.92993827       -0.09375468
H          -1.11198963       -0.92993827        0.09375468
H           1.11199223        0.92992928        0.09374946
H           1.11199223       -0.92992928       -0.09374946
6
MD Time 540.00
C          -0.54463695       -0.00000000        0.00000000
C           0.54463656       -0.00000000       -0.00000000
H          -1.09993558        0.92757347       -0.10661099
H          -1.09993558       -0.92757347        0.10661099
H           1.09993788        0.92756422        0.10660570
H           1.09993788       -0.92756422       -0.10660570
6
MD Time 550.00
C          -0.53685881       -0.00000000        0.00000000
C           0.53685847       -0.00000000       -0.00000000
H          -1.08827602        0.92510484       -0.11914731
H          -1.08827602       -0.92510484        0.11914731
H           1.08827805        0.92509547        0.11914198
H           1.08827805       -0.92509547       -0.11914198
6
MD Time 560.00
C          -0.53069486       -0.00000000        0.00000000
C           0.53069455       -0.00000000       -0.00000000
H          -1.07708083        0.92257866       -0.13132645
H          -1.07708083       -0.92257866        0.13132645
H           1.07708265        0.92256932        0.13132108
H           1.07708265       -0.92256932       -0.13132108
6
MD Time 570.00
C          -0.52628456       -0.00000000        0.00000000
C           0.52628428       -0.00000000       -0.00000000
H          -1.06642598        0.92005042       -0.14311419
H          -1.06642598       -0.92005042        0.14311419
H           1.06642763        0.92004124        0.14310880
H           1.06642763       -0.92004124       -0.14310880
6
MD Time 580.00
C          -0.52373093       -0.00000000        0.00000000
C           0.52373067       -0.00000000        0.00000000
H          -1.05639289        0.91758503       -0.15447997
H          -1.05639289       -0.91758503        0.15447997
H           1.05639443        0.91757616        0.15447458
H           1.05639443       -0.91757616       -0.15447458
6
MD Time 590.00
C          -0.52309235       -0.00000000        0.00000000
C           0.52309210       -0.00000000        0.00000000
H          -1.04706746        0.91525679       -0.16539756
H          -1.04706746       -0.91525679        0.16539756
H           1.04706894        0.91524837        0.16539219
H           1.04706894       -0.91524837       -0.16539219
6
MD Time 600.00
C          -0.52437757       -0.00000000        0.00000000
C           0.52437733       -0.00000000        0.00000000
H          -1.03853876        0.91314862       -0.17584561
H          -1.03853876       -0.91314862        0.17584561
H           1.03854023        0.91314080        0.17584027
H           1.03854023       -0.91314080       -0.17584027
6
MD Time 610.00
C          -0.52754469       -0.00000000        0.00000000
C           0.52754444       -0.00000000        0.00000000
H          -1.03089722        0.91135071       -0.18580807
H          -1.03089722       -0.91135071        0.18580807
H           1.03089874        0.91134362        0.18580279
H           1.03089874       -0.91134362       -0.18580279
6
MD Time 620.00
C          -0.53250429       -0.00000000        0.00000000
C           0.53250402       -0.00000000        0.00000000
H          -1.02423256        0.90995828       -0.19527438
H          -1.02423256       -0.90995828        0.19527438
H           1.02423417        0.90995204        0.19526918
H           1.02423417       -0.90995204       -0.19526918
6
MD Time 630.00
C          -0.53912631       -0.00000000        0.00000000
C           0.53912601       -0.00000000        0.00000000
H          -1.01863123        0.90906849       -0.20423944
H          -1.01863123       -0.90906849        0.20423944
H           1.01863298        0.90906323        0.20423432
H           1.01863298       -0.90906323       -0.20423432
6
MD Time 640.00
C          -0.54724942       -0.00000000        0.00000000
C           0.54724909       -0.00000000        0.00000000
H          -1.01417373        0.90877654       -0.21270314
H          -1.01417373       -0.90877654        0.21270314
H           1.01417565        0.90877236        0.21269813
H           1.01417565       -0.90877236       -0.21269813
6
MD Time 650.00
C          -0.55669170       -0.00000000        0.00000000
C           0.55669135       -0.00000000        0.00000000
H          -1.01093176        0.90917109       -0.22066962
H          -1.01093176       -0.90917109        0.22066962
H           1.01093388        0.90916806        0.22066475
H           1.01093388       -0.90916806       -0.22066475
6
MD Time 660.00
C          -0.56726115       -0.00000000        0.00000000
C           0.56726076       -0.00000000        0.00000000
H          -1.00896550        0.91032928       -0.22814612
H          -1.00896550       -0.91032928        0.22814612
H           1.00896783        0.91032747        0.22814138
H           1.00896783       -0.91032747       -0.22814138
6
MD Time 670.00
C          -0.57876496       -0.00000000        0.00000000
C           0.57876453       -0.00000000        0.00000000
H          -1.00832124        0.91231179       -0.23514149
H          -1.00832124       -0.91231179        0.23514149
H           1.00832379        0.91231123        0.23513689
H           1.00832379       -0.91231123       -0.23513689
6
MD Time 680.00
C          -0.59101713       -0.00000000        0.00000000
C           0.59101667       -0.00000000        0.00000000
H          -1.00902959        0.91515835       -0.24166467
H          -1.00902959       -0.91515835        0.24166467
H           1.00903235        0.91515905        0.24166020
H           1.00903235       -0.91515905       -0.24166020
6
MD Time 690.00
C          -0.60384391       -0.00000000        0.00000000
C           0.60384341       -0.00000000        0.00000000
H          -1.01110438        0.91888414       -0.24772302
H          -1.01110438       -0.91888414        0.24772302
H           1.01110732        0.91888608        0.24771868
H           1.01110732       -0.91888608       -0.24771868
6
MD Time 700.00
C          -0.61708728       -0.00000000        0.00000000
C           0.61708676       -0.00000000        0.00000000
H          -1.01454241        0.92347747       -0.25332102
H          -1.01454241       -0.92347747        0.25332102
H           1.01454551        0.92348061        0.25331678
H           1.01454551       -0.92348061       -0.25331678
6
MD Time 710.00
C          -0.63060678       -0.00000000        0.00000000
C           0.63060624       -0.00000000        0.00000000
H          -1.01932405        0.92889899       -0.25845912
H          -1.01932405       -0.92889899        0.25845912
H           1.01932727        0.92890325        0.25845498
H           1.01932727       -0.92890325       -0.25845498
6
MD Time 720.00
C          -0.64427990       -0.00000000        0.00000000
C           0.64427934       -0.00000000        0.00000000
H          -1.02541449        0.93508246       -0.26313325
H          -1.02541449       -0.93508246        0.26313325
H           1.02541778        0.93508775        0.26312916
H           1.02541778       -0.93508775       -0.26312916
6
MD Time 730.00
C          -0.65800151       -0.00000000        0.00000000
C           0.65800095       -0.00000000        0.00000000
H          -1.03276558        0.94193697       -0.26733459
H          -1.03276558       -0.94193697        0.26733459
H           1.03276889        0.94194317        0.26733053
H           1.03276889       -0.94194317       -0.26733053
6
MD Time 740.00
C          -0.67168267       -0.00000000        0.00000000
C           0.67168212       -0.00000000        0.00000000
H          -1.04131798        0.94935040       -0.27105001
H          -1.04131798       -0.94935040        0.27105001
H           1.04132124        0.94935738        0.27104595
H           1.04132124       -0.94935738       -0.27104595
6
MD Time 750.00
C          -0.68524906       -0.00000000        0.00000000
C           0.68524854       -0.00000000        0.00000000
H          -1.05100348        0.95719371       -0.27426274
H          -1.05100348       -0.95719371        0.27426274
H           1.05100663        0.95720134        0.27425863
H           1.05100663       -0.95720134       -0.27425863
6
MD Time 760.00
C          -0.69863925       -0.00000000        0.00000000
C           0.69863875       -0.00000000        0.00000000
H          -1.06174728        0.96532567       -0.27695333
H          -1.06174728       -0.96532567        0.27695333
H           1.06175026        0.96533379        0.27694914
H           1.06175026       -0.96533379       -0.27694914
6
MD Time 770.00
C          -0.71180297       -0.00000000        0.00000000
C           0.71180251        0.00000000        0.00000000
H          -1.07347007        0.97359765       -0.27910082
H          -1.07347007       -0.97359765        0.27910082
H           1.07347281        0.97360611        0.27909650
H           1.07347281       -0.97360611       -0.27909650
6
MD Time 780.00
C          -0.72469950       -0.00000000        0.00000000
C           0.72469909        0.00000000        0.00000000
H          -1.08608987        0.98185817       -0.28068381
H          -1.08608987       -0.98185817        0.28068381
H           1.08609232        0.98186686        0.28067935
H           1.08609232       -0.98186686       -0.28067935
6
MD Time 790.00
C          -0.73729618       -0.00000000        0.00000000
C           0.73729583        0.00000000        0.00000000
H          -1.09952361        0.98995706       -0.28168157
H          -1.09952361       -0.98995706        0.28168157
H           1.09952571        0.98996582        0.28167692
H           1.09952571       -0.98996582       -0.28167692
6
MD Time 800.00
C          -0.74956715       -0.00000000        0.00000000
C           0.74956687        0.00000000        0.00000000
H          -1.11368836        0.99774896       -0.28207498
H          -1.11368836       -0.99774896        0.28207498
H           1.11369003        0.99775755        0.28207005
H           1.11369003       -0.99775755       -0.28207005
6
MD Time 810.00
C          -0.76149215       -0.00000000        0.00000000
C           0.76149195        0.00000000        0.00000000
H          -1.12850226        1.00509600       -0.28184718
H          -1.12850226       -1.00509600        0.28184718
H           1.12850347        1.00510430        0.28184196
H           1.12850347       -1.00510430       -0.28184196
6
MD Time 820.00
C          -0.77305562       -0.00000000        0.00000000
C           0.77305551        0.00000000        0.00000000
H          -1.14388530        1.01187016       -0.28098430
H          -1.14388530       -1.01187016        0.28098430
H           1.14388600        1.01187807        0.28097875
H           1.14388600       -1.01187807       -0.28097875
6
MD Time 830.00
C          -0.78424587       -0.00000000        0.00000000
C           0.78424584        0.00000000        0.00000000
H          -1.15975976        1.01795487       -0.27947577
H          -1.15975976       -1.01795487        0.27947577
H           1.15975993        1.01796234        0.27946991
H           1.15975993       -1.01796234       -0.27946991
6
MD Time 840.00
C          -0.79505437       -0.00000000        0.00000000
C           0.79505443        0.00000000        0.00000000
H          -1.17605061        1.02324614       -0.27731470
H          -1.17605061       -1.02324614        0.27731470
H           1.17605023        1.02325308        0.27730852
H           1.17605023       -1.02325308       -0.27730852
6
MD Time 850.00
C          -0.80547519       -0.00000000        0.00000000
C           0.80547535        0.00000000        0.00000000
H          -1.19268569        1.02765319       -0.27449790
H          -1.19268569       -1.02765319        0.27449790
H           1.19268476        1.02765955        0.27449139
H           1.19268476       -1.02765955       -0.27449139
6
MD Time 860.00
C          -0.81550455       -0.00000000        0.00000000
C           0.81550480        0.00000000        0.00000000
H          -1.20959587        1.03109896       -0.27102601
H          -1.20959587       -1.03109896        0.27102601
H           1.20959435        1.03110467        0.27101916
H           1.20959435       -1.03110467       -0.27101916
6
MD Time 870.00
C          -0.82514035        0.00000000        0.00000000
C           0.82514070        0.00000000        0.00000000
H          -1.22671508        1.03352018       -0.26690342
H          -1.22671508       -1.03352018        0.26690342
H           1.22671298        1.03352521        0.26689623
H           1.22671298       -1.03352521       -0.26689623
6
MD Time 880.00
C          -0.83438188        0.00000000        0.00000000
C           0.83438233        0.00000000        0.00000000
H          -1.24398039        1.03486753       -0.26213821
H          -1.24398039       -1.03486753        0.26213821
H           1.24397771        1.03487183        0.26213068
H           1.24397771       -1.03487183       -0.26213068
6
MD Time 890.00
C          -0.84322949        0.00000000        0.00000000
C           0.84323004        0.00000000        0.00000000
H          -1.26133206        1.03510554       -0.25674204
H          -1.26133206       -1.03510554        0.25674204
H           1.26132874        1.03510891        0.25673411
H           1.26132874       -1.03510891       -0.25673411
6
MD Time 900.00
C          -0.85168434        0.00000000        0.00000000
C           0.85168501        0.00000000        0.00000000
H          -1.27871348        1.03421232       -0.25072994
H          -1.27871348       -1.03421232        0.25072994
H           1.27870952        1.03421476        0.25072161
H           1.27870952       -1.03421476       -0.25072161
6
MD Time 910.00
C          -0.85974821        0.00000000        0.00000000
C           0.85974897        0.00000000        0.00000000
H          -1.29607130        1.03217968       -0.24412018
H          -1.29607130       -1.03217968        0.24412018
H           1.29606676        1.03218125        0.24411148
H           1.29606676       -1.03218125       -0.24411148
6
MD Time 920.00
C          -0.86742324        0.00000000        0.00000000
C           0.86742409        0.00000000        0.00000000
H          -1.31335555        1.02901301       -0.23693413
H          -1.31335555       -1.02901301        0.23693413
H           1.31335045        1.02901374        0.23692509
H           1.31335045       -1.02901374       -0.23692509
6
MD Time 930.00
C          -0.87471179        0.00000000        0.00000000
C           0.87471273        0.00000000        0.00000000
H          -1.33051965        1.02473111       -0.22919601
H          -1.33051965       -1.02473111        0.22919601
H           1.33051408        1.02473109        0.22918667
H           1.33051408       -1.02473109       -0.22918667
6
MD Time 940.00
C          -0.88161628        0.00000000       -0.00000000
C           0.88161729        0.00000000        0.00000000
H          -1.34752069        1.01936620       -0.22093275
H          -1.34752069       -1.01936620        0.22093275
H           1.34751467        1.01936548        0.22092313
H           1.34751467       -1.01936548       -0.22092313
6
MD Time 950.00
C          -0.88813903        0.00000000       -0.00000000
C           0.88814010        0.00000000        0.00000000
H          -1.36431947        1.01296375       -0.21217365
H          -1.36431947       -1.01296375        0.21217365
H           1.36431308        1.01296245        0.21216379
H           1.36431308       -1.01296245       -0.21216379
6
MD Time 960.00
C          -0.89428211        0.00000000       -0.00000000
C           0.89428324        0.00000000        0.00000000
H          -1.38088079        1.00558246       -0.20295021
H          -1.38088079       -1.00558246        0.20295021
H           1.38087410        1.00558064        0.20294014
H           1.38087410       -1.00558064       -0.20294014
6
MD Time 970.00
C          -0.90004726        0.00000000       -0.00000000
C           0.90004844        0.00000000        0.00000000
H          -1.39717365        0.99729398       -0.19329581
H          -1.39717365       -0.99729398        0.19329581
H           1.39716664        0.99729163        0.19328551
H           1.39716664       -0.99729163       -0.19328551
6
MD Time 980.00
C          -0.90543576        0.00000000       -0.00000000
C           0.90543699        0.00000000        0.00000000
H          -1.41317132        0.98818251       -0.18324528
H          -1.41317132       -0.98818251        0.18324528
H           1.41316404        0.98817971        0.18323478
H           1.41316404       -0.98817971       -0.18323478
6
MD Time 990.00
C          -0.91044835        0.00000000       -0.00000000
C           0.91044962        0.00000000        0.00000000
H          -1.42885162        0.97834442       -0.17283463
H          -1.42885162       -0.97834442        0.17283463
H           1.42884406        0.97834116        0.17282392
H           1.42884406       -0.97834116       -0.17282392
6
MD Time 1000.00
C          -0.91508517        0.00000000       -0.00000000
C           0.91508648        0.00000000        0.00000000
H          -1.44419681        0.96788732       -0.16210046
H          -1.44419681       -0.96788732        0.16210046
H           1.44418905        0.96788372        0.16208957
H           1.44418905       -0.96788372       -0.16208957
6
MD Time 1010.00
C          -0.91934574        0.00000000       -0.00000000
C           0.91934706        0.00000000        0.00000000
H          -1.45919368        0.95692914       -0.15107957
H          -1.45919368       -0.95692914        0.15107957
H           1.45918579        0.95692532        0.15106851
H           1.45918579       -0.95692532       -0.15106851
6
MD Time 1020.00
C          -0.92322895        0.00000000       -0.00000000
C           0.92323027        0.00000000        0.00000000
H          -1.47383321        0.94559666       -0.13980831
H          -1.47383321       -0.94559666        0.13980831
H           1.47382535        0.94559282        0.13979714
H           1.47382535       -0.94559282       -0.13979714
6
MD Time 1030.00
C          -0.92673310        0.00000000       -0.00000000
C           0.92673440        0.00000000        0.00000000
H          -1.48811026        0.93402379       -0.12832209
H          -1.48811026       -0.93402379        0.12832209
H           1.48810253        0.93402005        0.12831083
H           1.48810253       -0.93402005       -0.12831083
6
MD Time 1040.00
C          -0.92985603        0.00000000       -0.00000000
C           0.92985729        0.00000000        0.00000000
H          -1.50202279        0.92234927       -0.11665469
H          -1.50202279       -0.92234927        0.11665469
H           1.50201533        0.92234582        0.11664337
H           1.50201533       -0.92234582       -0.11664337
6
MD Time 1050.00
C          -0.93259523        0.00000000       -0.00000000
C           0.93259642        0.00000000        0.00000000
H          -1.51557100        0.91071419       -0.10483773
H          -1.51557100       -0.91071419        0.10483773
H           1.51556390        0.91071117        0.10482636
H           1.51556390       -0.91071117       -0.10482636
6
MD Time 1060.00
C          -0.93494807        0.00000000       -0.00000000
C           0.93494916        0.00000000        0.00000000
H          -1.52875602        0.89925904       -0.09290012
H          -1.52875602       -0.89925904        0.09290012
H           1.52874949        0.89925664        0.09288873
H           1.52874949       -0.89925664       -0.09288873
6
MD Time 1070.00
C          -0.93691199        0.00000000       -0.00000000
C           0.93691298        0.00000000        0.00000000
H          -1.54157868        0.88812066       -0.08086766
H          -1.54157868       -0.88812066        0.08086766
H           1.54157281        0.88811901        0.08085626
H           1.54157281       -0.88811901       -0.08085626
6
MD Time 1080.00
C          -0.93848486        0.00000000       -0.00000000
C           0.93848569        0.00000000        0.00000000
H          -1.55403765        0.87742890       -0.06876271
H          -1.55403765       -0.87742890        0.06876271
H           1.55403267        0.87742817        0.06875133
H           1.55403267       -0.87742817       -0.06875133
6
MD Time 1090.00
C          -0.93966517        0.00000000       -0.00000000
C           0.93966585        0.00000000        0.00000000
H          -1.56612800        0.86730359       -0.05660413
H          -1.56612800       -0.86730359        0.05660413
H           1.56612398        0.86730385        0.05659276
H           1.56612398       -0.86730385       -0.05659276
6
MD Time 1100.00
C          -0.94045242        0.00000000       -0.00000000
C           0.94045293        0.00000000        0.00000000
H          -1.57783932        0.85785151       -0.04440728
H          -1.57783932       -0.85785151        0.04440728
H           1.57783629        0.85785282        0.04439591
H           1.57783629       -0.85785282       -0.04439591
6
MD Time 1110.00
C          -0.94084734        0.00000000       -0.00000000
C           0.94084767        0.00000000        0.00000000
H          -1.58915419        0.84916393       -0.03218433
H          -1.58915419       -0.84916393        0.03218433
H           1.58915223        0.84916630        0.03217296
H           1.58915223       -0.84916630       -0.03217296
6
MD Time 1120.00
C          -0.94085210        0.00000000       -0.00000000
C           0.94085225        0.00000000        0.00000000
H          -1.60004710        0.84131469       -0.01994473
H          -1.60004710       -0.84131469        0.01994473
H           1.60004620        0.84131812        0.01993335
H           1.60004620       -0.84131812       -0.01993335
6
MD Time 1130.00
C          -0.94047051        0.00000000       -0.00000000
C           0.94047046        0.00000000        0.00000000
H          -1.61048344        0.83435897       -0.00769582
H          -1.61048344       -0.83435897        0.00769582
H           1.61048374        0.83436345        0.00768441
H           1.61048374       -0.83436345       -0.00768441
6
MD Time 1140.00
C          -0.93970802        0.00000000       -0.00000000
C           0.93970777        0.00000000        0.00000000
H          -1.62041947        0.82833282        0.00455646
H          -1.62041947       -0.82833282       -0.00455646
H           1.62042094        0.82833827       -0.00456790
H           1.62042094       -0.82833827        0.00456790
6
MD Time 1150.00
C          -0.93857175        0.00000000       -0.00000000
C           0.93857127        0.00000000        0.00000000
H          -1.62980224        0.82325340        0.01680676
H          -1.62980224       -0.82325340       -0.01680676
H           1.62980505        0.82325974       -0.01681825
H           1.62980505       -0.82325974        0.01681825
6
MD Time 1160.00
C          -0.93707029        0.00000000       -0.00000000
C           0.93706961        0.00000000        0.00000000
H          -1.63857078        0.81911992        0.02904959
H          -1.63857078       -0.81911992       -0.02904959
H           1.63857485        0.81912701       -0.02906114
H           1.63857485       -0.81912701        0.02906114
6
MD Time 1170.00
C          -0.93521360        0.00000000       -0.00000000
C           0.93521272        0.00000000        0.00000000
H          -1.64665699        0.81591510        0.04127858
H          -1.64665699       -0.81591510       -0.04127858
H           1.64666221        0.81592278       -0.04129021
H           1.64666221       -0.81592278        0.04129021
6
MD Time 1180.00
C          -0.93301270        0.00000000       -0.00000000
C           0.93301161        0.00000000        0.00000000
H          -1.65398728        0.81360704        0.05348589
H          -1.65398728       -0.81360704       -0.05348589
H           1.65399375        0.81361515       -0.05349759
H           1.65399375       -0.81361515        0.05349759
6
MD Time 1190.00
C          -0.93047933        0.00000000       -0.00000000
C           0.93047805        0.00000000        0.00000000
H          -1.66048474        0.81215144        0.06566173
H          -1.66048474       -0.81215144       -0.06566173
H           1.66049234        0.81215978       -0.06567352
H           1.66049234       -0.81215978        0.06567352
6
MD Time 1200.00
C          -0.92762570        0.00000000       -0.00000000
C           0.92762421        0.00000000        0.00000000
H          -1.66607070        0.81149380        0.07779403
H          -1.66607070       -0.81149380       -0.07779403
H           1.66607955        0.81150217       -0.07780590
H           1.66607955       -0.81150217        0.07780590
6
MD Time 1210.00
C          -0.92446408        0.00000000       -0.00000000
C           0.92446241        0.00000000        0.00000000
H          -1.67066713        0.81157168        0.08986824
H          -1.67066713       -0.81157168       -0.08986824
H           1.67067707        0.81157986       -0.08988019
H           1.67067707       -0.81157986        0.08988019
6
MD Time 1220.00
C          -0.92100657        0.00000000       -0.00000000
C           0.92100474        0.00000000        0.00000000
H          -1.67419813        0.81231682        0.10186732
H          -1.67419813       -0.81231682       -0.10186732
H           1.67420900        0.81232462       -0.10187933
H           1.67420900       -0.81232462        0.10187933
6
MD Time 1230.00
C          -0.91726476        0.00000000       -0.00000000
C           0.91726281        0.00000000        0.00000000
H          -1.67659172        0.81365714        0.11377169
H          -1.67659172       -0.81365714       -0.11377169
H           1.67660335        0.81366434       -0.11378376
H           1.67660335       -0.81366434        0.11378376
6
MD Time 1240.00
C          -0.91324958        0.00000000       -0.00000000
C           0.91324752        0.00000000        0.00000000
H          -1.67778122        0.81551841        0.12555950
H          -1.67778122       -0.81551841       -0.12555950
H           1.67779347        0.81552481       -0.12557159
H           1.67779347       -0.81552481        0.12557159
6
MD Time 1250.00
C          -0.90897102        0.00000000       -0.00000000
C           0.90896889        0.00000000        0.00000000
H          -1.67770650        0.81782576        0.13720672
H          -1.67770650       -0.81782576       -0.13720672
H           1.67771920        0.81783118       -0.13721883
H           1.67771920       -0.81783118        0.13721883
6
MD Time 1260.00
C          -0.90443805        0.00000000       -0.00000000
C           0.90443587        0.00000000        0.00000000
H          -1.67631482        0.82050501        0.14868750
H          -1.67631482       -0.82050501       -0.14868750
H           1.67632782        0.82050927       -0.14869959
H           1.67632782       -0.82050927        0.14869959
6
MD Time 1270.00
C          -0.89965851        0.00000000       -0.00000000
C           0.89965625        0.00000000        0.00000000
H          -1.67356144        0.82348365        0.15997439
H          -1.67356144       -0.82348365       -0.15997439
H           1.67357486        0.82348661       -0.15998647
H           1.67357486       -0.82348661        0.15998647
6
MD Time 1280.00
C          -0.89463896        0.00000000       -0.00000000
C           0.89463667        0.00000000        0.00000000
H          -1.66941049        0.82669181        0.17103870
H          -1.66941049       -0.82669181       -0.17103870
H           1.66942418        0.82669334       -0.17105076
H           1.66942418       -0.82669334        0.17105076
6
MD Time 1290.00
C          -0.88938478        0.00000000       -0.00000000
C           0.88938245        0.00000000        0.00000000
H          -1.66383487        0.83006293        0.18185078
H          -1.66383487       -0.83006293       -0.18185078
H           1.66384874        0.83006291       -0.18186280
H           1.66384874       -0.83006291        0.18186280
6
MD Time 1300.00
C          -0.88390007        0.00000000       -0.00000000
C           0.88389773        0.00000000        0.00000000
H          -1.65681664        0.83353442        0.19238037
H          -1.65681664       -0.83353442       -0.19238037
H           1.65683057        0.83353275       -0.19239232
H           1.65683057       -0.83353275        0.19239232
6
MD Time 1310.00
C          -0.87818767        0.00000000       -0.00000000
C           0.87818535        0.00000000        0.00000000
H          -1.64834710        0.83704815        0.20259687
H          -1.64834710       -0.83704815       -0.20259687
H           1.64836090        0.83704476       -0.20260873
H           1.64836090       -0.83704476        0.20260873
6
MD Time 1320.00
C          -0.87224927        0.00000000       -0.00000000
C           0.87224699        0.00000000        0.00000000
H          -1.63842673        0.84055096        0.21246966
H          -1.63842673       -0.84055096       -0.21246966
H           1.63844030        0.84054578       -0.21248141
H           1.63844030       -0.84054578        0.21248141
6
MD Time 1330.00
C          -0.86608537        0.00000000       -0.00000000
C           0.86608317        0.00000000        0.00000000
H          -1.62706537        0.84399503        0.22196846
H          -1.62706537       -0.84399503       -0.22196846
H           1.62707849        0.84398803       -0.22198007
H           1.62707849       -0.84398803        0.22198007
6
MD Time 1340.00
C          -0.85969539        0.00000000       -0.00000000
C           0.85969328        0.00000000        0.00000000
H          -1.61428192        0.84733832        0.23106353
H          -1.61428192       -0.84733832       -0.23106353
H           1.61429452        0.84732948       -0.23107499
H           1.61429452       -0.84732948        0.23107499
6
MD Time 1350.00
C          -0.85307774        0.00000000       -0.00000000
C           0.85307574        0.00000000        0.00000000
H          -1.60010462        0.85054493        0.23972609
H          -1.60010462       -0.85054493       -0.23972609
H           1.60011648        0.85053425       -0.23973736
H           1.60011648       -0.85053425        0.23973736
6
MD Time 1360.00
C          -0.84622987        0.00000000       -0.00000000
C           0.84622801        0.00000000        0.00000000
H          -1.58457068        0.85358548        0.24792848
H          -1.58457068       -0.85358548       -0.24792848
H           1.58458174        0.85357299       -0.24793958
H           1.58458174       -0.85357299        0.24793958
6
MD Time 1370.00
C          -0.83914843        0.00000000       -0.00000000
C           0.83914673        0.00000000        0.00000000
H          -1.56772653        0.85643754        0.25564461
H          -1.56772653       -0.85643754       -0.25564461
H           1.56773664        0.85642328       -0.25565550
H           1.56773664       -0.85642328        0.25565550
6
MD Time 1380.00
C          -0.83182932        0.00000000       -0.00000000
C           0.83182779        0.00000000        0.00000000
H          -1.54962750        0.85908595        0.26285011
H          -1.54962750       -0.85908595       -0.26285011
H           1.54963663        0.85907001       -0.26286082
H           1.54963663       -0.85907001        0.26286082
6
MD Time 1390.00
C          -0.82426789        0.00000000       -0.00000000
C           0.82426652        0.00000000        0.00000000
H          -1.53033790        0.86152323        0.26952270
H          -1.53033790       -0.86152323       -0.26952270
H           1.53034609        0.86150573       -0.26953326
H           1.53034609       -0.86150573        0.26953326
6
MD Time 1400.00
C          -0.81645902        0.00000000       -0.00000000
C           0.81645781        0.00000000        0.00000000
H          -1.50993092        0.86374996        0.27564246
H          -1.50993092       -0.86374996       -0.27564246
H           1.50993817        0.86373104       -0.27565291
H           1.50993817       -0.86373104        0.27565291
6
MD Time 1410.00
C          -0.80839737        0.00000000       -0.00000000
C           0.80839631        0.00000000        0.00000000
H          -1.48848836        0.86577503        0.28119206
H          -1.48848836       -0.86577503       -0.28119206
H           1.48849472        0.86575485       -0.28120244
H           1.48849472       -0.86575485        0.28120244
6
MD Time 1420.00
C          -0.80007757        0.00000000       -0.00000000
C           0.80007665        0.00000000        0.00000000
H          -1.46610045        0.86761590        0.28615699
H          -1.46610045       -0.86761590       -0.28615699
H           1.46610594        0.86759464       -0.28616735
H           1.46610594       -0.86759464        0.28616735
6
MD Time 1430.00
C          -0.79149449        0.00000000       -0.00000000
C           0.79149370        0.00000000        0.00000000
H          -1.44286542        0.86929873        0.29052572
H          -1.44286542       -0.86929873       -0.29052572
H           1.44287011        0.86927660       -0.29053611
H           1.44287011       -0.86927660        0.29053611
6
MD Time 1440.00
C          -0.78264358        0.00000000       -0.00000000
C           0.78264292        0.00000000        0.00000000
H          -1.41888905        0.87085833        0.29428984
H          -1.41888905       -0.87085833       -0.29428984
H           1.41889300        0.87083554       -0.29430033
H           1.41889300       -0.87083554        0.29430033
6
MD Time 1450.00
C          -0.77352123        0.00000000       -0.00000000
C           0.77352068        0.00000000        0.00000000
H          -1.39428399        0.87233792        0.29744407
H          -1.39428399       -0.87233792       -0.29744407
H           1.39428727        0.87231471       -0.29745472
H           1.39428727       -0.87231471        0.29745472
6
MD Time 1460.00
C          -0.76412521        0.00000000       -0.00000000
C           0.76412476        0.00000000        0.00000000
H          -1.36916894        0.87378868        0.29998619
H          -1.36916894       -0.87378868       -0.29998619
H           1.36917163        0.87376531       -0.29999707
H           1.36917163       -0.87376531        0.29999707
6
MD Time 1470.00
C          -0.75445518        0.00000000       -0.00000000
C           0.75445483        0.00000000        0.00000000
H          -1.34366765        0.87526897        0.30191690
H          -1.34366765       -0.87526897       -0.30191690
H           1.34366976        0.87524564       -0.30192804
H           1.34366976       -0.87524564        0.30192804
6
MD Time 1480.00
C          -0.74451334        0.00000000       -0.00000000
C           0.74451306        0.00000000        0.00000000
H          -1.31790759        0.87684310        0.30323941
H          -1.31790759       -0.87684310       -0.30323941
H           1.31790923        0.87682010       -0.30325089
H           1.31790923       -0.87682010        0.30325089
6
MD Time 1490.00
C          -0.73430504        0.00000000       -0.00000000
C           0.73430483        0.00000000        0.00000000
H          -1.29201871        0.87857997        0.30395908
H          -1.29201871       -0.87857997       -0.30395908
H           1.29201997        0.87855756       -0.30397098
H           1.29201997       -0.87855756        0.30397098
6
MD Time 1500.00
C          -0.72383960        0.00000000       -0.00000000
C           0.72383944        0.00000000        0.00000000
H          -1.26613184        0.88055108        0.30408285
H          -1.26613184       -0.88055108       -0.30408285
H           1.26613285        0.88052956       -0.30409526
H           1.26613285       -0.88052956        0.30409526
6
MD Time 1510.00
C          -0.71313113        0.00000000       -0.00000000
C           0.71313098        0.00000000        0.00000000
H          -1.24037704        0.88282835        0.30361848
H          -1.24037704       -0.88282835       -0.30361848
H           1.24037796        0.88280805       -0.30363155
H           1.24037796       -0.88280805        0.30363155
6
MD Time 1520.00
C          -0.70219943        0.00000000       -0.00000000
C           0.70219927        0.00000000        0.00000000
H          -1.21488208        0.88548161        0.30257397
H          -1.21488208       -0.88548161       -0.30257397
H           1.21488301        0.88546278       -0.30258777
H           1.21488301       -0.88546278        0.30258777
6
MD Time 1530.00
C          -0.69107095        0.00000000       -0.00000000
C           0.69107078        0.00000000        0.00000000
H          -1.18977067        0.88857580        0.30095662
H          -1.18977067       -0.88857580       -0.30095662
H           1.18977172        0.88855869       -0.30097123
H           1.18977172       -0.88855869        0.30097123
6
MD Time 1540.00
C          -0.67977986        0.00000000       -0.00000000
C           0.67977965        0.00000000        0.00000000
H          -1.16516113        0.89216817        0.29877243
H          -1.16516113       -0.89216817       -0.29877243
H           1.16516236        0.89215297       -0.29878791
H           1.16516236       -0.89215297        0.29878791
6
MD Time 1550.00
C          -0.66836896        0.00000000       -0.00000000
C           0.66836871        0.00000000        0.00000000
H          -1.14116501        0.89630552        0.29602539
H          -1.14116501       -0.89630552       -0.29602539
H           1.14116651        0.89629243       -0.29604182
H           1.14116651       -0.89629243        0.29604182
6
MD Time 1560.00
C          -0.65689073        0.00000000       -0.00000000
C           0.65689044        0.00000000        0.00000000
H          -1.11788623        0.90102180        0.29271716
H          -1.11788623       -0.90102180       -0.29271716
H           1.11788801        0.90101093       -0.29273456
H           1.11788801       -0.90101093        0.29273456
6
MD Time 1570.00
C          -0.64540819        0.00000000       -0.00000000
C           0.64540784        0.00000000        0.00000000
H          -1.09542033        0.90633595        0.28884677
H          -1.09542033       -0.90633595       -0.28884677
H           1.09542244        0.90632742       -0.28886520
H           1.09542244       -0.90632742        0.28886520
6
MD Time 1580.00
C          -0.63399561        0.00000000       -0.00000000
C           0.63399521        0.00000000        0.00000000
H          -1.07385427        0.91225057        0.28441078
H          -1.07385427       -0.91225057       -0.28441078
H           1.07385671        0.91224440       -0.28443024
H           1.07385671       -0.91224440        0.28443024
6
MD Time 1590.00
C          -0.62273902        0.00000000       -0.00000000
C           0.62273856        0.00000000        0.00000000
H          -1.05326643        0.91875104        0.27940358
H          -1.05326643       -0.91875104       -0.27940358
H           1.05326917        0.91874724       -0.27942410
H           1.05326917       -0.91874724        0.27942410
6
MD Time 1600.00
C          -0.61173632        0.00000000       -0.00000000
C           0.61173581        0.00000000        0.00000000
H          -1.03372696        0.92580561        0.27381808
H          -1.03372696       -0.92580561       -0.27381808
H           1.03372996        0.92580411       -0.27383963
H           1.03372996       -0.92580411        0.27383963
6
MD Time 1610.00
C          -0.60109692        0.00000000       -0.00000000
C           0.60109638        0.00000000        0.00000000
H          -1.01529836        0.93336605        0.26764648
H          -1.01529836       -0.93336605       -0.26764648
H           1.01530157        0.93336676       -0.26766905
H           1.01530157       -0.93336676        0.26766905
6
MD Time 1620.00
C          -0.59094077        0.00000000       -0.00000000
C           0.59094021        0.00000000        0.00000000
H          -0.99803627        0.94136916        0.26088130
H          -0.99803627       -0.94136916       -0.26088130
H           0.99803961        0.94137192       -0.26090486
H           0.99803961       -0.94137192        0.26090486
6
MD Time 1630.00
C          -0.58139657        0.00000000       -0.00000000
C           0.58139601        0.00000000        0.00000000
H          -0.98199024        0.94973870        0.25351642
H          -0.98199024       -0.94973870       -0.25351642
H           0.98199361        0.94974334       -0.25354093
H           0.98199361       -0.94974334        0.25354093
6
MD Time 1640.00
C          -0.57259909        0.00000000       -0.00000000
C           0.57259853        0.00000000        0.00000000
H          -0.96720454        0.95838784        0.24554804
H          -0.96720454       -0.95838784       -0.24554804
H           0.96720784        0.95839415       -0.24557345
H           0.96720784       -0.95839415        0.24557345
6
MD Time 1650.00
C          -0.56468548        0.00000000       -0.00000000
C           0.56468496        0.00000000        0.00000000
H          -0.95371886        0.96722188        0.23697556
H          -0.95371886       -0.96722188       -0.23697556
H           0.95372199        0.96722961       -0.23700182
H           0.95372199       -0.96722961        0.23700182
6
MD Time 1660.00
C          -0.55779068        0.00000000       -0.00000000
C           0.55779021        0.00000000        0.00000000
H          -0.94156886        0.97614094        0.22780231
H          -0.94156886       -0.97614094       -0.22780231
H           0.94157170        0.97614985       -0.22782937
H           0.94157170       -0.97614985        0.22782937
6
MD Time 1670.00
C          -0.55204194        0.00000000       -0.00000000
C           0.55204153        0.00000000        0.00000000
H          -0.93078649        0.98504279        0.21803598
H          -0.93078649       -0.98504279       -0.21803598
H           0.93078893        0.98505261       -0.21806378
H           0.93078893       -0.98505261        0.21806378
6
MD Time 1680.00
C          -0.54755288        0.00000000       -0.00000000
C           0.54755256        0.00000000        0.00000000
H          -0.92140014        0.99382528        0.20768885
H          -0.92140014       -0.99382528       -0.20768885
H           0.92140205        0.99383575       -0.20771734
H           0.92140205       -0.99383575        0.20771734
6
MD Time 1690.00
C          -0.54441752        0.00000000       -0.00000000
C           0.54441730        0.00000000        0.00000000
H          -0.91343455        1.00238868        0.19677781
H          -0.91343455       -1.00238868       -0.19677781
H           0.91343584        1.00239954       -0.19680693
H           0.91343584       -1.00239954        0.19680693
6
MD Time 1700.00
C          -0.54270482        0.00000000       -0.00000000
C           0.54270472        0.00000000        0.00000000
H          -0.90691060        1.01063759        0.18532417
H          -0.90691060       -1.01063759       -0.18532417
H           0.90691116        1.01064859       -0.18535387
H           0.90691116       -1.01064859        0.18535387
6
MD Time 1710.00
C          -0.54245447        0.00000000       -0.00000000
C           0.54245452        0.00000000        0.00000000
H          -0.90184491        1.01848254        0.17335332
H          -0.90184491       -1.01848254       -0.17335332
H           0.90184465        1.01849343       -0.17338355
H           0.90184465       -1.01849343        0.17338355
6
MD Time 1720.00
C          -0.54367432        0.00000000       -0.00000000
C           0.54367452        0.00000000        0.00000000
H          -0.89824948        1.02584118        0.16089433
H          -0.89824948       -1.02584118       -0.16089433
H           0.89824832        1.02585173       -0.16092504
H           0.89824832       -1.02585173        0.16092504
6
MD Time 1730.00
C          -0.54633987        0.00000000       -0.00000000
C           0.54634023        0.00000000        0.00000000
H          -0.89613119        1.03263917        0.14797948
H          -0.89613119       -1.03263917       -0.14797948
H           0.89612906        1.03264918       -0.14801062
H           0.89612906       -1.03264918        0.14801062
6
MD Time 1740.00
C          -0.55039588        0.00000000       -0.00000000
C           0.55039642        0.00000000        0.00000000
H          -0.89549150        1.03881082        0.13464379
H          -0.89549150       -1.03881082       -0.13464379
H           0.89548834        1.03882009       -0.13467532
H           0.89548834       -1.03882009        0.13467532
6
MD Time 1750.00
C          -0.55575987        0.00000000       -0.00000000
C           0.55576059        0.00000000        0.00000000
H          -0.89632615        1.04429934        0.12092456
H          -0.89632615       -1.04429934       -0.12092456
H           0.89632192        1.04430771       -0.12095645
H           0.89632192       -1.04430771        0.12095645
6
MD Time 1760.00
C          -0.56232704        0.00000000       -0.00000000
C           0.56232794        0.00000000        0.00000000
H          -0.89862502        1.04905700        0.10686099
H          -0.89862502       -1.04905700       -0.10686099
H           0.89861969        1.04906434       -0.10689319
H           0.89861969       -1.04906434        0.10689319
6
MD Time 1770.00
C          -0.56997602        0.00000000       -0.00000000
C           0.56997711        0.00000000        0.00000000
H          -0.90237210        1.05304511        0.09249372
H          -0.90237210       -1.05304511       -0.09249372
H           0.90236566        1.05305130       -0.09252621
H           0.90236566       -1.05305130        0.09252621
6
MD Time 1780.00
C          -0.57857486        0.00000000       -0.00000000
C           0.57857613        0.00000000        0.00000000
H          -0.90754563        1.05623379        0.07786453
H          -0.90754563       -1.05623379       -0.07786453
H           0.90753808        1.05623873       -0.07789727
H           0.90753808       -1.05623873        0.07789727
6
MD Time 1790.00
C          -0.58798665        0.00000000       -0.00000000
C           0.58798811        0.00000000        0.00000000
H          -0.91411832        1.05860174        0.06301596
H          -0.91411832       -1.05860174       -0.06301596
H           0.91410967        1.05860539       -0.06304893
H           0.91410967       -1.05860539        0.06304893
6
MD Time 1800.00
C          -0.59807452        0.00000000       -0.00000000
C           0.59807616        0.00000000        0.00000000
H          -0.92205768        1.06013593        0.04799102
H          -0.92205768       -1.06013593       -0.04799102
H           0.92204795        1.06013825       -0.04802419
H           0.92204795       -1.06013825        0.04802419
6
MD Time 1810.00
C          -0.60870561        0.00000000       -0.00000000
C           0.60870742        0.00000000        0.00000000
H          -0.93132645        1.06083121        0.03283283
H          -0.93132645       -1.06083121       -0.03283283
H           0.93131570        1.06083221       -0.03286617
H           0.93131570       -1.06083221        0.03286617
6
MD Time 1820.00
C          -0.61975410        0.00000000       -0.00000000
C           0.61975607        0.00000000        0.00000000
H          -0.94188307        1.06068993        0.01758432
H          -0.94188307       -1.06068993       -0.01758432
H           0.94187134        1.06068964       -0.01761781
H           0.94187134       -1.06068964        0.01761781
6
MD Time 1830.00
C          -0.63110327        0.00000000       -0.00000000
C           0.63110539        0.00000000        0.00000000
H          -0.95368218        1.05972153        0.00228795
H          -0.95368218       -1.05972153       -0.00228795
H           0.95366955        1.05972001       -0.00232156
H           0.95366955       -1.05972001        0.00232156
6
MD Time 1840.00
C          -0.64264670        0.00000000       -0.00000000
C           0.64264896        0.00000000        0.00000000
H          -0.96667515        1.05794208       -0.01301459
H          -0.96667515       -1.05794208        0.01301459
H           0.96666171        1.05793941        0.01298089
H           0.96666171       -1.05793941       -0.01298089
6
MD Time 1850.00
C          -0.65428882        0.00000000       -0.00000000
C           0.65429120        0.00000000        0.00000000
H          -0.98081061        1.05537379       -0.02828270
H          -0.98081061       -1.05537379        0.02828270
H           0.98079646        1.05537009        0.02824892
H           0.98079646       -1.05537009       -0.02824892
6
MD Time 1860.00
C          -0.66594486        0.00000000       -0.00000000
C           0.66594735        0.00000000        0.00000000
H          -0.99603493        1.05204451       -0.04347709
H          -0.99603493       -1.05204451        0.04347709
H           0.99602017        1.05203995        0.04344327
H           0.99602017       -1.05203995       -0.04344327
6
MD Time 1870.00
C          -0.67754051        0.00000000       -0.00000000
C           0.67754308        0.00000000        0.00000000
H          -1.01229267        1.04798716       -0.05856008
H          -1.01229267       -1.04798716        0.05856008
H           1.01227741        1.04798186        0.05852624
H           1.01227741       -1.04798186       -0.05852624
6
MD Time 1880.00
C          -0.68901128        0.00000000       -0.00000000
C           0.68901390        0.00000000        0.00000000
H          -1.02952692        1.04323898       -0.07349576
H          -1.02952692       -1.04323898        0.07349576
H           1.02951131        1.04323318        0.07346195
H           1.02951131       -1.04323318       -0.07346195
6
MD Time 1890.00
C          -0.70030171        0.00000000       -0.00000000
C           0.70030437        0.00000000        0.00000000
H          -1.04767967        1.03784097       -0.08825027
H          -1.04767967       -1.03784097        0.08825027
H           1.04766383        1.03783483        0.08821650
H           1.04766383       -1.03783483       -0.08821650
6
MD Time 1900.00
C          -0.71136460        0.00000000       -0.00000000
C           0.71136727        0.00000000        0.00000000
H          -1.06669190        1.03183690       -0.10279183
H          -1.06669190       -1.03183690        0.10279183
H           1.06667598        1.03183072        0.10275817
H           1.06667598       -1.03183072       -0.10275817
6
MD Time 1910.00
C          -0.72216016        0.00000000       -0.00000000
C           0.72216282        0.00000000        0.00000000
H          -1.08650375        1.02527267       -0.11709093
H          -1.08650375       -1.02527267        0.11709093
H           1.08648790        1.02526663        0.11705740
H           1.08648790       -1.02526663       -0.11705740
6
MD Time 1920.00
C          -0.73265521        0.00000000       -0.00000000
C           0.73265784        0.00000000        0.00000000
H          -1.10705441        1.01819518       -0.13112029
H          -1.10705441       -1.01819518        0.13112029
H           1.10703878        1.01818958        0.13108694
H           1.10703878       -1.01818958       -0.13108694
6
MD Time 1930.00
C          -0.74282250        0.00000000       -0.00000000
C           0.74282507        0.00000000        0.00000000
H          -1.12828202        1.01065161       -0.14485484
H          -1.12828202       -1.01065161        0.14485484
H           1.12826676        1.01064667        0.14482171
H           1.12826676       -1.01064667       -0.14482171
6
MD Time 1940.00
C          -0.75264003        0.00000000       -0.00000000
C           0.75264251        0.00000000        0.00000000
H          -1.15012336        1.00268834       -0.15827165
H          -1.15012336       -1.00268834        0.15827165
H           1.15010863        1.00268436        0.15823880
H           1.15010863       -1.00268436       -0.15823880
6
MD Time 1950.00
C          -0.76209047        0.00000000       -0.00000000
C           0.76209283        0.00000000        0.00000000
H          -1.17251358        0.99435029       -0.17134972
H          -1.17251358       -0.99435029        0.17134972
H           1.17249953        0.99434749        0.17131720
H           1.17249953       -0.99434749       -0.17131720
6
MD Time 1960.00
C          -0.77116069        0.00000000       -0.00000000
C           0.77116291        0.00000000        0.00000000
H          -1.19538576        0.98567998       -0.18406984
H          -1.19538576       -0.98567998        0.18406984
H           1.19537254        0.98567861        0.18403770
H           1.19537254       -0.98567861       -0.18403770
6
MD Time 1970.00
C          -0.77984131        0.00000000       -0.00000000
C           0.77984338        0.00000000        0.00000000
H          -1.21867055        0.97671713       -0.19641431
H          -1.21867055       -0.97671713        0.19641431
H           1.21865825        0.97671729        0.19638257
H           1.21865825       -0.97671729       -0.19638257
6
MD Time 1980.00
C          -0.78812633        0.00000000       -0.00000000
C           0.78812823        0.00000000        0.00000000
H          -1.24229572        0.96749795       -0.20836669
H          -1.24229572       -0.96749795        0.20836669
H           1.24228447        0.96749982        0.20833539
H           1.24228447       -0.96749982       -0.20833539
6
MD Time 1990.00
C          -0.79601281        0.00000000       -0.00000000
C           0.79601450        0.00000000        0.00000000
H          -1.26618585        0.95805510       -0.21991158
H          -1.26618585       -0.95805510        0.21991158
H           1.26617577        0.95805887        0.21988077
H           1.26617577       -0.95805887       -0.21988077
6
MD Time 2000.00
C          -0.80350052        0.00000000       -0.00000000
C           0.80350200        0.00000000        0.00000000
H          -1.29026213        0.94841764       -0.23103439
H          -1.29026213       -0.94841764        0.23103439
H           1.29025333        0.94842342        0.23100412
H           1.29025333       -0.94842342       -0.23100412
6
MD Time 2010.00
C          -0.81059174        0.00000000       -0.00000000
C           0.81059299        0.00000000        0.00000000
H          -1.31444220        0.93861115       -0.24172121
H          -1.31444220       -0.93861115        0.24172121
H           1.31443479        0.93861908        0.24169151
H           1.31443479       -0.93861908       -0.24169151
6
MD Time 2020.00
C          -0.81729095        0.00000000       -0.00000000
C           0.81729196        0.00000000        0.00000000
H          -1.33864025        0.92865819       -0.25195865
H          -1.33864025       -0.92865819        0.25195865
H           1.33863429        0.92866829        0.25192956
H           1.33863429       -0.92866829       -0.25192956
6
MD Time 2030.00
C          -0.82360458        0.00000000       -0.00000000
C           0.82360532        0.00000000        0.00000000
H          -1.36276716        0.91857877       -0.26173383
H          -1.36276716       -0.91857877        0.26173383
H           1.36276275        0.91859111        0.26170540
H           1.36276275       -0.91859111       -0.26170540
6
MD Time 2040.00
C          -0.82954076        0.00000000       -0.00000000
C           0.82954125        0.00000000        0.00000000
H          -1.38673098        0.90839115       -0.27103445
H          -1.38673098       -0.90839115        0.27103445
H           1.38672813        0.90840569        0.27100667
H           1.38672813       -0.90840569       -0.27100667
6
MD Time 2050.00
C          -0.83510909        0.00000000       -0.00000000
C           0.83510930        0.00000000        0.00000000
H          -1.41043735        0.89811253       -0.27984879
H          -1.41043735       -0.89811253        0.27984879
H           1.41043613        0.89812924        0.27982168
H           1.41043613       -0.89812924       -0.27982168
6
MD Time 2060.00
C          -0.84032034        0.00000000       -0.00000000
C           0.84032028        0.00000000        0.00000000
H          -1.43379033        0.88775997       -0.28816595
H          -1.43379033       -0.88775997        0.28816595
H           1.43379070        0.88777872        0.28813949
H           1.43379070       -0.88777872       -0.28813949
6
MD Time 2070.00
C          -0.84518621        0.00000000       -0.00000000
C           0.84518588        0.00000000        0.00000000
H          -1.45669305        0.87735109       -0.29597601
H          -1.45669305       -0.87735109        0.29597601
H           1.45669503        0.87737178        0.29595020
H           1.45669503       -0.87737178       -0.29595020
6
MD Time 2080.00
C          -0.84971910        0.00000000       -0.00000000
C           0.84971851        0.00000000        0.00000000
H          -1.47904872        0.86690498       -0.30327028
H          -1.47904872       -0.86690498        0.30327028
H           1.47905223        0.86692743        0.30324507
H           1.47905223       -0.86692743       -0.30324507
6
MD Time 2090.00
C          -0.85393182        0.00000000       -0.00000000
C           0.85393098        0.00000000        0.00000000
H          -1.50076142        0.85644279       -0.31004149
H          -1.50076142       -0.85644279        0.31004149
H           1.50076646        0.85646682        0.31001686
H           1.50076646       -0.85646682       -0.31001686
6
MD Time 2100.00
C          -0.85783736        0.00000000       -0.00000000
C           0.85783628        0.00000000        0.00000000
H          -1.52173723        0.84598835       -0.31628411
H          -1.52173723       -0.84598835        0.31628411
H           1.52174368        0.84601372        0.31625999
H           1.52174368       -0.84601372       -0.31625999
6
MD Time 2110.00
C          -0.86144870        0.00000000       -0.00000000
C           0.86144738        0.00000000        0.00000000
H          -1.54188492        0.83556856       -0.32199446
H          -1.54188492       -0.83556856        0.32199446
H           1.54189278        0.83559505        0.32197083
H           1.54189278       -0.83559505       -0.32197083
6
MD Time 2120.00
C          -0.86477854        0.00000000       -0.00000000
C           0.86477701        0.00000000        0.00000000
H          -1.56111708        0.82521373       -0.32717101
H          -1.56111708       -0.82521373        0.32717101
H           1.56112620        0.82524108        0.32714778
H           1.56112620       -0.82524108       -0.32714778
6
MD Time 2130.00
C          -0.86783916        0.00000000       -0.00000000
C           0.86783742        0.00000000        0.00000000
H          -1.57935067        0.81495771       -0.33181439
H          -1.57935067       -0.81495771        0.33181439
H           1.57936103        0.81498566        0.33179151
H           1.57936103       -0.81498566       -0.33179151
6
MD Time 2140.00
C          -0.87064222        0.00000000       -0.00000000
C           0.87064030        0.00000000        0.00000000
H          -1.59650801        0.80483793       -0.33592762
H          -1.59650801       -0.80483793        0.33592762
H           1.59651944        0.80486619        0.33590500
H           1.59651944       -0.80486619       -0.33590500
6
MD Time 2150.00
C          -0.87319864        0.00000000       -0.00000000
C           0.87319655        0.00000000        0.00000000
H          -1.61251711        0.79489529       -0.33951604
H          -1.61251711       -0.79489529        0.33951604
H           1.61252958        0.79492359        0.33949361
H           1.61252958       -0.79492359       -0.33949361
6
MD Time 2160.00
C          -0.87551844        0.00000000       -0.00000000
C           0.87551621        0.00000000        0.00000000
H          -1.62731254        0.78517399       -0.34258736
H          -1.62731254       -0.78517399        0.34258736
H           1.62732587        0.78520204        0.34256501
H           1.62732587       -0.78520204       -0.34256501
6
MD Time 2170.00
C          -0.87761067        0.00000000       -0.00000000
C           0.87760831        0.00000000        0.00000000
H          -1.64083556        0.77572127       -0.34515157
H          -1.64083556       -0.77572127        0.34515157
H           1.64084966        0.77574878        0.34512922
H           1.64084966       -0.77574878       -0.34512922
6
MD Time 2180.00
C          -0.87948328        0.00000000       -0.00000000
C           0.87948082        0.00000000        0.00000000
H          -1.65303472        0.76658708       -0.34722090
H          -1.65303472       -0.76658708        0.34722090
H           1.65304941        0.76661378        0.34719844
H           1.65304941       -0.76661378       -0.34719844
6
MD Time 2190.00
C          -0.88114308        0.00000000       -0.00000000
C           0.88114054        0.00000000        0.00000000
H          -1.66386597        0.75782371       -0.34880960
H          -1.66386597       -0.75782371        0.34880960
H           1.66388114        0.75784933        0.34878693
H           1.66388114       -0.75784933       -0.34878693
6
MD Time 2200.00
C          -0.88259565        0.00000000       -0.00000000
C           0.88259306        0.00000000        0.00000000
H          -1.67329305        0.74948539       -0.34993382
H          -1.67329305       -0.74948539        0.34993382
H           1.67330851        0.74950968        0.34991083
H           1.67330851       -0.74950968       -0.34991083
6
MD Time 2210.00
C          -0.88384532        0.00000000       -0.00000000
C           0.88384271        0.00000000        0.00000000
H          -1.68128750        0.74162788       -0.35061141
H          -1.68128750       -0.74162788        0.35061141
H           1.68130309        0.74165060        0.35058800
H           1.68130309       -0.74165060       -0.35058800
6
MD Time 2220.00
C          -0.88489514        0.00000000       -0.00000000
C           0.88489254        0.00000000        0.00000000
H          -1.68782886        0.73430804       -0.35086167
H          -1.68782886       -0.73430804        0.35086167
H           1.68784441        0.73432896        0.35083773
H           1.68784441       -0.73432896       -0.35083773
6
MD Time 2230.00
C          -0.88574682        0.00000000       -0.00000000
C           0.88574425        0.00000000        0.00000000
H          -1.69290474        0.72758336       -0.35070510
H          -1.69290474       -0.72758336        0.35070510
H           1.69292009        0.72760230        0.35068053
H           1.69292009       -0.72760230       -0.35068053
6
MD Time 2240.00
C          -0.88640074        0.00000000       -0.00000000
C           0.88639823        0.00000000        0.00000000
H          -1.69651082        0.72151154       -0.35016318
H          -1.69651082       -0.72151154        0.35016318
H           1.69652580        0.72152833        0.35013789
H           1.69652580       -0.72152833       -0.35013789
6
MD Time 2250.00
C          -0.88685595        0.00000000       -0.00000000
C           0.88685352        0.00000000        0.00000000
H          -1.69865083        0.71615006       -0.34925804
H          -1.69865083       -0.71615006        0.34925804
H           1.69866529        0.71616456        0.34923195
H           1.69866529       -0.71616456       -0.34923195
6
MD Time 2260.00
C          -0.88711015        0.00000000       -0.00000000
C           0.88710784        0.00000000        0.00000000
H          -1.69933649        0.71155565       -0.34801221
H          -1.69933649       -0.71155565        0.34801221
H           1.69935029        0.71156775        0.34798523
H           1.69935029       -0.71156775       -0.34798523
6
MD Time 2270.00
C          -0.88715974        0.00000000       -0.00000000
C           0.88715756        0.00000000        0.00000000
H          -1.69858738        0.70778385       -0.34644824
H          -1.69858738       -0.70778385        0.34644824
H           1.69860041        0.70779348        0.34642032
H           1.69860041       -0.70779348       -0.34642032
6
MD Time 2280.00
C          -0.88699984        0.00000000       -0.00000000
C           0.88699781        0.00000000        0.00000000
H          -1.69643070        0.70488848       -0.34458844
H          -1.69643070       -0.70488848        0.34458844
H           1.69644285        0.70489560        0.34455954
H           1.69644285       -0.70489560       -0.34455954
6
MD Time 2290.00
C          -0.88662431        0.00000000       -0.00000000
C           0.88662248        0.00000000        0.00000000
H          -1.69290110        0.70292106       -0.34245453
H          -1.69290110       -0.70292106        0.34245453
H           1.69291206        0.70292571        0.34242455
H           1.69291206       -0.70292571       -0.34242455
6
MD Time 2300.00
C          -0.88602590        0.00000000       -0.00000000
C           0.88602428        0.00000000        0.00000000
H          -1.68803992        0.70193024       -0.34006719
H          -1.68803992       -0.70193024        0.34006719
H           1.68804964        0.70193247        0.34003611
H           1.68804964       -0.70193247       -0.34003611
6
MD Time 2310.00
C          -0.88519630        0.00000000       -0.00000000
C           0.88519487        0.00000000        0.00000000
H          -1.68189493        0.70196111       -0.33744574
H          -1.68189493       -0.70196111        0.33744574
H           1.68190350        0.70196098        0.33741358
H           1.68190350       -0.70196098       -0.33741358
6
MD Time 2320.00
C          -0.88412622        0.00000000       -0.00000000
C           0.88412498        0.00000000        0.00000000
H          -1.67451968        0.70305438       -0.33460775
H          -1.67451968       -0.70305438        0.33460775
H           1.67452711        0.70305199        0.33457452
H           1.67452711       -0.70305199       -0.33457452
6
MD Time 2330.00
C          -0.88280564        0.00000000       -0.00000000
C           0.88280457        0.00000000        0.00000000
H          -1.66597249        0.70524557       -0.33156855
H          -1.66597249       -0.70524557        0.33156855
H           1.66597890        0.70524107        0.33153430
H           1.66597890       -0.70524107       -0.33153430
6
MD Time 2340.00
C          -0.88122388        0.00000000       -0.00000000
C           0.88122298        0.00000000        0.00000000
H          -1.65631559        0.70856404       -0.32834089
H          -1.65631559       -0.70856404        0.32834089
H           1.65632104        0.70855762        0.32830564
H           1.65632104       -0.70855762       -0.32830564
6
MD Time 2350.00
C          -0.87936991        0.00000000       -0.00000000
C           0.87936918        0.00000000        0.00000000
H          -1.64561402        0.71303191       -0.32493445
H          -1.64561402       -0.71303191        0.32493445
H           1.64561840        0.71302386        0.32489823
H           1.64561840       -0.71302386       -0.32489823
6
MD Time 2360.00
C          -0.87723252        0.00000000       -0.00000000
C           0.87723196        0.00000000        0.00000000
H          -1.63393405        0.71866303       -0.32135542
H          -1.63393405       -0.71866303        0.32135542
H           1.63393748        0.71865363        0.32131829
H           1.63393748       -0.71865363       -0.32131829
6
MD Time 2370.00
C          -0.87480061        0.00000000       -0.00000000
C           0.87480022        0.00000000        0.00000000
H          -1.62134230        0.72546169       -0.31760622
H          -1.62134230       -0.72546169        0.31760622
H           1.62134469        0.72545128        0.31756819
H           1.62134469       -0.72545128       -0.31756819
6
MD Time 2380.00
C          -0.87206343        0.00000000       -0.00000000
C           0.87206318        0.00000000        0.00000000
H          -1.60790398        0.73342152       -0.31368506
H          -1.60790398       -0.73342152        0.31368506
H           1.60790549        0.73341043        0.31364624
H           1.60790549       -0.73341043       -0.31364624
6
MD Time 2390.00
C          -0.86901078        0.00000000       -0.00000000
C           0.86901069        0.00000000        0.00000000
H          -1.59368200        0.74252426       -0.30958593
H          -1.59368200       -0.74252426        0.30958593
H           1.59368258        0.74251288        0.30954634
H           1.59368258       -0.74251288       -0.30954634
6
MD Time 2400.00
C          -0.86563337        0.00000000       -0.00000000
C           0.86563340        0.00000000        0.00000000
H          -1.57873537        0.75273882       -0.30529833
H          -1.57873537       -0.75273882        0.30529833
H           1.57873524        0.75272755        0.30525807
H           1.57873524       -0.75272755       -0.30525807
6
MD Time 2410.00
C          -0.86192287        0.00000000       -0.00000000
C           0.86192302        0.00000000        0.00000000
H          -1.56311875        0.76402043       -0.30080752
H          -1.56311875       -0.76402043        0.30080752
H           1.56311789        0.76400963        0.30076662
H           1.56311789       -0.76400963       -0.30076662
6
MD Time 2420.00
C          -0.85787218        0.00000000       -0.00000000
C           0.85787242        0.00000000        0.00000000
H          -1.54688129        0.77631005       -0.29609463
H          -1.54688129       -0.77631005        0.29609463
H           1.54687992        0.77630013        0.29605320
H           1.54687992       -0.77630013       -0.29605320
6
MD Time 2430.00
C          -0.85347549        0.00000000       -0.00000000
C           0.85347580        0.00000000        0.00000000
H          -1.53006672        0.78953427       -0.29113722
H          -1.53006672       -0.78953427        0.29113722
H           1.53006489        0.78952560        0.29109529
H           1.53006489       -0.78952560       -0.29109529
6
MD Time 2440.00
C          -0.84872834        0.00000000       -0.00000000
C           0.84872869        0.00000000        0.00000000
H          -1.51271305        0.80360550       -0.28590977
H          -1.51271305       -0.80360550        0.28590977
H           1.51271097        0.80359843        0.28586744
H           1.51271097       -0.80359843       -0.28586744
6
MD Time 2450.00
C          -0.84362761        0.00000000       -0.00000000
C           0.84362800        0.00000000        0.00000000
H          -1.49485323        0.81842268       -0.28038456
H          -1.49485323       -0.81842268        0.28038456
H           1.49485096        0.81841753        0.28034187
H           1.49485096       -0.81841753       -0.28034187
6
MD Time 2460.00
C          -0.83817152        0.00000000       -0.00000000
C           0.83817192        0.00000000        0.00000000
H          -1.47651559        0.83387244       -0.27453250
H          -1.47651559       -0.83387244        0.27453250
H           1.47651329        0.83386952        0.27448952
H           1.47651329       -0.83386952       -0.27448952
6
MD Time 2470.00
C          -0.83235949        0.00000000       -0.00000000
C           0.83235987        0.00000000        0.00000000
H          -1.45772494        0.84983067       -0.26832412
H          -1.45772494       -0.84983067        0.26832412
H           1.45772276        0.84983022        0.26828089
H           1.45772276       -0.84983022       -0.26828089
6
MD Time 2480.00
C          -0.82619209        0.00000000       -0.00000000
C           0.82619241        0.00000000        0.00000000
H          -1.43850365        0.86616443       -0.26173055
H          -1.43850365       -0.86616443        0.26173055
H           1.43850178        0.86616670        0.26168716
H           1.43850178       -0.86616670       -0.26168716
6
MD Time 2490.00
C          -0.81967089        0.00000000       -0.00000000
C           0.81967114        0.00000000        0.00000000
H          -1.41887291        0.88273423       -0.25472459
H          -1.41887291       -0.88273423        0.25472459
H           1.41887143        0.88273937        0.25468108
H           1.41887143       -0.88273937       -0.25468108
6
MD Time 2500.00
C          -0.81279844        0.00000000       -0.00000000
C           0.81279861        0.00000000        0.00000000
H          -1.39885381        0.89939632       -0.24728153
H          -1.39885381       -0.89939632        0.24728153
H           1.39885288        0.89940449        0.24723796
H           1.39885288       -0.89940449       -0.24723796
6
MD Time 2510.00
C          -0.80557820        0.00000000       -0.00000000
C           0.80557827        0.00000000        0.00000000
H          -1.37846866        0.91600522       -0.23938002
H          -1.37846866       -0.91600522        0.23938002
H           1.37846830        0.91601645        0.23933642
H           1.37846830       -0.91601645       -0.23933642
6
MD Time 2520.00
C          -0.79801453        0.00000000       -0.00000000
C           0.79801449        0.00000000        0.00000000
H          -1.35774179        0.93241597       -0.23100268
H          -1.35774179       -0.93241597        0.23100268
H           1.35774208        0.93243032        0.23095909
H           1.35774208       -0.93243032       -0.23095909
6
MD Time 2530.00
C          -0.79011274        0.00000000       -0.00000000
C           0.79011259        0.00000000        0.00000000
H          -1.33670057        0.94848652       -0.22213669
H          -1.33670057       -0.94848652        0.22213669
H           1.33670150        0.94850391        0.22209311
H           1.33670150       -0.94850391       -0.22209311
6
MD Time 2540.00
C          -0.78187922        0.00000000       -0.00000000
C           0.78187896        0.00000000        0.00000000
H          -1.31537594        0.96407964       -0.21277402
H          -1.31537594       -0.96407964        0.21277402
H           1.31537753        0.96410002        0.21273050
H           1.31537753       -0.96410002       -0.21273050
6
MD Time 2550.00
C          -0.77332159        0.00000000       -0.00000000
C           0.77332123        0.00000000        0.00000000
H          -1.29380301        0.97906484       -0.20291177
H          -1.29380301       -0.97906484        0.20291177
H           1.29380521        0.97908802        0.20286830
H           1.29380521       -0.97908802       -0.20286830
6
MD Time 2560.00
C          -0.76444898        0.00000000       -0.00000000
C           0.76444852        0.00000000        0.00000000
H          -1.27202129        0.99331972       -0.19255212
H          -1.27202129       -0.99331972        0.19255212
H           1.27202406        0.99334556        0.19250873
H           1.27202406       -0.99334556       -0.19250873
6
MD Time 2570.00
C          -0.75527230        0.00000000       -0.00000000
C           0.75527177        0.00000000        0.00000000
H          -1.25007498        1.00673137       -0.18170233
H          -1.25007498       -1.00673137        0.18170233
H           1.25007823        1.00675961        0.18165902
H           1.25007823       -1.00675961       -0.18165902
6
MD Time 2580.00
C          -0.74580464        0.00000000       -0.00000000
C           0.74580404        0.00000000        0.00000000
H          -1.22801301        1.01919718       -0.17037457
H          -1.22801301       -1.01919718        0.17037457
H           1.22801666        1.01922758        0.17033136
H           1.22801666       -1.01922758       -0.17033136
6
MD Time 2590.00
C          -0.73606169        0.00000000       -0.00000000
C           0.73606103        0.00000000        0.00000000
H          -1.20588908        1.03062571       -0.15858570
H          -1.20588908       -1.03062571        0.15858570
H           1.20589302        1.03065794        0.15854260
H           1.20589302       -1.03065794       -0.15854260
6
MD Time 2600.00
C          -0.72606222        0.00000000       -0.00000000
C           0.72606153        0.00000000        0.00000000
H          -1.18376167        1.04093712       -0.14635699
H          -1.18376167       -1.04093712        0.14635699
H           1.18376579        1.04097087        0.14631401
H           1.18376579       -1.04097087       -0.14631401
6
MD Time 2610.00
C          -0.71582866        0.00000000       -0.00000000
C           0.71582797        0.00000000        0.00000000
H          -1.16169396        1.05006365       -0.13371382
H          -1.16169396       -1.05006365        0.13371382
H           1.16169810        1.05009849        0.13367095
H           1.16169810       -1.05009849       -0.13367095
6
MD Time 2620.00
C          -0.70538770        0.00000000       -0.00000000
C           0.70538703        0.00000000        0.00000000
H          -1.13975375        1.05794972       -0.12068525
H          -1.13975375       -1.05794972        0.12068525
H           1.13975780        1.05798531        0.12064252
H           1.13975780       -1.05798531       -0.12064252
6
MD Time 2630.00
C          -0.69477094        0.00000000       -0.00000000
C           0.69477031        0.00000000        0.00000000
H          -1.11801348        1.06455233       -0.10730377
H          -1.11801348       -1.06455233        0.10730377
H           1.11801728        1.06458823        0.10726119
H           1.11801728       -1.06458823       -0.10726119
6
MD Time 2640.00
C          -0.68401556        0.00000000       -0.00000000
C           0.68401499        0.00000000        0.00000000
H          -1.09655002        1.06984098       -0.09360482
H          -1.09655002       -1.06984098        0.09360482
H           1.09655345        1.06987682        0.09356242
H           1.09655345       -1.06987682       -0.09356242
6
MD Time 2650.00
C          -0.67316503        0.00000000       -0.00000000
C           0.67316455        0.00000000        0.00000000
H          -1.07544474        1.07379796       -0.07962646
H          -1.07544474       -1.07379796        0.07962646
H           1.07544764        1.07383329        0.07958425
H           1.07544764       -1.07383329       -0.07958425
6
MD Time 2660.00
C          -0.66226979        0.00000000       -0.00000000
C           0.66226943        0.00000000        0.00000000
H          -1.05478325        1.07641829       -0.06540889
H          -1.05478325       -1.07641829        0.06540889
H           1.05478551        1.07645276        0.06536691
H           1.05478551       -1.07645276       -0.06536691
6
MD Time 2670.00
C          -0.65138792        0.00000000       -0.00000000
C           0.65138768        0.00000000        0.00000000
H          -1.03465541        1.07771001       -0.05099411
H          -1.03465541       -1.07771001        0.05099411
H           1.03465688        1.07774318        0.05095239
H           1.03465688       -1.07774318       -0.05095239
6
MD Time 2680.00
C          -0.64058560        0.00000000       -0.00000000
C           0.64058551        0.00000000        0.00000000
H          -1.01515501        1.07769415       -0.03642541
H          -1.01515501       -1.07769415        0.03642541
H           1.01515559        1.07772567        0.03638400
H           1.01515559       -1.07772567       -0.03638400
6
MD Time 2690.00
C          -0.62993754        0.00000000       -0.00000000
C           0.62993763        0.00000000        0.00000000
H          -0.99637962        1.07640501       -0.02174695
H          -0.99637962       -1.07640501        0.02174695
H           0.99637917        1.07643447        0.02170587
H           0.99637917       -1.07643447       -0.02170587
6
MD Time 2700.00
C          -0.61952708        0.00000000       -0.00000000
C           0.61952735        0.00000000        0.00000000
H          -0.97843014        1.07389020       -0.00700324
H          -0.97843014       -1.07389020        0.00700324
H           0.97842857        1.07391728        0.00696255
H           0.97842857       -1.07391728       -0.00696255
6
MD Time 2710.00
C          -0.60944590        0.00000000       -0.00000000
C           0.60944638        0.00000000        0.00000000
H          -0.96141039        1.07021088        0.00776130
H          -0.96141039       -1.07021088       -0.00776130
H           0.96140760        1.07023525       -0.00780156
H           0.96140760       -1.07023525        0.00780156
6
MD Time 2720.00
C          -0.59979338        0.00000000       -0.00000000
C           0.59979408        0.00000000        0.00000000
H          -0.94542646        1.06544179        0.02250290
H          -0.94542646       -1.06544179       -0.02250290
H           0.94542237        1.06546317       -0.02254270
H           0.94542237       -1.06546317        0.02254270
6
MD Time 2730.00
C          -0.59067527        0.00000000       -0.00000000
C           0.59067620        0.00000000        0.00000000
H          -0.93058592        1.05967134        0.03717894
H          -0.93058592       -1.05967134       -0.03717894
H           0.93058047        1.05968945       -0.03721823
H           0.93058047       -1.05968945        0.03721823
6
MD Time 2740.00
C          -0.58220182        0.00000000       -0.00000000
C           0.58220298        0.00000000        0.00000000
H          -0.91699690        1.05300145        0.05174851
H          -0.91699690       -1.05300145       -0.05174851
H           0.91699002        1.05301605       -0.05178725
H           0.91699002       -1.05301605        0.05178725
6
MD Time 2750.00
C          -0.57448509        0.00000000       -0.00000000
C           0.57448650        0.00000000        0.00000000
H          -0.90476688        1.04554725        0.06617284
H          -0.90476688       -1.04554725       -0.06617284
H           0.90475855        1.04555816       -0.06621100
H           0.90475855       -1.04555816        0.06621100
6
MD Time 2760.00
C          -0.56763567        0.00000000       -0.00000000
C           0.56763733        0.00000000        0.00000000
H          -0.89400140        1.03743654        0.08041588
H          -0.89400140       -1.03743654       -0.08041588
H           0.89399160        1.03744360       -0.08045342
H           0.89399160       -1.03744360        0.08045342
6
MD Time 2770.00
C          -0.56175871        0.00000000       -0.00000000
C           0.56176061        0.00000000        0.00000000
H          -0.88480250        1.02880882        0.09444467
H          -0.88480250       -1.02880882       -0.09444467
H           0.88479125        1.02881193       -0.09448157
H           0.88479125       -1.02881193        0.09448157
6
MD Time 2780.00
C          -0.55694956        0.00000000       -0.00000000
C           0.55695170        0.00000000        0.00000000
H          -0.87726708        1.01981385        0.10822969
H          -0.87726708       -1.01981385       -0.10822969
H           0.87725442        1.01981301       -0.10826594
H           0.87725442       -1.01981301        0.10826594
6
MD Time 2790.00
C          -0.55328934        0.00000000       -0.00000000
C           0.55329170        0.00000000        0.00000000
H          -0.87148509        1.01060979        0.12174517
H          -0.87148509       -1.01060979       -0.12174517
H           0.87147108        1.01060503       -0.12178076
H           0.87147108       -1.01060503        0.12178076
6
MD Time 2800.00
C          -0.55084073        0.00000000       -0.00000000
C           0.55084330        0.00000000        0.00000000
H          -0.86753764        1.00136049        0.13496915
H          -0.86753764       -1.00136049       -0.13496915
H           0.86752238        1.00135193       -0.13500409
H           0.86752238       -1.00135193        0.13500409
6
MD Time 2810.00
C          -0.54964452        0.00000000       -0.00000000
C           0.54964728        0.00000000        0.00000000
H          -0.86549522        0.99223223        0.14788346
H          -0.86549522       -0.99223223       -0.14788346
H           0.86547883        0.99222007       -0.14791778
H           0.86547883       -0.99222007        0.14791778
6
MD Time 2820.00
C          -0.54971722        0.00000000       -0.00000000
C           0.54972015        0.00000000        0.00000000
H          -0.86541579        0.98338971        0.16047349
H          -0.86541579       -0.98338971       -0.16047349
H           0.86539843        0.98337423       -0.16050724
H           0.86539843       -0.98337423        0.16050724
6
MD Time 2830.00
C          -0.55105004        0.00000000       -0.00000000
C           0.55105310        0.00000000        0.00000000
H          -0.86734317        0.97499142        0.17272768
H          -0.86734317       -0.97499142       -0.17272768
H           0.86732502        0.97497297       -0.17276094
H           0.86732502       -0.97497297        0.17276094
6
MD Time 2840.00
C          -0.55360945        0.00000000       -0.00000000
C           0.55361260        0.00000000        0.00000000
H          -0.87130549        0.96718453        0.18463686
H          -0.87130549       -0.96718453       -0.18463686
H           0.87128677        0.96716355       -0.18466971
H           0.87128677       -0.96716355        0.18466971
6
MD Time 2850.00
C          -0.55733912        0.00000000       -0.00000000
C           0.55734234        0.00000000        0.00000000
H          -0.87731397        0.96009962        0.19619326
H          -0.87731397       -0.96009962       -0.19619326
H           0.87729490        0.96007661       -0.19622581
H           0.87729490       -0.96007661        0.19622581
6
MD Time 2860.00
C          -0.56216322        0.00000000       -0.00000000
C           0.56216645        0.00000000        0.00000000
H          -0.88536194        0.95384550        0.20738940
H          -0.88536194       -0.95384550       -0.20738940
H           0.88534279        0.95382100       -0.20742178
H           0.88534279       -0.95382100        0.20742178
6
MD Time 2870.00
C          -0.56799046        0.00000000       -0.00000000
C           0.56799365        0.00000000        0.00000000
H          -0.89542428        0.94850462        0.21821683
H          -0.89542428       -0.94850462       -0.21821683
H           0.89540532        0.94847920       -0.21824919
H           0.89540532       -0.94847920        0.21824919
6
MD Time 2880.00
C          -0.57471864        0.00000000       -0.00000000
C           0.57472176        0.00000000        0.00000000
H          -0.90745719        0.94412942        0.22866487
H          -0.90745719       -0.94412942       -0.22866487
H           0.90743869        0.94410369       -0.22869736
H           0.90743869       -0.94410369        0.22869736
6
MD Time 2890.00
C          -0.58223926        0.00000000       -0.00000000
C           0.58224226        0.00000000        0.00000000
H          -0.92139843        0.94074006        0.23871943
H          -0.92139843       -0.94074006       -0.23871943
H           0.92138067        0.94071460       -0.23875223
H           0.92138067       -0.94071460        0.23875223
6
MD Time 2900.00
C          -0.59044172        0.00000000       -0.00000000
C           0.59044455        0.00000000        0.00000000
H          -0.93716794        0.93832366        0.24836215
H          -0.93716794       -0.93832366       -0.24836215
H           0.93715117        0.93829903       -0.24839541
H           0.93715117       -0.93829903        0.24839541
6
MD Time 2910.00
C          -0.59921698        0.00000000       -0.00000000
C           0.59921960        0.00000000        0.00000000
H          -0.95466893        0.93683526        0.25756981
H          -0.95466893       -0.93683526       -0.25756981
H           0.95465341        0.93681198       -0.25760371
H           0.95465341       -0.93681198        0.25760371
6
MD Time 2920.00
C          -0.60846052        0.00000000       -0.00000000
C           0.60846290        0.00000000        0.00000000
H          -0.97378936        0.93620035        0.26631428
H          -0.97378936       -0.93620035       -0.26631428
H           0.97377530        0.93617888       -0.26634895
H           0.97377530       -0.93617888        0.26634895
6
MD Time 2930.00
C          -0.61807447        0.00000000       -0.00000000
C           0.61807656        0.00000000        0.00000000
H          -0.99440373        0.93631880        0.27456279
H          -0.99440373       -0.93631880       -0.27456279
H           0.99439133        0.93629951       -0.27459836
H           0.99439133       -0.93629951        0.27459836
6
MD Time 2940.00
C          -0.62796906        0.00000000       -0.00000000
C           0.62797085        0.00000000        0.00000000
H          -1.01637511        0.93706970        0.28227870
H          -1.01637511       -0.93706970       -0.28227870
H           1.01636453        0.93705291       -0.28231527
H           1.01636453       -0.93705291        0.28231527
6
MD Time 2950.00
C          -0.63806344        0.00000000       -0.00000000
C           0.63806490        0.00000000        0.00000000
H          -1.03955746        0.93831686        0.28942259
H          -1.03955746       -0.93831686       -0.28942259
H           1.03954882        0.93830279       -0.28946025
H           1.03954882       -0.93830279        0.28946025
6
MD Time 2960.00
C          -0.64828591        0.00000000       -0.00000000
C           0.64828703        0.00000000        0.00000000
H          -1.06379785        0.93991442        0.29595353
H          -1.06379785       -0.93991442       -0.29595353
H           1.06379123        0.93990321       -0.29599231
H           1.06379123       -0.93990321        0.29599231
6
MD Time 2970.00
C          -0.65857382        0.00000000       -0.00000000
C           0.65857460        0.00000000        0.00000000
H          -1.08893879        0.94171225        0.30183041
H          -1.08893879       -0.94171225       -0.30183041
H           1.08893424        0.94170396       -0.30187035
H           1.08893424       -0.94170396        0.30187035
6
MD Time 2980.00
C          -0.66887314        0.00000000       -0.00000000
C           0.66887357        0.00000000        0.00000000
H          -1.11482041        0.94356088        0.30701334
H          -1.11482041       -0.94356088       -0.30701334
H           1.11481794        0.94355549       -0.30705442
H           1.11481794       -0.94355549        0.30705442
6
MD Time 2990.00
C          -0.67913782        0.00000000       -0.00000000
C           0.67913790        0.00000000        0.00000000
H          -1.14128247        0.94531565        0.31146484
H          -1.14128247       -0.94531565       -0.31146484
H           1.14128205        0.94531312       -0.31150704
H           1.14128205       -0.94531312        0.31150704
