6
MD Time 0.00
C          -1.00425000        0.00000000        0.00000000
C           1.00425000        0.00000000        0.00000000
H          -1.57974232        0.85087479        0.35244388
H          -1.57974232       -0.85087479       -0.35244388
H           1.57974232        0.85087479       -0.35244388
H           1.57974232       -0.85087479        0.35244388
6
MD Time 10.00
C          -1.00413171        0.00000000        0.00000000
C           1.00413171       -0.00000000        0.00000000
H          -1.57961138        0.85104930        0.35240152
H          -1.57961138       -0.85104930       -0.35240152
H           1.57961138        0.85104930       -0.35240152
H           1.57961138       -0.85104930        0.35240152
6
MD Time 20.00
C          -1.00377690       -0.00000000       -0.00000000
C           1.00377690       -0.00000000       -0.00000000
H          -1.57921773        0.85157064        0.35227343
H          -1.57921773       -0.85157064       -0.35227343
H           1.57921773        0.85157064       -0.35227343
H           1.57921773       -0.85157064        0.35227343
6
MD Time 30.00
C          -1.00318572       -0.00000000       -0.00000000
C           1.00318572       -0.00000000       -0.00000000
H          -1.57855889        0.85243227        0.35205647
H          -1.57855889       -0.85243227       -0.35205647
H           1.57855889        0.85243227       -0.35205647
H           1.57855889       -0.85243227        0.35205647
6
MD Time 40.00
C          -1.00235844       -0.00000000       -0.00000000
C           1.00235844       -0.00000000       -0.00000000
H          -1.57763082        0.85362349        0.35174550
H          -1.57763082       -0.85362349       -0.35174550
H           1.57763082        0.85362349       -0.35174550
H           1.57763082       -0.85362349        0.35174550
6
MD Time 50.00
C          -1.00129538       -0.00000000       -0.00000000
C           1.00129538       -0.00000000       -0.00000000
H          -1.57642805        0.85512961        0.35133351
H          -1.57642805       -0.85512961       -0.35133351
H           1.57642805        0.85512961       -0.35133351
H           1.57642805       -0.85512961        0.35133351
6
MD Time 60.00
C          -0.99999690       -0.00000000       -0.00000000
C           0.99999690       -0.00000000       -0.00000000
H          -1.57494389        0.85693231        0.35081171
H          -1.57494389       -0.85693231       -0.35081171
H           1.57494389        0.85693231       -0.35081171
H           1.57494389       -0.85693231        0.35081171
6
MD Time 70.00
C          -0.99846338       -0.00000000        0.00000000
C           0.99846338        0.00000000       -0.00000000
H          -1.57317062        0.85900999        0.35016980
H          -1.57317062       -0.85900999       -0.35016980
H           1.57317062        0.85901000       -0.35016980
H           1.57317062       -0.85901000        0.35016980
6
MD Time 80.00
C          -0.99669515       -0.00000000        0.00000000
C           0.99669515        0.00000000       -0.00000000
H          -1.57109977        0.86133825        0.34939612
H          -1.57109977       -0.86133825       -0.34939612
H           1.57109974        0.86133825       -0.34939612
H           1.57109974       -0.86133825        0.34939612
6
MD Time 90.00
C          -0.99469245       -0.00000000        0.00000000
C           0.99469249        0.00000000       -0.00000000
H          -1.56872245        0.86389035        0.34847791
H          -1.56872245       -0.86389035       -0.34847791
H           1.56872223        0.86389030       -0.34847788
H           1.56872223       -0.86389030        0.34847788
6
MD Time 100.00
C          -0.99245543       -0.00000000        0.00000000
C           0.99245550        0.00000000       -0.00000000
H          -1.56602940        0.86663768        0.34740152
H          -1.56602940       -0.86663768       -0.34740152
H           1.56602898        0.86663758       -0.34740146
H           1.56602898       -0.86663758        0.34740146
6
MD Time 110.00
C          -0.98998405       -0.00000000        0.00000000
C           0.98998416        0.00000000       -0.00000000
H          -1.56301157        0.86955039        0.34615272
H          -1.56301157       -0.86955039       -0.34615272
H           1.56301091        0.86955023       -0.34615262
H           1.56301091       -0.86955023        0.34615262
6
MD Time 120.00
C          -0.98727805       -0.00000000        0.00000000
C           0.98727820        0.00000000        0.00000000
H          -1.55966022        0.87259780        0.34471688
H          -1.55966022       -0.87259780       -0.34471688
H           1.55965935        0.87259760       -0.34471676
H           1.55965935       -0.87259760        0.34471676
6
MD Time 130.00
C          -0.98433691        0.00000000       -0.00000000
C           0.98433710       -0.00000000       -0.00000000
H          -1.55596732        0.87574905        0.34307928
H          -1.55596732       -0.87574905       -0.34307928
H           1.55596619        0.87574879       -0.34307912
H           1.55596619       -0.87574879        0.34307912
6
MD Time 140.00
C          -0.98115983        0.00000000       -0.00000000
C           0.98116006       -0.00000000       -0.00000000
H          -1.55192569        0.87897347        0.34122526
H          -1.55192569       -0.87897347       -0.34122526
H           1.55192434        0.87897318       -0.34122507
H           1.55192433       -0.87897318        0.34122507
6
MD Time 150.00
C          -0.97774566        0.00000000       -0.00000000
C           0.97774593       -0.00000000       -0.00000000
H          -1.54752933        0.88224115        0.33914050
H          -1.54752933       -0.88224115       -0.33914050
H           1.54752772        0.88224082       -0.33914028
H           1.54752772       -0.88224082        0.33914028
6
MD Time 160.00
C          -0.97409290        0.00000000       -0.00000000
C           0.97409320       -0.00000000       -0.00000000
H          -1.54277354        0.88552331        0.33681116
H          -1.54277354       -0.88552331       -0.33681116
H           1.54277171        0.88552297       -0.33681092
H           1.54277171       -0.88552297        0.33681092
6
MD Time 170.00
C          -0.97019965        0.00000000       -0.00000000
C           0.97020000       -0.00000000       -0.00000000
H          -1.53765517        0.88879275        0.33422408
H          -1.53765517       -0.88879275       -0.33422408
H           1.53765310        0.88879240       -0.33422382
H           1.53765309       -0.88879240        0.33422382
6
MD Time 180.00
C          -0.96606364        0.00000000       -0.00000000
C           0.96606402       -0.00000000       -0.00000000
H          -1.53217269        0.89202414        0.33136689
H          -1.53217269       -0.89202414       -0.33136689
H           1.53217042        0.89202381       -0.33136662
H           1.53217042       -0.89202381        0.33136662
6
MD Time 190.00
C          -0.96168215        0.00000000       -0.00000000
C           0.96168257       -0.00000000       -0.00000000
H          -1.52632642        0.89519438        0.32822816
H          -1.52632642       -0.89519438       -0.32822816
H           1.52632393        0.89519408       -0.32822788
H           1.52632393       -0.89519408        0.32822789
6
MD Time 200.00
C          -0.95705207        0.00000000       -0.00000000
C           0.95705251       -0.00000000       -0.00000000
H          -1.52011847        0.89828281        0.32479748
H          -1.52011847       -0.89828281       -0.32479748
H           1.52011581        0.89828257       -0.32479721
H           1.52011581       -0.89828257        0.32479721
6
MD Time 210.00
C          -0.95216985        0.00000000       -0.00000000
C           0.95217033       -0.00000000       -0.00000000
H          -1.51355296        0.90127148        0.32106554
H          -1.51355296       -0.90127148       -0.32106554
H           1.51355011        0.90127130       -0.32106527
H           1.51355011       -0.90127129        0.32106527
6
MD Time 220.00
C          -0.94703156        0.00000000       -0.00000000
C           0.94703205       -0.00000000       -0.00000000
H          -1.50663589        0.90414521        0.31702415
H          -1.50663589       -0.90414521       -0.31702415
H           1.50663292        0.90414513       -0.31702390
H           1.50663292       -0.90414513        0.31702391
6
MD Time 230.00
C          -0.94163283        0.00000000       -0.00000000
C           0.94163336       -0.00000000       -0.00000000
H          -1.49937531        0.90689183        0.31266633
H          -1.49937532       -0.90689184       -0.31266633
H           1.49937220        0.90689185       -0.31266609
H           1.49937220       -0.90689185        0.31266610
6
MD Time 240.00
C          -0.93596897        0.00000000       -0.00000000
C           0.93596951       -0.00000000       -0.00000000
H          -1.49178114        0.90950212        0.30798624
H          -1.49178114       -0.90950212       -0.30798623
H           1.49177794        0.90950228       -0.30798603
H           1.49177794       -0.90950228        0.30798604
6
MD Time 250.00
C          -0.93003491        0.00000000       -0.00000000
C           0.93003546       -0.00000000       -0.00000000
H          -1.48386525        0.91196991        0.30297922
H          -1.48386526       -0.91196991       -0.30297922
H           1.48386195        0.91197020       -0.30297905
H           1.48386195       -0.91197020        0.30297905
6
MD Time 260.00
C          -0.92382528        0.00000000       -0.00000000
C           0.92382584       -0.00000000       -0.00000000
H          -1.47564128        0.91429197        0.29764176
H          -1.47564128       -0.91429197       -0.29764176
H           1.47563793        0.91429244       -0.29764163
H           1.47563793       -0.91429244        0.29764164
6
MD Time 270.00
C          -0.91733446        0.00000000       -0.00000000
C           0.91733503       -0.00000000       -0.00000000
H          -1.46712465        0.91646801        0.29197144
H          -1.46712465       -0.91646801       -0.29197143
H           1.46712124        0.91646864       -0.29197134
H           1.46712124       -0.91646864        0.29197135
6
MD Time 280.00
C          -0.91055662        0.00000000       -0.00000000
C           0.91055719       -0.00000000       -0.00000000
H          -1.45833231        0.91850044        0.28596683
H          -1.45833232       -0.91850044       -0.28596682
H           1.45832891        0.91850127       -0.28596679
H           1.45832891       -0.91850127        0.28596680
6
MD Time 290.00
C          -0.90348580        0.00000000       -0.00000000
C           0.90348637       -0.00000000       -0.00000000
H          -1.44928277        0.92039427        0.27962752
H          -1.44928277       -0.92039427       -0.27962752
H           1.44927934        0.92039529       -0.27962753
H           1.44927934       -0.92039529        0.27962753
6
MD Time 300.00
C          -0.89611598        0.00000000       -0.00000000
C           0.89611655       -0.00000000       -0.00000000
H          -1.43999571        0.92215678        0.27295394
H          -1.43999572       -0.92215679       -0.27295393
H           1.43999233        0.92215803       -0.27295400
H           1.43999233       -0.92215803        0.27295401
6
MD Time 310.00
C          -0.88844119        0.00000000       -0.00000000
C           0.88844176       -0.00000000       -0.00000000
H          -1.43049202        0.92379733        0.26594733
H          -1.43049202       -0.92379734       -0.26594732
H           1.43048865        0.92379877       -0.26594744
H           1.43048865       -0.92379877        0.26594745
6
MD Time 320.00
C          -0.88045559        0.00000000       -0.00000000
C           0.88045614       -0.00000000       -0.00000000
H          -1.42079336        0.92532688        0.25860963
H          -1.42079336       -0.92532689       -0.25860962
H           1.42079007        0.92532855       -0.25860980
H           1.42079007       -0.92532855        0.25860981
6
MD Time 330.00
C          -0.87215361        0.00000000       -0.00000000
C           0.87215416       -0.00000000       -0.00000000
H          -1.41092214        0.92675774        0.25094339
H          -1.41092215       -0.92675774       -0.25094338
H           1.41091889        0.92675959       -0.25094361
H           1.41091889       -0.92675959        0.25094362
6
MD Time 340.00
C          -0.86353013        0.00000000       -0.00000000
C           0.86353066       -0.00000000       -0.00000000
H          -1.40090107        0.92810297        0.24295169
H          -1.40090107       -0.92810297       -0.24295168
H           1.40089793        0.92810504       -0.24295198
H           1.40089793       -0.92810505        0.24295198
6
MD Time 350.00
C          -0.85458058        0.00000000       -0.00000000
C           0.85458109       -0.00000000       -0.00000000
H          -1.39075307        0.92937609        0.23463809
H          -1.39075308       -0.92937609       -0.23463808
H           1.39075000        0.92937833       -0.23463841
H           1.39075000       -0.92937833        0.23463842
6
MD Time 360.00
C          -0.84530119        0.00000000       -0.00000000
C           0.84530168       -0.00000000       -0.00000000
H          -1.38050083        0.93059038        0.22600649
H          -1.38050084       -0.93059039       -0.22600647
H           1.38049789        0.93059282       -0.22600687
H           1.38049789       -0.93059282        0.22600687
6
MD Time 370.00
C          -0.83568917        0.00000000       -0.00000000
C           0.83568965       -0.00000000       -0.00000000
H          -1.37016668        0.93175856        0.21706119
H          -1.37016668       -0.93175856       -0.21706117
H           1.37016382        0.93176113       -0.21706160
H           1.37016382       -0.93176114        0.21706161
6
MD Time 380.00
C          -0.82574301        0.00000000       -0.00000000
C           0.82574347       -0.00000000       -0.00000000
H          -1.35977213        0.93289205        0.20780679
H          -1.35977213       -0.93289205       -0.20780678
H           1.35976940        0.93289478       -0.20780726
H           1.35976940       -0.93289478        0.20780727
6
MD Time 390.00
C          -0.81546273        0.00000000       -0.00000000
C           0.81546317       -0.00000000       -0.00000000
H          -1.34933779        0.93400067        0.19824829
H          -1.34933779       -0.93400067       -0.19824827
H           1.34933517        0.93400349       -0.19824878
H           1.34933517       -0.93400350        0.19824879
6
MD Time 400.00
C          -0.80485023        0.00000000       -0.00000000
C           0.80485064       -0.00000000       -0.00000000
H          -1.33888293        0.93509197        0.18839101
H          -1.33888293       -0.93509197       -0.18839100
H           1.33888045        0.93509489       -0.18839154
H           1.33888045       -0.93509489        0.18839155
6
MD Time 410.00
C          -0.79390964        0.00000000       -0.00000000
C           0.79391003       -0.00000000       -0.00000000
H          -1.32842540        0.93617095        0.17824080
H          -1.32842540       -0.93617094       -0.17824079
H           1.32842303        0.93617392       -0.17824135
H           1.32842303       -0.93617392        0.17824136
6
MD Time 420.00
C          -0.78264779        0.00000000       -0.00000000
C           0.78264817       -0.00000000       -0.00000000
H          -1.31798129        0.93723956        0.16780406
H          -1.31798129       -0.93723956       -0.16780404
H           1.31797905        0.93724256       -0.16780464
H           1.31797905       -0.93724256        0.16780465
6
MD Time 430.00
C          -0.77107468        0.00000000       -0.00000000
C           0.77107503       -0.00000000       -0.00000000
H          -1.30756487        0.93829651        0.15708794
H          -1.30756487       -0.93829651       -0.15708793
H           1.30756276        0.93829950       -0.15708853
H           1.30756276       -0.93829950        0.15708855
6
MD Time 440.00
C          -0.75920400        0.00000000       -0.00000000
C           0.75920434       -0.00000000       -0.00000000
H          -1.29718844        0.93933704        0.14610051
H          -1.29718844       -0.93933703       -0.14610050
H           1.29718645        0.93933998       -0.14610112
H           1.29718645       -0.93933999        0.14610113
6
MD Time 450.00
C          -0.74705381       -0.00000000       -0.00000000
C           0.74705412       -0.00000000       -0.00000000
H          -1.28686232        0.94035283        0.13485096
H          -1.28686232       -0.94035283       -0.13485095
H           1.28686045        0.94035570       -0.13485157
H           1.28686045       -0.94035571        0.13485159
6
MD Time 460.00
C          -0.73464716       -0.00000000       -0.00000000
C           0.73464745       -0.00000000       -0.00000000
H          -1.27659483        0.94133212        0.12334983
H          -1.27659483       -0.94133212       -0.12334982
H           1.27659308        0.94133488       -0.12335045
H           1.27659308       -0.94133489        0.12335046
6
MD Time 470.00
C          -0.72201293        0.00000000       -0.00000000
C           0.72201320       -0.00000000       -0.00000000
H          -1.26639245        0.94225983        0.11160926
H          -1.26639245       -0.94225983       -0.11160925
H           1.26639081        0.94226246       -0.11160987
H           1.26639081       -0.94226245        0.11160989
6
MD Time 480.00
C          -0.70918662        0.00000000       -0.00000000
C           0.70918687       -0.00000000       -0.00000000
H          -1.25625996        0.94311792        0.09964320
H          -1.25625996       -0.94311791       -0.09964319
H           1.25625844        0.94312037       -0.09964381
H           1.25625843       -0.94312037        0.09964383
6
MD Time 490.00
C          -0.69621129        0.00000000       -0.00000000
C           0.69621153       -0.00000000       -0.00000000
H          -1.24620075        0.94388580        0.08746766
H          -1.24620076       -0.94388580       -0.08746765
H           1.24619934        0.94388807       -0.08746827
H           1.24619933       -0.94388805        0.08746828
6
MD Time 500.00
C          -0.68313850        0.00000000       -0.00000000
C           0.68313872       -0.00000000        0.00000000
H          -1.23621716        0.94454095        0.07510089
H          -1.23621718       -0.94454096       -0.07510088
H           1.23621587        0.94454300       -0.07510149
H           1.23621585       -0.94454298        0.07510151
6
MD Time 510.00
C          -0.67002931        0.00000000       -0.00000000
C           0.67002951       -0.00000000        0.00000000
H          -1.22631096        0.94505955        0.06256353
H          -1.22631097       -0.94505955       -0.06256353
H           1.22630977        0.94506134       -0.06256413
H           1.22630975       -0.94506132        0.06256414
6
MD Time 520.00
C          -0.65695517        0.00000000       -0.00000000
C           0.65695536       -0.00000000        0.00000000
H          -1.21648382        0.94541723        0.04987874
H          -1.21648383       -0.94541724       -0.04987875
H           1.21648273        0.94541876       -0.04987934
H           1.21648272       -0.94541874        0.04987935
6
MD Time 530.00
C          -0.64399884        0.00000000       -0.00000000
C           0.64399901       -0.00000000        0.00000000
H          -1.20673798        0.94559000        0.03707223
H          -1.20673800       -0.94559001       -0.03707224
H           1.20673700        0.94559125       -0.03707282
H           1.20673698       -0.94559123        0.03707283
6
MD Time 540.00
C          -0.63125496        0.00000000       -0.00000000
C           0.63125511       -0.00000000        0.00000000
H          -1.19707690        0.94555505        0.02417222
H          -1.19707692       -0.94555506       -0.02417223
H           1.19707604        0.94555601       -0.02417280
H           1.19707602       -0.94555599        0.02417282
6
MD Time 550.00
C          -0.61883039        0.00000000       -0.00000000
C           0.61883052       -0.00000000        0.00000000
H          -1.18750601        0.94529179        0.01120936
H          -1.18750604       -0.94529180       -0.01120937
H           1.18750526        0.94529245       -0.01120994
H           1.18750524       -0.94529242        0.01120995
6
MD Time 560.00
C          -0.60684398        0.00000000       -0.00000000
C           0.60684409       -0.00000000        0.00000000
H          -1.17803344        0.94478272       -0.00178346
H          -1.17803346       -0.94478273        0.00178345
H           1.17803280        0.94478308        0.00178290
H           1.17803278       -0.94478305       -0.00178289
6
MD Time 570.00
C          -0.59542577        0.00000000       -0.00000000
C           0.59542586       -0.00000000        0.00000000
H          -1.16867081        0.94401449       -0.01477140
H          -1.16867084       -0.94401451        0.01477139
H           1.16867029        0.94401454        0.01477084
H           1.16867027       -0.94401451       -0.01477084
6
MD Time 580.00
C          -0.58471513        0.00000000       -0.00000000
C           0.58471520       -0.00000000        0.00000000
H          -1.15943400        0.94297881       -0.02771798
H          -1.15943403       -0.94297883        0.02771796
H           1.15943361        0.94297856        0.02771743
H           1.15943358       -0.94297853       -0.02771742
6
MD Time 590.00
C          -0.57485803        0.00000000       -0.00000000
C           0.57485808       -0.00000000        0.00000000
H          -1.15034383        0.94167339       -0.04058551
H          -1.15034386       -0.94167340        0.04058550
H           1.15034356        0.94167284        0.04058497
H           1.15034354       -0.94167281       -0.04058496
6
MD Time 600.00
C          -0.56600300        0.00000000       -0.00000000
C           0.56600303       -0.00000000        0.00000000
H          -1.14142671        0.94010286       -0.05333561
H          -1.14142674       -0.94010287        0.05333559
H           1.14142658        0.94010202        0.05333508
H           1.14142655       -0.94010199       -0.05333507
6
MD Time 610.00
C          -0.55829597        0.00000000       -0.00000000
C           0.55829597       -0.00000000        0.00000000
H          -1.13271514        0.93827961       -0.06592971
H          -1.13271517       -0.93827962        0.06592968
H           1.13271515        0.93827849        0.06592918
H           1.13271512       -0.93827847       -0.06592918
6
MD Time 620.00
C          -0.55187410        0.00000000       -0.00000000
C           0.55187408       -0.00000000        0.00000000
H          -1.12424808        0.93622457       -0.07832964
H          -1.12424810       -0.93622458        0.07832962
H           1.12424823        0.93622320        0.07832913
H           1.12424821       -0.93622318       -0.07832913
6
MD Time 630.00
C          -0.54685892        0.00000000        0.00000000
C           0.54685887       -0.00000000        0.00000000
H          -1.11607114        0.93396790       -0.09049830
H          -1.11607117       -0.93396791        0.09049828
H           1.11607145        0.93396629        0.09049780
H           1.11607143       -0.93396627       -0.09049780
6
MD Time 640.00
C          -0.54334944        0.00000000        0.00000000
C           0.54334936       -0.00000000        0.00000000
H          -1.10823661        0.93154950       -0.10240025
H          -1.10823664       -0.93154950        0.10240022
H           1.10823708        0.93154766        0.10239976
H           1.10823706       -0.93154765       -0.10239976
6
MD Time 650.00
C          -0.54141587        0.00000000        0.00000000
C           0.54141577       -0.00000000        0.00000000
H          -1.10080322        0.92901931       -0.11400235
H          -1.10080324       -0.92901932        0.11400232
H           1.10080385        0.92901728        0.11400188
H           1.10080384       -0.92901727       -0.11400188
6
MD Time 660.00
C          -0.54109481        0.00000000        0.00000000
C           0.54109468       -0.00000000        0.00000000
H          -1.09383565        0.92643743       -0.12527447
H          -1.09383567       -0.92643743        0.12527444
H           1.09383645        0.92643523        0.12527402
H           1.09383644       -0.92643523       -0.12527402
6
MD Time 670.00
C          -0.54238647       -0.00000000        0.00000000
C           0.54238631       -0.00000000        0.00000000
H          -1.08740382        0.92387370       -0.13619004
H          -1.08740384       -0.92387370        0.13619001
H           1.08740481        0.92387136        0.13618961
H           1.08740480       -0.92387136       -0.13618961
6
MD Time 680.00
C          -0.54525443       -0.00000000        0.00000000
C           0.54525423        0.00000000        0.00000000
H          -1.08158183        0.92140694       -0.14672662
H          -1.08158185       -0.92140694        0.14672659
H           1.08158301        0.92140450        0.14672622
H           1.08158300       -0.92140450       -0.14672622
6
MD Time 690.00
C          -0.54962791       -0.00000000        0.00000000
C           0.54962768        0.00000000        0.00000000
H          -1.07644656        0.91912358       -0.15686634
H          -1.07644658       -0.91912357        0.15686630
H           1.07644793        0.91912106        0.15686596
H           1.07644793       -0.91912107       -0.15686597
6
MD Time 700.00
C          -0.55540632       -0.00000000        0.00000000
C           0.55540606        0.00000000        0.00000000
H          -1.07207595        0.91711557       -0.16659615
H          -1.07207596       -0.91711557        0.16659611
H           1.07207751        0.91711301        0.16659581
H           1.07207751       -0.91711302       -0.16659581
6
MD Time 710.00
C          -0.56246544       -0.00000000        0.00000000
C           0.56246514        0.00000000        0.00000000
H          -1.06854688        0.91547772       -0.17590791
H          -1.06854690       -0.91547771        0.17590787
H           1.06854866        0.91547514        0.17590761
H           1.06854866       -0.91547515       -0.17590761
6
MD Time 720.00
C          -0.57066438       -0.00000000        0.00000000
C           0.57066405        0.00000000        0.00000000
H          -1.06593292        0.91430429       -0.18479814
H          -1.06593294       -0.91430428        0.18479809
H           1.06593490        0.91430172        0.18479787
H           1.06593490       -0.91430174       -0.18479788
6
MD Time 730.00
C          -0.57985283       -0.00000000        0.00000000
C           0.57985247        0.00000000        0.00000000
H          -1.06430175        0.91368511       -0.19326748
H          -1.06430177       -0.91368509        0.19326744
H           1.06430394        0.91368258        0.19326727
H           1.06430394       -0.91368260       -0.19326727
6
MD Time 740.00
C          -0.58987760       -0.00000000        0.00000000
C           0.58987720        0.00000000        0.00000000
H          -1.06371270        0.91370128       -0.20131991
H          -1.06371271       -0.91370126        0.20131986
H           1.06371510        0.91369883        0.20131975
H           1.06371510       -0.91369885       -0.20131975
6
MD Time 750.00
C          -0.60058829       -0.00000000        0.00000000
C           0.60058785        0.00000000        0.00000000
H          -1.06421440        0.91442094       -0.20896162
H          -1.06421441       -0.91442091        0.20896157
H           1.06421700        0.91441858        0.20896151
H           1.06421700       -0.91441860       -0.20896152
6
MD Time 760.00
C          -0.61184177       -0.00000000        0.00000000
C           0.61184130        0.00000000        0.00000000
H          -1.06584282        0.91589512       -0.21619974
H          -1.06584283       -0.91589509        0.21619969
H           1.06584562        0.91589287        0.21619969
H           1.06584563       -0.91589290       -0.21619970
6
MD Time 770.00
C          -0.62350531       -0.00000000        0.00000000
C           0.62350480        0.00000000        0.00000000
H          -1.06861985        0.91815438       -0.22304106
H          -1.06861986       -0.91815435        0.22304101
H           1.06862284        0.91815226        0.22304108
H           1.06862285       -0.91815229       -0.22304108
6
MD Time 780.00
C          -0.63545861       -0.00000000        0.00000000
C           0.63545808        0.00000000        0.00000000
H          -1.07255247        0.92120629       -0.22949072
H          -1.07255247       -0.92120626        0.22949067
H           1.07255564        0.92120432        0.22949081
H           1.07255565       -0.92120435       -0.22949081
6
MD Time 790.00
C          -0.64759479       -0.00000000        0.00000000
C           0.64759423        0.00000000        0.00000000
H          -1.07763264        0.92503409       -0.23555121
H          -1.07763265       -0.92503406        0.23555115
H           1.07763599        0.92503227        0.23555135
H           1.07763599       -0.92503230       -0.23555136
6
MD Time 800.00
C          -0.65982053       -0.00000000        0.00000000
C           0.65981994        0.00000000        0.00000000
H          -1.08383788        0.92959665       -0.24122154
H          -1.08383788       -0.92959662        0.24122148
H           1.08384139        0.92959499        0.24122175
H           1.08384139       -0.92959501       -0.24122176
6
MD Time 810.00
C          -0.67205564       -0.00000000        0.00000000
C           0.67205503        0.00000000        0.00000000
H          -1.09113235        0.93482966       -0.24649691
H          -1.09113236       -0.93482964        0.24649686
H           1.09113600        0.93482816        0.24649720
H           1.09113600       -0.93482818       -0.24649720
6
MD Time 820.00
C          -0.68423223       -0.00000000        0.00000000
C           0.68423160        0.00000000        0.00000000
H          -1.09946843        0.94064802       -0.25136866
H          -1.09946844       -0.94064800        0.25136860
H           1.09947221        0.94064667        0.25136901
H           1.09947221       -0.94064669       -0.25136901
6
MD Time 830.00
C          -0.69629356       -0.00000000        0.00000000
C           0.69629291        0.00000000        0.00000000
H          -1.10878859        0.94694901       -0.25582457
H          -1.10878860       -0.94694899        0.25582451
H           1.10879247        0.94694780        0.25582498
H           1.10879247       -0.94694782       -0.25582498
6
MD Time 840.00
C          -0.70819285       -0.00000000        0.00000000
C           0.70819219        0.00000000        0.00000000
H          -1.11902731        0.95361614       -0.25984947
H          -1.11902733       -0.95361613        0.25984940
H           1.11903128        0.95361507        0.25984994
H           1.11903128       -0.95361508       -0.25984993
6
MD Time 850.00
C          -0.71989203       -0.00000000        0.00000000
C           0.71989136        0.00000000        0.00000001
H          -1.13011313        0.96052325       -0.26342600
H          -1.13011314       -0.96052324        0.26342594
H           1.13011715        0.96052230        0.26342652
H           1.13011715       -0.96052231       -0.26342652
6
MD Time 860.00
C          -0.73136053       -0.00000000       -0.00000000
C           0.73135985       -0.00000000        0.00000001
H          -1.14197043        0.96753858       -0.26653554
H          -1.14197045       -0.96753857        0.26653547
H           1.14197449        0.96753773        0.26653611
H           1.14197448       -0.96753773       -0.26653611
6
MD Time 870.00
C          -0.74257418       -0.00000000       -0.00000000
C           0.74257350       -0.00000000        0.00000001
H          -1.15452117        0.97452859       -0.26915904
H          -1.15452120       -0.97452858        0.26915898
H           1.15452524        0.97452783        0.26915966
H           1.15452524       -0.97452782       -0.26915966
6
MD Time 880.00
C          -0.75351418        0.00000000       -0.00000000
C           0.75351350       -0.00000000        0.00000001
H          -1.16768630        0.98136143       -0.27127795
H          -1.16768632       -0.98136143        0.27127788
H           1.16769035        0.98136074        0.27127860
H           1.16769034       -0.98136073       -0.27127860
6
MD Time 890.00
C          -0.76416626        0.00000000       -0.00000000
C           0.76416559       -0.00000000        0.00000001
H          -1.18138693        0.98790984       -0.27287486
H          -1.18138695       -0.98790984        0.27287480
H           1.18139094        0.98790921        0.27287556
H           1.18139093       -0.98790919       -0.27287556
6
MD Time 900.00
C          -0.77451990        0.00000000       -0.00000000
C           0.77451924       -0.00000000        0.00000001
H          -1.19554533        0.99405352       -0.27393425
H          -1.19554536       -0.99405352        0.27393419
H           1.19554928        0.99405292        0.27393497
H           1.19554927       -0.99405290       -0.27393497
6
MD Time 910.00
C          -0.78456764        0.00000000       -0.00000000
C           0.78456700       -0.00000000        0.00000001
H          -1.21008566        0.99968097       -0.27444288
H          -1.21008569       -0.99968098        0.27444282
H           1.21008953        0.99968040        0.27444363
H           1.21008951       -0.99968037       -0.27444363
6
MD Time 920.00
C          -0.79430458        0.00000000       -0.00000000
C           0.79430396       -0.00000000        0.00000001
H          -1.22493452        1.00469087       -0.27439021
H          -1.22493455       -1.00469089        0.27439014
H           1.22493828        1.00469031        0.27439097
H           1.22493826       -1.00469028       -0.27439098
6
MD Time 930.00
C          -0.80372787        0.00000000       -0.00000000
C           0.80372726       -0.00000000        0.00000001
H          -1.24002133        1.00899302       -0.27376862
H          -1.24002137       -1.00899304        0.27376854
H           1.24002496        1.00899246        0.27376939
H           1.24002494       -1.00899241       -0.27376940
6
MD Time 940.00
C          -0.81283629        0.00000000       -0.00000000
C           0.81283571       -0.00000000        0.00000001
H          -1.25527866        1.01250893       -0.27257356
H          -1.25527870       -1.01250895        0.27257348
H           1.25528214        1.01250835        0.27257434
H           1.25528212       -1.01250830       -0.27257435
6
MD Time 950.00
C          -0.82162999        0.00000000       -0.00000000
C           0.82162944       -0.00000000        0.00000001
H          -1.27064237        1.01517216       -0.27080362
H          -1.27064241       -1.01517219        0.27080354
H           1.27064567        1.01517155        0.27080441
H           1.27064565       -1.01517150       -0.27080442
6
MD Time 960.00
C          -0.83011012        0.00000000       -0.00000000
C           0.83010960       -0.00000000        0.00000001
H          -1.28605174        1.01692852       -0.26846056
H          -1.28605179       -1.01692855        0.26846047
H           1.28605485        1.01692788        0.26846134
H           1.28605484       -1.01692783       -0.26846136
6
MD Time 970.00
C          -0.83827862        0.00000000       -0.00000000
C           0.83827814       -0.00000000        0.00000001
H          -1.30144960        1.01773607       -0.26554921
H          -1.30144964       -1.01773610        0.26554912
H           1.30145250        1.01773538        0.26555000
H           1.30145248       -1.01773533       -0.26555001
6
MD Time 980.00
C          -0.84613801        0.00000000       -0.00000000
C           0.84613757       -0.00000000        0.00000001
H          -1.31678232        1.01756508       -0.26207748
H          -1.31678237       -1.01756512        0.26207739
H           1.31678500        1.01756434        0.26207826
H           1.31678498       -1.01756429       -0.26207828
6
MD Time 990.00
C          -0.85369120        0.00000000       -0.00000000
C           0.85369080       -0.00000000        0.00000001
H          -1.33199997        1.01639799       -0.25805621
H          -1.33200001       -1.01639803        0.25805612
H           1.33200241        1.01639720        0.25805699
H           1.33200239       -1.01639714       -0.25805701
6
MD Time 1000.00
C          -0.86094132        0.00000000       -0.00000000
C           0.86094096       -0.00000000        0.00000001
H          -1.34705630        1.01422930       -0.25349911
H          -1.34705634       -1.01422934        0.25349901
H           1.34705849        1.01422846        0.25349988
H           1.34705847       -1.01422840       -0.25349991
6
MD Time 1010.00
C          -0.86789155        0.00000000       -0.00000000
C           0.86789124       -0.00000000        0.00000001
H          -1.36190891        1.01106557       -0.24842265
H          -1.36190895       -1.01106561        0.24842254
H           1.36191084        1.01106467        0.24842341
H           1.36191082       -1.01106461       -0.24842344
6
MD Time 1020.00
C          -0.87454504        0.00000000       -0.00000000
C           0.87454477       -0.00000000        0.00000001
H          -1.37651933        1.00692532       -0.24284591
H          -1.37651937       -1.00692535        0.24284580
H           1.37652100        1.00692437        0.24284667
H           1.37652098       -1.00692431       -0.24284669
6
MD Time 1030.00
C          -0.88090472        0.00000000       -0.00000000
C           0.88090449       -0.00000000        0.00000001
H          -1.39085319        1.00183906       -0.23679050
H          -1.39085323       -1.00183909        0.23679038
H           1.39085459        1.00183806        0.23679124
H           1.39085457       -1.00183799       -0.23679128
6
MD Time 1040.00
C          -0.88697322        0.00000000       -0.00000000
C           0.88697304       -0.00000000        0.00000001
H          -1.40488038        0.99584926       -0.23028039
H          -1.40488041       -0.99584930        0.23028026
H           1.40488149        0.99584823        0.23028112
H           1.40488148       -0.99584816       -0.23028116
6
MD Time 1050.00
C          -0.89275275        0.00000000       -0.00000000
C           0.89275262       -0.00000000        0.00000002
H          -1.41857523        0.98901037       -0.22334176
H          -1.41857527       -0.98901041        0.22334163
H           1.41857607        0.98900930        0.22334249
H           1.41857605       -0.98900924       -0.22334253
6
MD Time 1060.00
C          -0.89824502        0.00000000       -0.00000000
C           0.89824492       -0.00000000        0.00000002
H          -1.43191676        0.98138868       -0.21600280
H          -1.43191679       -0.98138871        0.21600266
H           1.43191732        0.98138759        0.21600353
H           1.43191731       -0.98138753       -0.21600357
6
MD Time 1070.00
C          -0.90345110        0.00000000       -0.00000000
C           0.90345105       -0.00000000        0.00000002
H          -1.44488880        0.97306219       -0.20829350
H          -1.44488883       -0.97306222        0.20829336
H           1.44488912        0.97306111        0.20829423
H           1.44488910       -0.97306105       -0.20829428
6
MD Time 1080.00
C          -0.90837140        0.00000000       -0.00000000
C           0.90837139       -0.00000000        0.00000002
H          -1.45748022        0.96412033       -0.20024535
H          -1.45748025       -0.96412036        0.20024520
H           1.45748033        0.96411931        0.20024609
H           1.45748032       -0.96411925       -0.20024614
6
MD Time 1090.00
C          -0.91300560        0.00000000        0.00000000
C           0.91300562       -0.00000000        0.00000002
H          -1.46968499        0.95466347       -0.19189100
H          -1.46968502       -0.95466350        0.19189084
H           1.46968488        0.95466251        0.19189175
H           1.46968488       -0.95466246       -0.19189181
6
MD Time 1100.00
C          -0.91735259        0.00000000        0.00000000
C           0.91735264       -0.00000000        0.00000002
H          -1.48150215        0.94480214       -0.18326389
H          -1.48150217       -0.94480217        0.18326373
H           1.48150187        0.94480128        0.18326468
H           1.48150186       -0.94480123       -0.18326474
6
MD Time 1110.00
C          -0.92141050        0.00000000        0.00000000
C           0.92141059       -0.00000000        0.00000002
H          -1.49293573        0.93465605       -0.17439782
H          -1.49293575       -0.93465608        0.17439765
H           1.49293523        0.93465527        0.17439862
H           1.49293523       -0.93465522       -0.17439869
6
MD Time 1120.00
C          -0.92517671        0.00000000        0.00000000
C           0.92517682       -0.00000000        0.00000002
H          -1.50399429        0.92435259       -0.16532635
H          -1.50399430       -0.92435261        0.16532617
H           1.50399363        0.92435194        0.16532717
H           1.50399364       -0.92435189       -0.16532725
6
MD Time 1130.00
C          -0.92864793       -0.00000000        0.00000000
C           0.92864807       -0.00000000        0.00000002
H          -1.51469055        0.91402516       -0.15608229
H          -1.51469056       -0.91402517        0.15608210
H           1.51468970        0.91402461        0.15608314
H           1.51468971       -0.91402457       -0.15608322
6
MD Time 1140.00
C          -0.93182034       -0.00000000        0.00000000
C           0.93182051       -0.00000000        0.00000002
H          -1.52504040        0.90381083       -0.14669709
H          -1.52504041       -0.90381085        0.14669690
H           1.52503941        0.90381043        0.14669798
H           1.52503942       -0.90381040       -0.14669806
6
MD Time 1150.00
C          -0.93468974       -0.00000000        0.00000000
C           0.93468993       -0.00000000        0.00000002
H          -1.53506198        0.89384791       -0.13720024
H          -1.53506199       -0.89384792        0.13720004
H           1.53506081        0.89384764        0.13720115
H           1.53506083       -0.89384762       -0.13720124
6
MD Time 1160.00
C          -0.93725177       -0.00000000        0.00000000
C           0.93725198        0.00000000        0.00000002
H          -1.54477419        0.88427283       -0.12761864
H          -1.54477419       -0.88427284        0.12761844
H           1.54477290        0.88427273        0.12761959
H           1.54477292       -0.88427271       -0.12761968
6
MD Time 1170.00
C          -0.93950219       -0.00000000        0.00000000
C           0.93950242        0.00000000        0.00000002
H          -1.55419524        0.87521712       -0.11797615
H          -1.55419523       -0.87521713        0.11797594
H           1.55419382        0.87521719        0.11797714
H           1.55419384       -0.87521718       -0.11797723
6
MD Time 1180.00
C          -0.94143716       -0.00000000        0.00000000
C           0.94143741        0.00000000        0.00000002
H          -1.56334076        0.86680396       -0.10829312
H          -1.56334075       -0.86680397        0.10829290
H           1.56333927        0.86680423        0.10829415
H           1.56333930       -0.86680422       -0.10829425
6
MD Time 1190.00
C          -0.94305356       -0.00000000        0.00000000
C           0.94305382        0.00000000        0.00000002
H          -1.57222211        0.85914503       -0.09858617
H          -1.57222211       -0.85914504        0.09858595
H           1.57222053        0.85914549        0.09858725
H           1.57222056       -0.85914549       -0.09858734
6
MD Time 1200.00
C          -0.94434929       -0.00000000        0.00000000
C           0.94434956        0.00000000        0.00000002
H          -1.58084446        0.85233740       -0.08886807
H          -1.58084445       -0.85233741        0.08886784
H           1.58084282        0.85233807        0.08886919
H           1.58084286       -0.85233807       -0.08886929
6
MD Time 1210.00
C          -0.94532353       -0.00000000        0.00000000
C           0.94532381        0.00000000        0.00000002
H          -1.58920525        0.84646096       -0.07914786
H          -1.58920523       -0.84646096        0.07914762
H           1.58920354        0.84646182        0.07914903
H           1.58920358       -0.84646183       -0.07914912
6
MD Time 1220.00
C          -0.94597699       -0.00000000        0.00000000
C           0.94597727        0.00000000        0.00000003
H          -1.59729286        0.84157635       -0.06943114
H          -1.59729284       -0.84157635        0.06943090
H           1.59729112        0.84157742        0.06943236
H           1.59729116       -0.84157743       -0.06943246
6
MD Time 1230.00
C          -0.94631203       -0.00000000        0.00000000
C           0.94631233        0.00000000        0.00000003
H          -1.60508582        0.83772371       -0.05972057
H          -1.60508581       -0.83772371        0.05972032
H           1.60508403        0.83772497        0.05972184
H           1.60508407       -0.83772498       -0.05972194
6
MD Time 1240.00
C          -0.94633276       -0.00000000        0.00000000
C           0.94633306        0.00000000        0.00000003
H          -1.61255241        0.83492210       -0.05001646
H          -1.61255239       -0.83492210        0.05001621
H           1.61255061        0.83492356        0.05001779
H           1.61255065       -0.83492357       -0.05001789
6
MD Time 1250.00
C          -0.94604495       -0.00000000        0.00000000
C           0.94604525        0.00000000        0.00000003
H          -1.61965099        0.83316983       -0.04031753
H          -1.61965097       -0.83316983        0.04031727
H           1.61964914        0.83317147        0.04031890
H           1.61964919       -0.83317149       -0.04031901
6
MD Time 1260.00
C          -0.94545594       -0.00000000        0.00000000
C           0.94545624        0.00000000        0.00000003
H          -1.62633068        0.83244547       -0.03062161
H          -1.62633066       -0.83244547        0.03062135
H           1.62632884        0.83244729        0.03062305
H           1.62632889       -0.83244730       -0.03062315
6
MD Time 1270.00
C          -0.94457442       -0.00000000        0.00000000
C           0.94457473        0.00000000        0.00000003
H          -1.63253278        0.83270951       -0.02092646
H          -1.63253276       -0.83270951        0.02092620
H           1.63253089        0.83271149        0.02092796
H           1.63253094       -0.83271150       -0.02092806
6
MD Time 1280.00
C          -0.94341016       -0.00000000        0.00000000
C           0.94341048        0.00000000        0.00000003
H          -1.63819226        0.83390652       -0.01123039
H          -1.63819224       -0.83390652        0.01123012
H           1.63819032        0.83390863        0.01123194
H           1.63819037       -0.83390864       -0.01123204
6
MD Time 1290.00
C          -0.94197372       -0.00000000        0.00000000
C           0.94197404        0.00000000        0.00000003
H          -1.64323976        0.83596761       -0.00153287
H          -1.64323974       -0.83596762        0.00153260
H           1.64323779        0.83596985        0.00153448
H           1.64323784       -0.83596986       -0.00153458
6
MD Time 1300.00
C          -0.94027605       -0.00000000        0.00000000
C           0.94027639        0.00000000        0.00000003
H          -1.64760361        0.83881310        0.00816500
H          -1.64760359       -0.83881311       -0.00816527
H           1.64760154        0.83881543       -0.00816332
H           1.64760158       -0.83881544        0.00816322
6
MD Time 1310.00
C          -0.93832824       -0.00000000        0.00000000
C           0.93832860        0.00000000        0.00000003
H          -1.65121172        0.84235509        0.01786016
H          -1.65121171       -0.84235511       -0.01786044
H           1.65120955        0.84235751       -0.01785842
H           1.65120960       -0.84235751        0.01785832
6
MD Time 1320.00
C          -0.93614117       -0.00000000        0.00000000
C           0.93614155        0.00000000        0.00000003
H          -1.65399356        0.84650009        0.02754742
H          -1.65399354       -0.84650010       -0.02754770
H           1.65399130        0.84650257       -0.02754561
H           1.65399134       -0.84650257        0.02754551
6
MD Time 1330.00
C          -0.93372521       -0.00000000        0.00000000
C           0.93372561        0.00000000        0.00000003
H          -1.65588179        0.85115125        0.03721934
H          -1.65588178       -0.85115127       -0.03721962
H           1.65587940        0.85115377       -0.03721746
H           1.65587944       -0.85115376        0.03721736
6
MD Time 1340.00
C          -0.93109004       -0.00000000        0.00000000
C           0.93109046        0.00000000        0.00000003
H          -1.65681367        0.85621051        0.04686629
H          -1.65681365       -0.85621053       -0.04686658
H           1.65681114        0.85621304       -0.04686434
H           1.65681117       -0.85621304        0.04686425
6
MD Time 1350.00
C          -0.92824441       -0.00000000        0.00000000
C           0.92824486        0.00000000        0.00000003
H          -1.65673221        0.86158034        0.05647654
H          -1.65673219       -0.86158037       -0.05647683
H           1.65672956        0.86158289       -0.05647452
H           1.65672959       -0.86158287        0.05647443
6
MD Time 1360.00
C          -0.92519603       -0.00000000        0.00000000
C           0.92519650        0.00000000        0.00000003
H          -1.65558714        0.86716533        0.06603642
H          -1.65558712       -0.86716536       -0.06603671
H           1.65558431        0.86716786       -0.06603432
H           1.65558434       -0.86716784        0.06603423
6
MD Time 1370.00
C          -0.92195145       -0.00000000        0.00000000
C           0.92195194        0.00000000        0.00000003
H          -1.65333538        0.87287334        0.07553053
H          -1.65333537       -0.87287337       -0.07553082
H           1.65333247        0.87287584       -0.07552836
H           1.65333249       -0.87287581        0.07552827
6
MD Time 1380.00
C          -0.91851600       -0.00000000        0.00000000
C           0.91851650        0.00000000        0.00000003
H          -1.64994172        0.87861658        0.08494200
H          -1.64994171       -0.87861661       -0.08494229
H           1.64993874        0.87861904       -0.08493975
H           1.64993875       -0.87861901        0.08493966
6
MD Time 1390.00
C          -0.91489373       -0.00000000        0.00000000
C           0.91489424        0.00000000        0.00000003
H          -1.64537891        0.88431239        0.09425273
H          -1.64537890       -0.88431242       -0.09425301
H           1.64537586        0.88431480       -0.09425039
H           1.64537587       -0.88431476        0.09425031
6
MD Time 1400.00
C          -0.91108745       -0.00000000        0.00000000
C           0.91108796        0.00000000        0.00000003
H          -1.63962781        0.88988387        0.10344360
H          -1.63962780       -0.88988391       -0.10344389
H           1.63962474        0.88988623       -0.10344119
H           1.63962475       -0.88988619        0.10344111
6
MD Time 1410.00
C          -0.90709869       -0.00000000        0.00000000
C           0.90709921        0.00000000        0.00000003
H          -1.63267751        0.89526043        0.11249482
H          -1.63267749       -0.89526047       -0.11249511
H           1.63267437        0.89526271       -0.11249233
H           1.63267437       -0.89526266        0.11249225
6
MD Time 1420.00
C          -0.90292774       -0.00000000        0.00000000
C           0.90292827        0.00000000        0.00000003
H          -1.62452511        0.90037811        0.12138609
H          -1.62452510       -0.90037815       -0.12138637
H           1.62452197        0.90038031       -0.12138352
H           1.62452197       -0.90038026        0.12138344
6
MD Time 1430.00
C          -0.89857371       -0.00000000        0.00000000
C           0.89857424        0.00000000        0.00000003
H          -1.61517589        0.90518002        0.13009689
H          -1.61517587       -0.90518005       -0.13009716
H           1.61517270        0.90518211       -0.13009423
H           1.61517270       -0.90518206        0.13009416
6
MD Time 1440.00
C          -0.89403450       -0.00000000        0.00000000
C           0.89403503       -0.00000000        0.00000003
H          -1.60464295        0.90961653        0.13860670
H          -1.60464293       -0.90961657       -0.13860697
H           1.60463978        0.90961854       -0.13860396
H           1.60463977       -0.90961849        0.13860389
6
MD Time 1450.00
C          -0.88930693       -0.00000000        0.00000000
C           0.88930746       -0.00000000        0.00000003
H          -1.59294735        0.91364570        0.14689525
H          -1.59294733       -0.91364573       -0.14689552
H           1.59294417        0.91364759       -0.14689243
H           1.59294416       -0.91364753        0.14689237
6
MD Time 1460.00
C          -0.88438671       -0.00000000        0.00000000
C           0.88438723       -0.00000000        0.00000003
H          -1.58011783        0.91723338        0.15494274
H          -1.58011781       -0.91723341       -0.15494301
H           1.58011469        0.91723517       -0.15493984
H           1.58011468       -0.91723511        0.15493979
6
MD Time 1470.00
C          -0.87926853       -0.00000000        0.00000000
C           0.87926905       -0.00000000        0.00000003
H          -1.56619088        0.92035365        0.16273007
H          -1.56619086       -0.92035368       -0.16273033
H           1.56618777        0.92035532       -0.16272709
H           1.56618776       -0.92035527        0.16272704
6
MD Time 1480.00
C          -0.87394612       -0.00000000        0.00000000
C           0.87394662       -0.00000000        0.00000002
H          -1.55121054        0.92298900        0.17023904
H          -1.55121052       -0.92298903       -0.17023929
H           1.55120751        0.92299057       -0.17023598
H           1.55120750       -0.92299051        0.17023594
6
MD Time 1490.00
C          -0.86841228       -0.00000000       -0.00000000
C           0.86841278        0.00000000        0.00000002
H          -1.53522845        0.92513069        0.17745261
H          -1.53522843       -0.92513072       -0.17745286
H           1.53522548        0.92513214       -0.17744947
H           1.53522547       -0.92513209        0.17744944
6
MD Time 1500.00
C          -0.86265900       -0.00000000       -0.00000000
C           0.86265948        0.00000000        0.00000002
H          -1.51830364        0.92677901        0.18435511
H          -1.51830362       -0.92677904       -0.18435535
H           1.51830079        0.92678037       -0.18435190
H           1.51830078       -0.92678031        0.18435188
6
MD Time 1510.00
C          -0.85667747       -0.00000000       -0.00000000
C           0.85667793        0.00000000        0.00000002
H          -1.50050256        0.92794361        0.19093245
H          -1.50050254       -0.92794363       -0.19093268
H           1.50049981        0.92794485       -0.19092917
H           1.50049980       -0.92794479        0.19092915
6
MD Time 1520.00
C          -0.85045826       -0.00000000       -0.00000000
C           0.85045869        0.00000000        0.00000002
H          -1.48189880        0.92864365        0.19717232
H          -1.48189877       -0.92864367       -0.19717255
H           1.48189619        0.92864479       -0.19716897
H           1.48189618       -0.92864474        0.19716896
6
MD Time 1530.00
C          -0.84399136       -0.00000000       -0.00000000
C           0.84399178        0.00000000        0.00000002
H          -1.46257296        0.92890807        0.20306440
H          -1.46257293       -0.92890809       -0.20306462
H           1.46257049        0.92890912       -0.20306098
H           1.46257048       -0.92890907        0.20306098
6
MD Time 1540.00
C          -0.83726641       -0.00000000       -0.00000000
C           0.83726680        0.00000000        0.00000002
H          -1.44261228        0.92877560        0.20860047
H          -1.44261224       -0.92877562       -0.20860069
H           1.44260998        0.92877657       -0.20859700
H           1.44260997       -0.92877653        0.20859700
6
MD Time 1550.00
C          -0.83027281       -0.00000000       -0.00000000
C           0.83027316        0.00000000        0.00000002
H          -1.42211025        0.92829466        0.21377459
H          -1.42211021       -0.92829467       -0.21377480
H           1.42210813        0.92829555       -0.21377106
H           1.42210812       -0.92829550        0.21377107
6
MD Time 1560.00
C          -0.82299995       -0.00000001       -0.00000001
C           0.82300027        0.00000000        0.00000002
H          -1.40116600        0.92752303        0.21858308
H          -1.40116596       -0.92752303       -0.21858327
H           1.40116409        0.92752386       -0.21857950
H           1.40116408       -0.92752382        0.21857952
6
MD Time 1570.00
C          -0.81543752       -0.00000001       -0.00000001
C           0.81543780        0.00000000        0.00000002
H          -1.37988360        0.92652734        0.22302454
H          -1.37988356       -0.92652734       -0.22302472
H           1.37988190        0.92652811       -0.22302090
H           1.37988190       -0.92652807        0.22302093
6
MD Time 1580.00
C          -0.80757575       -0.00000001       -0.00000001
C           0.80757600        0.00000000        0.00000002
H          -1.35837111        0.92538210        0.22709970
H          -1.35837107       -0.92538210       -0.22709988
H           1.35836965        0.92538283       -0.22709602
H           1.35836964       -0.92538280        0.22709606
6
MD Time 1590.00
C          -0.79940584       -0.00000001       -0.00000001
C           0.79940604        0.00000000        0.00000002
H          -1.33673951        0.92416852        0.23081124
H          -1.33673946       -0.92416852       -0.23081140
H           1.33673828        0.92416923       -0.23080751
H           1.33673828       -0.92416920        0.23080756
6
MD Time 1600.00
C          -0.79092030       -0.00000001       -0.00000001
C           0.79092046        0.00000000        0.00000002
H          -1.31510141        0.92297283        0.23416334
H          -1.31510136       -0.92297282       -0.23416350
H           1.31510043        0.92297351       -0.23415958
H           1.31510043       -0.92297349        0.23415963
6
MD Time 1610.00
C          -0.78211352       -0.00000001       -0.00000001
C           0.78211364        0.00000001        0.00000002
H          -1.29356965        0.92188420        0.23716131
H          -1.29356960       -0.92188419       -0.23716146
H           1.29356893        0.92188486       -0.23715750
H           1.29356893       -0.92188485        0.23715757
6
MD Time 1620.00
C          -0.77298221       -0.00000001       -0.00000001
C           0.77298229        0.00000001        0.00000002
H          -1.27225575        0.92099237        0.23981090
H          -1.27225570       -0.92099235       -0.23981104
H           1.27225529        0.92099303       -0.23980705
H           1.27225530       -0.92099302        0.23980712
6
MD Time 1630.00
C          -0.76352604       -0.00000001       -0.00000001
C           0.76352607        0.00000001        0.00000002
H          -1.25126830        0.92038486        0.24211761
H          -1.25126825       -0.92038484       -0.24211774
H           1.25126812        0.92038552       -0.24211372
H           1.25126812       -0.92038552        0.24211381
6
MD Time 1640.00
C          -0.75374824       -0.00000001       -0.00000001
C           0.75374822        0.00000001        0.00000002
H          -1.23071139        0.92014404        0.24408595
H          -1.23071133       -0.92014402       -0.24408607
H           1.23071148        0.92014471       -0.24408202
H           1.23071149       -0.92014471        0.24408211
6
MD Time 1650.00
C          -0.74365626       -0.00000001       -0.00000001
C           0.74365620        0.00000001        0.00000001
H          -1.21068306        0.92034409        0.24571859
H          -1.21068301       -0.92034406       -0.24571870
H           1.21068343        0.92034477       -0.24571463
H           1.21068344       -0.92034477        0.24571472
6
MD Time 1660.00
C          -0.73326251       -0.00000001       -0.00000001
C           0.73326240        0.00000001        0.00000001
H          -1.19127396        0.92104800        0.24701564
H          -1.19127391       -0.92104797       -0.24701574
H           1.19127461        0.92104869       -0.24701164
H           1.19127462       -0.92104871        0.24701174
6
MD Time 1670.00
C          -0.72258504       -0.00000001       -0.00000001
C           0.72258487        0.00000001        0.00000001
H          -1.17256618        0.92230498        0.24797398
H          -1.17256613       -0.92230496       -0.24797407
H           1.17256710        0.92230570       -0.24796994
H           1.17256712       -0.92230571        0.24797005
6
MD Time 1680.00
C          -0.71164830       -0.00000001       -0.00000002
C           0.71164809        0.00000001        0.00000001
H          -1.15463240        0.92414823        0.24858676
H          -1.15463234       -0.92414820       -0.24858685
H           1.15463359        0.92414895       -0.24858268
H           1.15463360       -0.92414897        0.24858279
6
MD Time 1690.00
C          -0.70048392       -0.00000001       -0.00000002
C           0.70048367        0.00000001        0.00000001
H          -1.13753532        0.92659330        0.24884317
H          -1.13753527       -0.92659328       -0.24884325
H           1.13753678        0.92659403       -0.24883905
H           1.13753679       -0.92659405        0.24883916
6
MD Time 1700.00
C          -0.68913141       -0.00000001       -0.00000002
C           0.68913112        0.00000001        0.00000001
H          -1.12132748        0.92963736        0.24872841
H          -1.12132743       -0.92963735       -0.24872849
H           1.12132919        0.92963809       -0.24872424
H           1.12132920       -0.92963811        0.24872436
6
MD Time 1710.00
C          -0.67763897       -0.00000001       -0.00000002
C           0.67763863        0.00000001        0.00000001
H          -1.10605133        0.93325909        0.24822397
H          -1.10605128       -0.93325908       -0.24822404
H           1.10605328        0.93325982       -0.24821974
H           1.10605329       -0.93325983        0.24821987
6
MD Time 1720.00
C          -0.66606409       -0.00000001       -0.00000002
C           0.66606372        0.00000001        0.00000001
H          -1.09173966        0.93741949        0.24730819
H          -1.09173961       -0.93741948       -0.24730825
H           1.09174184        0.93742019       -0.24730391
H           1.09174185       -0.93742020        0.24730403
6
MD Time 1730.00
C          -0.65447428       -0.00000001       -0.00000002
C           0.65447387        0.00000001        0.00000001
H          -1.07841626        0.94206331        0.24595704
H          -1.07841621       -0.94206332       -0.24595710
H           1.07841865        0.94206399       -0.24595269
H           1.07841866       -0.94206400        0.24595282
6
MD Time 1740.00
C          -0.64294746       -0.00000001       -0.00000002
C           0.64294702        0.00000001        0.00000001
H          -1.06609676        0.94712124        0.24414505
H          -1.06609672       -0.94712125       -0.24414511
H           1.06609936        0.94712187       -0.24414064
H           1.06609937       -0.94712187        0.24414077
6
MD Time 1750.00
C          -0.63157236       -0.00000001       -0.00000002
C           0.63157189        0.00000001        0.00000001
H          -1.05478967        0.95251236        0.24184643
H          -1.05478963       -0.95251238       -0.24184648
H           1.05479245        0.95251293       -0.24184194
H           1.05479245       -0.95251293        0.24184208
6
MD Time 1760.00
C          -0.62044842       -0.00000001       -0.00000002
C           0.62044792        0.00000001        0.00000001
H          -1.04449736        0.95814701        0.23903613
H          -1.04449732       -0.95814703       -0.23903617
H           1.04450031        0.95814750       -0.23903156
H           1.04450030       -0.95814749        0.23903170
6
MD Time 1770.00
C          -0.60968543       -0.00000000       -0.00000002
C           0.60968490        0.00000001        0.00000001
H          -1.03521726        0.96392966        0.23569091
H          -1.03521723       -0.96392969       -0.23569095
H           1.03522035        0.96393007       -0.23568627
H           1.03522034       -0.96393006        0.23568640
6
MD Time 1780.00
C          -0.59940252       -0.00000000       -0.00000002
C           0.59940198        0.00000001        0.00000001
H          -1.02694286        0.96976185        0.23179036
H          -1.02694283       -0.96976189       -0.23179038
H           1.02694608        0.96976216       -0.23178562
H           1.02694607       -0.96976214        0.23178576
6
MD Time 1790.00
C          -0.58972651       -0.00000000       -0.00000002
C           0.58972595        0.00000000        0.00000001
H          -1.01966477        0.97554483        0.22731765
H          -1.01966474       -0.97554488       -0.22731767
H           1.01966809        0.97554503       -0.22731283
H           1.01966807       -0.97554500        0.22731296
6
MD Time 1800.00
C          -0.58078941       -0.00000000       -0.00000002
C           0.58078884        0.00000000        0.00000001
H          -1.01337157        0.98118203        0.22226024
H          -1.01337154       -0.98118209       -0.22226025
H           1.01337497        0.98118211       -0.22225533
H           1.01337495       -0.98118207        0.22225546
6
MD Time 1810.00
C          -0.57272506       -0.00000000       -0.00000002
C           0.57272447        0.00000000        0.00000001
H          -1.00805068        0.98658124        0.21661030
H          -1.00805066       -0.98658130       -0.21661031
H           1.00805415        0.98658118       -0.21660530
H           1.00805412       -0.98658113        0.21660544
6
MD Time 1820.00
C          -0.56566484       -0.00000000       -0.00000003
C           0.56566425        0.00000000        0.00000001
H          -1.00368899        0.99165638        0.21036501
H          -1.00368897       -0.99165644       -0.21036502
H           1.00369250        0.99165618       -0.21035992
H           1.00369247       -0.99165612        0.21036006
6
MD Time 1830.00
C          -0.55973272       -0.00000000       -0.00000003
C           0.55973213        0.00000000        0.00000001
H          -1.00027341        0.99632906        0.20352661
H          -1.00027339       -0.99632913       -0.20352661
H           1.00027694        0.99632870       -0.20352143
H           1.00027691       -0.99632864        0.20352158
6
MD Time 1840.00
C          -0.55503975       -0.00000000       -0.00000003
C           0.55503916        0.00000000        0.00000001
H          -0.99779123        1.00052973        0.19610236
H          -0.99779122       -1.00052980       -0.19610236
H           0.99779476        1.00052922       -0.19609710
H           0.99779473       -1.00052916        0.19609724
6
MD Time 1850.00
C          -0.55167855       -0.00000000       -0.00000003
C           0.55167797        0.00000000        0.00000002
H          -0.99623049        1.00419866        0.18810435
H          -0.99623048       -1.00419874       -0.18810434
H           0.99623400        1.00419800       -0.18809900
H           0.99623397       -1.00419792        0.18809915
6
MD Time 1860.00
C          -0.54971820       -0.00000000       -0.00000003
C           0.54971762        0.00000000        0.00000002
H          -0.99558010        1.00728663        0.17954924
H          -0.99558009       -1.00728671       -0.17954922
H           0.99558358        1.00728580       -0.17954380
H           0.99558354       -1.00728573        0.17954395
6
MD Time 1870.00
C          -0.54920018       -0.00000000       -0.00000003
C           0.54919961        0.00000000        0.00000002
H          -0.99583002        1.00975544        0.17045793
H          -0.99583000       -1.00975552       -0.17045790
H           0.99583344        1.00975446       -0.17045240
H           0.99583340       -1.00975438        0.17045256
6
MD Time 1880.00
C          -0.55013583       -0.00000000       -0.00000003
C           0.55013527        0.00000000        0.00000002
H          -0.99697131        1.01157829        0.16085518
H          -0.99697129       -1.01157838       -0.16085515
H           0.99697466        1.01157715       -0.16084958
H           0.99697462       -1.01157707        0.16084974
6
MD Time 1890.00
C          -0.55250562       -0.00000000       -0.00000003
C           0.55250507        0.00000000        0.00000002
H          -0.99899622        1.01273999        0.15076930
H          -0.99899621       -1.01274008       -0.15076926
H           0.99899948        1.01273870       -0.15076362
H           0.99899945       -1.01273862        0.15076378
6
MD Time 1900.00
C          -0.55626034       -0.00000000       -0.00000004
C           0.55625981        0.00000000        0.00000002
H          -1.00189823        1.01323708        0.14023167
H          -1.00189821       -1.01323717       -0.14023162
H           1.00190138        1.01323565       -0.14022592
H           1.00190135       -1.01323556        0.14022608
6
MD Time 1910.00
C          -0.56132414       -0.00000000       -0.00000004
C           0.56132363        0.00000000        0.00000002
H          -1.00567203        1.01307777        0.12927640
H          -1.00567201       -1.01307786       -0.12927635
H           1.00567507        1.01307620       -0.12927059
H           1.00567504       -1.01307612        0.12927075
6
MD Time 1920.00
C          -0.56759888       -0.00000000       -0.00000004
C           0.56759839        0.00000000        0.00000002
H          -1.01031357        1.01228180        0.11793984
H          -1.01031355       -1.01228189       -0.11793979
H           1.01031648        1.01228011       -0.11793397
H           1.01031645       -1.01228002        0.11793414
6
MD Time 1930.00
C          -0.57496938       -0.00000000       -0.00000004
C           0.57496891        0.00000000        0.00000002
H          -1.01581993        1.01088007        0.10626014
H          -1.01581991       -1.01088016       -0.10626008
H           1.01582270        1.01087827       -0.10625421
H           1.01582268       -1.01087818        0.10625438
6
MD Time 1940.00
C          -0.58330900       -0.00000000       -0.00000004
C           0.58330855        0.00000000        0.00000002
H          -1.02218922        1.00891409        0.09427668
H          -1.02218920       -1.00891417       -0.09427662
H           1.02219184        1.00891219       -0.09427070
H           1.02219182       -1.00891211        0.09427087
6
MD Time 1950.00
C          -0.59248504       -0.00000000       -0.00000004
C           0.59248462        0.00000000        0.00000002
H          -1.02942029        1.00643519        0.08202954
H          -1.02942026       -1.00643527       -0.08202948
H           1.02942275        1.00643321       -0.08202352
H           1.02942273       -1.00643313        0.08202369
6
MD Time 1960.00
C          -0.60236357       -0.00000000       -0.00000004
C           0.60236318        0.00000000        0.00000002
H          -1.03751238        1.00350346        0.06955891
H          -1.03751235       -1.00350353       -0.06955884
H           1.03751468        1.00350142       -0.06955284
H           1.03751467       -1.00350135        0.06955302
6
MD Time 1970.00
C          -0.61281344       -0.00000000       -0.00000005
C           0.61281308        0.00000000        0.00000002
H          -1.04646467        1.00018639        0.05690444
H          -1.04646463       -1.00018646       -0.05690437
H           1.04646680        1.00018431       -0.05689833
H           1.04646680       -1.00018424        0.05689852
6
MD Time 1980.00
C          -0.62370944       -0.00000001       -0.00000005
C           0.62370910        0.00000000        0.00000002
H          -1.05627565        0.99655720        0.04410474
H          -1.05627561       -0.99655726       -0.04410466
H           1.05627762        0.99655511       -0.04409859
H           1.05627762       -0.99655505        0.04409878
6
MD Time 1990.00
C          -0.63493456       -0.00000001       -0.00000005
C           0.63493425        0.00000001        0.00000003
H          -1.06694246        0.99269292        0.03119675
H          -1.06694242       -0.99269297       -0.03119667
H           1.06694426        0.99269083       -0.03119057
H           1.06694427       -0.99269078        0.03119076
6
MD Time 2000.00
C          -0.64638144       -0.00000001       -0.00000005
C           0.64638116        0.00000001        0.00000003
H          -1.07846008        0.98867213        0.01821535
H          -1.07846003       -0.98867217       -0.01821527
H           1.07846171        0.98867007       -0.01820914
H           1.07846172       -0.98867003        0.01820933
6
MD Time 2010.00
C          -0.65795318       -0.00000001       -0.00000005
C           0.65795293        0.00000001        0.00000003
H          -1.09082049        0.98457257        0.00519300
H          -1.09082044       -0.98457261       -0.00519292
H           1.09082196        0.98457057       -0.00518676
H           1.09082197       -0.98457053        0.00518696
6
MD Time 2020.00
C          -0.66956365       -0.00000001       -0.00000005
C           0.66956342        0.00000001        0.00000003
H          -1.10401180        0.98046860       -0.00784047
H          -1.10401174       -0.98046863        0.00784055
H           1.10401310        0.98046669        0.00784674
H           1.10401312       -0.98046666       -0.00784654
6
MD Time 2030.00
C          -0.68113732       -0.00000001       -0.00000005
C           0.68113712        0.00000001        0.00000003
H          -1.11801733        0.97642865       -0.02085793
H          -1.11801727       -0.97642868        0.02085801
H           1.11801847        0.97642685        0.02086423
H           1.11801851       -0.97642683       -0.02086403
6
MD Time 2040.00
C          -0.69260895       -0.00000001       -0.00000006
C           0.69260878        0.00000001        0.00000003
H          -1.13281481        0.97251281       -0.03383481
H          -1.13281474       -0.97251283        0.03383490
H           1.13281579        0.97251113        0.03384115
H           1.13281583       -0.97251112       -0.03384095
6
MD Time 2050.00
C          -0.70392302       -0.00000001       -0.00000006
C           0.70392287        0.00000001        0.00000003
H          -1.14837553        0.96877063       -0.04674890
H          -1.14837546       -0.96877064        0.04674899
H           1.14837635        0.96876910        0.04675527
H           1.14837640       -0.96876909       -0.04675507
6
MD Time 2060.00
C          -0.71503304       -0.00000001       -0.00000006
C           0.71503292        0.00000001        0.00000003
H          -1.16466374        0.96523941       -0.05957992
H          -1.16466367       -0.96523942        0.05958001
H           1.16466441        0.96523805        0.05958633
H           1.16466446       -0.96523805       -0.05958612
6
MD Time 2070.00
C          -0.72590090       -0.00000001       -0.00000006
C           0.72590080        0.00000001        0.00000003
H          -1.18163616        0.96194293       -0.07230908
H          -1.18163609       -0.96194293        0.07230917
H           1.18163668        0.96194174        0.07231552
H           1.18163673       -0.96194175       -0.07231532
6
MD Time 2080.00
C          -0.73649608       -0.00000001       -0.00000006
C           0.73649601        0.00000001        0.00000004
H          -1.19924166        0.95889081       -0.08491855
H          -1.19924158       -0.95889081        0.08491865
H           1.19924203        0.95888982        0.08492504
H           1.19924209       -0.95888983       -0.08492483
6
MD Time 2090.00
C          -0.74679498       -0.00000001       -0.00000006
C           0.74679493        0.00000001        0.00000004
H          -1.21742126        0.95607856       -0.09739096
H          -1.21742118       -0.95607855        0.09739105
H           1.21742147        0.95607776        0.09739748
H           1.21742154       -0.95607777       -0.09739727
6
MD Time 2100.00
C          -0.75678014       -0.00000001       -0.00000006
C           0.75678012        0.00000001        0.00000004
H          -1.23610830        0.95348817       -0.10970887
H          -1.23610822       -0.95348816        0.10970897
H           1.23610836        0.95348756        0.10971544
H           1.23610843       -0.95348759       -0.10971523
6
MD Time 2110.00
C          -0.76643960       -0.00000001       -0.00000007
C           0.76643960        0.00000001        0.00000004
H          -1.25522895        0.95108942       -0.12185447
H          -1.25522887       -0.95108941        0.12185456
H           1.25522886        0.95108901        0.12186108
H           1.25522893       -0.95108903       -0.12186086
6
MD Time 2120.00
C          -0.77576618       -0.00000001       -0.00000007
C           0.77576621        0.00000001        0.00000004
H          -1.27470292        0.94884155       -0.13380920
H          -1.27470283       -0.94884154        0.13380929
H           1.27470266        0.94884133        0.13381585
H           1.27470274       -0.94884136       -0.13381564
6
MD Time 2130.00
C          -0.78475687       -0.00000001       -0.00000007
C           0.78475693        0.00000001        0.00000004
H          -1.29444434        0.94669541       -0.14555371
H          -1.29444425       -0.94669540        0.14555380
H           1.29444392        0.94669537        0.14556040
H           1.29444400       -0.94669539       -0.14556019
6
MD Time 2140.00
C          -0.79341219       -0.00000001       -0.00000007
C           0.79341228        0.00000001        0.00000004
H          -1.31436292        0.94459569       -0.15706778
H          -1.31436283       -0.94459567        0.15706787
H           1.31436234        0.94459581        0.15707452
H           1.31436242       -0.94459584       -0.15707430
6
MD Time 2150.00
C          -0.80173563       -0.00000001       -0.00000007
C           0.80173574        0.00000001        0.00000004
H          -1.33436512        0.94248334       -0.16833050
H          -1.33436503       -0.94248333        0.16833059
H           1.33436438        0.94248363        0.16833727
H           1.33436446       -0.94248365       -0.16833705
6
MD Time 2160.00
C          -0.80973308       -0.00000001       -0.00000007
C           0.80973322        0.00000001        0.00000004
H          -1.35435544        0.94029789       -0.17932043
H          -1.35435535       -0.94029789        0.17932051
H           1.35435453        0.94029832        0.17932723
H           1.35435461       -0.94029834       -0.17932701
6
MD Time 2170.00
C          -0.81741237       -0.00000001       -0.00000007
C           0.81741254        0.00000001        0.00000004
H          -1.37423767        0.93797957       -0.19001595
H          -1.37423758       -0.93797957        0.19001603
H           1.37423659        0.93798012        0.19002279
H           1.37423667       -0.93798013       -0.19002256
6
MD Time 2180.00
C          -0.82478279       -0.00000001       -0.00000007
C           0.82478299        0.00000001        0.00000005
H          -1.39391613        0.93547122       -0.20039562
H          -1.39391604       -0.93547122        0.20039570
H           1.39391487        0.93547187        0.20040248
H           1.39391495       -0.93547188       -0.20040225
6
MD Time 2190.00
C          -0.83185470       -0.00000001       -0.00000007
C           0.83185493        0.00000001        0.00000005
H          -1.41329680        0.93271991       -0.21043853
H          -1.41329671       -0.93271992        0.21043860
H           1.41329537        0.93272065        0.21044541
H           1.41329545       -0.93272066       -0.21044517
6
MD Time 2200.00
C          -0.83863917       -0.00000001       -0.00000007
C           0.83863942        0.00000001        0.00000005
H          -1.43228835        0.92967829       -0.22012470
H          -1.43228827       -0.92967830        0.22012476
H           1.43228674        0.92967910        0.22013159
H           1.43228682       -0.92967910       -0.22013135
6
MD Time 2210.00
C          -0.84514766       -0.00000001       -0.00000007
C           0.84514795        0.00000001        0.00000005
H          -1.45080306        0.92630551       -0.22943544
H          -1.45080297       -0.92630553        0.22943549
H           1.45080127        0.92630637        0.22944234
H           1.45080135       -0.92630637       -0.22944209
6
MD Time 2220.00
C          -0.85139179       -0.00000001       -0.00000007
C           0.85139211        0.00000001        0.00000005
H          -1.46875754        0.92256804       -0.23835370
H          -1.46875745       -0.92256807        0.23835374
H           1.46875558        0.92256893        0.23836060
H           1.46875565       -0.92256892       -0.23836034
6
MD Time 2230.00
C          -0.85738305       -0.00000001       -0.00000007
C           0.85738340        0.00000001        0.00000005
H          -1.48607339        0.91844009       -0.24686437
H          -1.48607331       -0.91844012        0.24686440
H           1.48607127        0.91844098        0.24687126
H           1.48607133       -0.91844097       -0.24687100
6
MD Time 2240.00
C          -0.86313267       -0.00000001       -0.00000007
C           0.86313304        0.00000001        0.00000005
H          -1.50267773        0.91390389       -0.25495452
H          -1.50267765       -0.91390393        0.25495454
H           1.50267544        0.91390478        0.25496139
H           1.50267550       -0.91390476       -0.25496112
6
MD Time 2250.00
C          -0.86865143       -0.00000001       -0.00000007
C           0.86865183        0.00000001        0.00000005
H          -1.51850354        0.90894983       -0.26261363
H          -1.51850347       -0.90894988        0.26261365
H           1.51850109        0.90895070        0.26262048
H           1.51850115       -0.90895068       -0.26262020
6
MD Time 2260.00
C          -0.87394953       -0.00000001       -0.00000007
C           0.87394995        0.00000001        0.00000005
H          -1.53349004        0.90357642       -0.26983380
H          -1.53348997       -0.90357647        0.26983380
H           1.53348744        0.90357725        0.26984061
H           1.53348750       -0.90357721       -0.26984033
6
MD Time 2270.00
C          -0.87903649       -0.00000001       -0.00000007
C           0.87903694        0.00000001        0.00000005
H          -1.54758289        0.89779015       -0.27660985
H          -1.54758282       -0.89779021        0.27660984
H           1.54758014        0.89779092        0.27661662
H           1.54758019       -0.89779088       -0.27661633
6
MD Time 2280.00
C          -0.88392104       -0.00000001       -0.00000007
C           0.88392152        0.00000001        0.00000005
H          -1.56073438        0.89160537       -0.28293949
H          -1.56073431       -0.89160544        0.28293945
H           1.56073149        0.89160606        0.28294621
H           1.56073154       -0.89160603       -0.28294590
6
MD Time 2290.00
C          -0.88861109       -0.00000001       -0.00000007
C           0.88861159        0.00000001        0.00000005
H          -1.57290360        0.88504406       -0.28882338
H          -1.57290354       -0.88504413        0.28882333
H           1.57290059        0.88504467        0.28883005
H           1.57290063       -0.88504463       -0.28882973
6
MD Time 2300.00
C          -0.89311358       -0.00000001       -0.00000007
C           0.89311410        0.00000001        0.00000005
H          -1.58405659        0.87813560       -0.29426527
H          -1.58405653       -0.87813569        0.29426521
H           1.58405344        0.87813610        0.29427187
H           1.58405348       -0.87813606       -0.29427154
6
MD Time 2310.00
C          -0.89743450       -0.00000001       -0.00000007
C           0.89743504        0.00000001        0.00000005
H          -1.59416638        0.87091655       -0.29927202
H          -1.59416632       -0.87091664        0.29927194
H           1.59416314        0.87091694        0.29927855
H           1.59416318       -0.87091689       -0.29927822
6
MD Time 2320.00
C          -0.90157878       -0.00000001       -0.00000007
C           0.90157934        0.00000001        0.00000005
H          -1.60321325        0.86343038       -0.30385370
H          -1.60321320       -0.86343048        0.30385360
H           1.60320990        0.86343064        0.30386014
H           1.60320994       -0.86343060       -0.30385980
6
MD Time 2330.00
C          -0.90555027       -0.00000001       -0.00000007
C           0.90555084        0.00000001        0.00000005
H          -1.61118467        0.85572729       -0.30802359
H          -1.61118462       -0.85572739        0.30802347
H           1.61118128        0.85572742        0.30802996
H           1.61118131       -0.85572737       -0.30802961
6
MD Time 2340.00
C          -0.90935168       -0.00000001       -0.00000007
C           0.90935226        0.00000001        0.00000005
H          -1.61807562        0.84786390       -0.31179826
H          -1.61807558       -0.84786401        0.31179812
H           1.61807215        0.84786388        0.31180454
H           1.61807218       -0.84786383       -0.31180418
6
MD Time 2350.00
C          -0.91298454       -0.00000001       -0.00000007
C           0.91298511        0.00000001        0.00000005
H          -1.62388848        0.83990301       -0.31519755
H          -1.62388844       -0.83990313        0.31519739
H           1.62388500        0.83990285        0.31520374
H           1.62388502       -0.83990280       -0.31520338
6
MD Time 2360.00
C          -0.91644915       -0.00000001       -0.00000007
C           0.91644974        0.00000001        0.00000005
H          -1.62863332        0.83191331       -0.31824455
H          -1.62863328       -0.83191343        0.31824437
H           1.62862979        0.83191300        0.31825065
H           1.62862981       -0.83191295       -0.31825028
6
MD Time 2370.00
C          -0.91974462       -0.00000001       -0.00000007
C           0.91974520        0.00000001        0.00000005
H          -1.63232774        0.82396899       -0.32096555
H          -1.63232770       -0.82396912        0.32096536
H           1.63232423        0.82396853        0.32097157
H           1.63232426       -0.82396848       -0.32097119
6
MD Time 2380.00
C          -0.92286874       -0.00000001       -0.00000007
C           0.92286933        0.00000001        0.00000005
H          -1.63499707        0.81614932       -0.32338996
H          -1.63499703       -0.81614945        0.32338975
H           1.63499356        0.81614870        0.32339588
H           1.63499358       -0.81614865       -0.32339550
6
MD Time 2390.00
C          -0.92581811       -0.00000001       -0.00000007
C           0.92581869        0.00000001        0.00000005
H          -1.63667403        0.80853809       -0.32555008
H          -1.63667399       -0.80853821        0.32554985
H           1.63667059        0.80853731        0.32555592
H           1.63667061       -0.80853727       -0.32555554
6
MD Time 2400.00
C          -0.92858808       -0.00000001       -0.00000006
C           0.92858863        0.00000001        0.00000005
H          -1.63739869        0.80122291       -0.32748092
H          -1.63739865       -0.80122304        0.32748067
H           1.63739535        0.80122199        0.32748667
H           1.63739537       -0.80122194       -0.32748628
6
MD Time 2410.00
C          -0.93117280       -0.00000001       -0.00000006
C           0.93117334        0.00000002        0.00000005
H          -1.63721798        0.79429438       -0.32921978
H          -1.63721794       -0.79429452        0.32921951
H           1.63721475        0.79429332        0.32922545
H           1.63721477       -0.79429328       -0.32922506
6
MD Time 2420.00
C          -0.93356539       -0.00000001       -0.00000006
C           0.93356589        0.00000002        0.00000005
H          -1.63618506        0.78784504       -0.33080583
H          -1.63618502       -0.78784517        0.33080554
H           1.63618203        0.78784384        0.33081144
H           1.63618206       -0.78784381       -0.33081105
6
MD Time 2430.00
C          -0.93575797       -0.00000001       -0.00000006
C           0.93575843        0.00000002        0.00000005
H          -1.63435865        0.78196804       -0.33227951
H          -1.63435861       -0.78196817        0.33227921
H           1.63435583        0.78196671        0.33228506
H           1.63435587       -0.78196668       -0.33228467
6
MD Time 2440.00
C          -0.93774186       -0.00000001       -0.00000006
C           0.93774229        0.00000002        0.00000006
H          -1.63180183        0.77675567       -0.33368180
H          -1.63180179       -0.77675581        0.33368147
H           1.63179925        0.77675423        0.33368730
H           1.63179929       -0.77675421       -0.33368691
6
MD Time 2450.00
C          -0.93950783       -0.00000001       -0.00000006
C           0.93950821        0.00000002        0.00000006
H          -1.62858078        0.77229761       -0.33505331
H          -1.62858075       -0.77229774        0.33505297
H           1.62857852        0.77229605        0.33505878
H           1.62857856       -0.77229604       -0.33505839
6
MD Time 2460.00
C          -0.94104628       -0.00000001       -0.00000006
C           0.94104660        0.00000002        0.00000006
H          -1.62476331        0.76867889       -0.33643334
H          -1.62476328       -0.76867903        0.33643299
H           1.62476136        0.76867724        0.33643879
H           1.62476140       -0.76867723       -0.33643840
6
MD Time 2470.00
C          -0.94234756       -0.00000001       -0.00000006
C           0.94234782        0.00000002        0.00000006
H          -1.62041697        0.76597782       -0.33785872
H          -1.62041694       -0.76597795        0.33785834
H           1.62041539        0.76597606        0.33786415
H           1.62041544       -0.76597606       -0.33786376
6
MD Time 2480.00
C          -0.94340229       -0.00000001       -0.00000006
C           0.94340249        0.00000002        0.00000006
H          -1.61560734        0.76426362       -0.33936261
H          -1.61560730       -0.76426376        0.33936222
H           1.61560609        0.76426177        0.33936803
H           1.61560615       -0.76426178       -0.33936764
6
MD Time 2490.00
C          -0.94420164       -0.00000001       -0.00000006
C           0.94420177        0.00000002        0.00000006
H          -1.61039591        0.76359419       -0.34097330
H          -1.61039588       -0.76359433        0.34097289
H           1.61039505        0.76359225        0.34097873
H           1.61039512       -0.76359227       -0.34097834
6
MD Time 2500.00
C          -0.94473765       -0.00000001       -0.00000006
C           0.94473772        0.00000002        0.00000006
H          -1.60483847        0.76401389       -0.34271304
H          -1.60483844       -0.76401403        0.34271262
H           1.60483796        0.76401186        0.34271847
H           1.60483803       -0.76401188       -0.34271809
6
MD Time 2510.00
C          -0.94500352       -0.00000001       -0.00000006
C           0.94500353        0.00000002        0.00000006
H          -1.59898319        0.76555151       -0.34459693
H          -1.59898317       -0.76555165        0.34459649
H           1.59898307        0.76554938        0.34460238
H           1.59898314       -0.76554942       -0.34460200
6
MD Time 2520.00
C          -0.94499379       -0.00000001       -0.00000005
C           0.94499375        0.00000003        0.00000006
H          -1.59286952        0.76821871       -0.34663209
H          -1.59286950       -0.76821886        0.34663163
H           1.59286975        0.76821649        0.34663756
H           1.59286984       -0.76821653       -0.34663718
6
MD Time 2530.00
C          -0.94470454       -0.00000001       -0.00000005
C           0.94470445        0.00000003        0.00000006
H          -1.58652715        0.77200888       -0.34881697
H          -1.58652713       -0.77200903        0.34881650
H           1.58652763        0.77200655        0.34882246
H           1.58652772       -0.77200660       -0.34882208
6
MD Time 2540.00
C          -0.94413341       -0.00000001       -0.00000005
C           0.94413329        0.00000003        0.00000006
H          -1.57997557        0.77689658       -0.35114112
H          -1.57997555       -0.77689673        0.35114063
H           1.57997622        0.77689413        0.35114662
H           1.57997631       -0.77689419       -0.35114624
6
MD Time 2550.00
C          -0.94327961       -0.00000001       -0.00000005
C           0.94327947        0.00000003        0.00000006
H          -1.57322423        0.78283768       -0.35358516
H          -1.57322421       -0.78283784        0.35358464
H           1.57322498        0.78283510        0.35359066
H           1.57322508       -0.78283517       -0.35359028
6
MD Time 2560.00
C          -0.94214380       -0.00000001       -0.00000005
C           0.94214366        0.00000003        0.00000006
H          -1.56627318        0.78977017       -0.35612121
H          -1.56627316       -0.78977035        0.35612067
H           1.56627396        0.78976745        0.35612673
H           1.56627407       -0.78976752       -0.35612634
6
MD Time 2570.00
C          -0.94072793       -0.00000001       -0.00000005
C           0.94072780        0.00000003        0.00000006
H          -1.55911415        0.79761557       -0.35871366
H          -1.55911414       -0.79761575        0.35871309
H           1.55911487        0.79761269        0.35871916
H           1.55911498       -0.79761277       -0.35871877
6
MD Time 2580.00
C          -0.93903495       -0.00000001       -0.00000005
C           0.93903485        0.00000003        0.00000006
H          -1.55173200        0.80628089       -0.36132009
H          -1.55173200       -0.80628109        0.36131950
H           1.55173253        0.80627783        0.36132558
H           1.55173265       -0.80627792       -0.36132518
6
MD Time 2590.00
C          -0.93706861       -0.00000000       -0.00000004
C           0.93706854        0.00000003        0.00000006
H          -1.54410630        0.81566107       -0.36389257
H          -1.54410630       -0.81566127        0.36389196
H           1.54410664        0.81565783        0.36389804
H           1.54410676       -0.81565792       -0.36389764
6
MD Time 2600.00
C          -0.93483308       -0.00000000       -0.00000004
C           0.93483305        0.00000003        0.00000006
H          -1.53621326        0.82564161       -0.36637900
H          -1.53621327       -0.82564183        0.36637836
H           1.53621338        0.82563820        0.36638446
H           1.53621350       -0.82563829       -0.36638404
6
MD Time 2610.00
C          -0.93233272       -0.00000000       -0.00000004
C           0.93233272        0.00000003        0.00000006
H          -1.52802739        0.83610140       -0.36872453
H          -1.52802740       -0.83610163        0.36872387
H           1.52802731        0.83609784        0.36873000
H           1.52802743       -0.83609793       -0.36872957
6
MD Time 2620.00
C          -0.92957177       -0.00000000       -0.00000004
C           0.92957181        0.00000003        0.00000006
H          -1.51952321        0.84691549       -0.37087298
H          -1.51952322       -0.84691573        0.37087230
H           1.51952291        0.84691178        0.37087845
H           1.51952303       -0.84691188       -0.37087802
6
MD Time 2630.00
C          -0.92655415       -0.00000000       -0.00000004
C           0.92655422        0.00000003        0.00000006
H          -1.51067661        0.85795773       -0.37276808
H          -1.51067663       -0.85795799        0.37276738
H           1.51067614        0.85795391        0.37277357
H           1.51067626       -0.85795400       -0.37277313
6
MD Time 2640.00
C          -0.92328325        0.00000000       -0.00000004
C           0.92328335        0.00000003        0.00000006
H          -1.50146620        0.86910319       -0.37435469
H          -1.50146622       -0.86910346        0.37435397
H           1.50146551        0.86909927        0.37436020
H           1.50146563       -0.86909936       -0.37435975
6
MD Time 2650.00
C          -0.91976176        0.00000000       -0.00000004
C           0.91976189        0.00000003        0.00000006
H          -1.49187406        0.88023025       -0.37557977
H          -1.49187409       -0.88023053        0.37557902
H           1.49187323        0.88022627        0.37558532
H           1.49187334       -0.88022636       -0.37558485
6
MD Time 2660.00
C          -0.91599160        0.00000000       -0.00000003
C           0.91599176        0.00000003        0.00000006
H          -1.48188670        0.89122243       -0.37639320
H          -1.48188673       -0.89122272        0.37639243
H           1.48188567        0.89121840        0.37639879
H           1.48188579       -0.89121848       -0.37639832
6
MD Time 2670.00
C          -0.91197385        0.00000000       -0.00000003
C           0.91197403        0.00000003        0.00000006
H          -1.47149525        0.90196980       -0.37674844
H          -1.47149528       -0.90197010        0.37674765
H           1.47149410        0.90196577        0.37675409
H           1.47149421       -0.90196585       -0.37675361
6
MD Time 2680.00
C          -0.90770869        0.00000000       -0.00000003
C           0.90770890        0.00000003        0.00000006
H          -1.46069599        0.91237022       -0.37660300
H          -1.46069603       -0.91237052        0.37660219
H           1.46069469        0.91236618        0.37660870
H           1.46069480       -0.91236626       -0.37660821
6
MD Time 2690.00
C          -0.90319546        0.00000001       -0.00000003
C           0.90319568        0.00000003        0.00000006
H          -1.44949027        0.92233007       -0.37591875
H          -1.44949031       -0.92233039        0.37591793
H           1.44948888        0.92232611        0.37592453
H           1.44948899       -0.92232617       -0.37592404
6
MD Time 2700.00
C          -0.89843262        0.00000001       -0.00000003
C           0.89843286        0.00000003        0.00000006
H          -1.43788465        0.93176510       -0.37466217
H          -1.43788470       -0.93176542        0.37466133
H           1.43788315        0.93176119        0.37466801
H           1.43788324       -0.93176125       -0.37466751
6
MD Time 2710.00
C          -0.89341785        0.00000001       -0.00000003
C           0.89341811        0.00000003        0.00000006
H          -1.42589065        0.94060063       -0.37280438
H          -1.42589069       -0.94060096        0.37280352
H           1.42588907        0.94059685        0.37281031
H           1.42588916       -0.94059690       -0.37280980
6
MD Time 2720.00
C          -0.88814810        0.00000001       -0.00000003
C           0.88814838        0.00000002        0.00000006
H          -1.41352472        0.94877208       -0.37032124
H          -1.41352476       -0.94877242        0.37032036
H           1.41352306        0.94876841        0.37032725
H           1.41352315       -0.94876846       -0.37032673
6
MD Time 2730.00
C          -0.88261965        0.00000001       -0.00000003
C           0.88261993        0.00000002        0.00000006
H          -1.40080795        0.95622496       -0.36719326
H          -1.40080800       -0.95622530        0.36719237
H           1.40080626        0.95622146        0.36719937
H           1.40080634       -0.95622150       -0.36719884
6
MD Time 2740.00
C          -0.87682817        0.00000001       -0.00000002
C           0.87682846        0.00000002        0.00000006
H          -1.38776600        0.96291512       -0.36340557
H          -1.38776605       -0.96291547        0.36340466
H           1.38776426        0.96291179        0.36341175
H           1.38776434       -0.96291182       -0.36341122
6
MD Time 2750.00
C          -0.87076884        0.00000001       -0.00000002
C           0.87076914        0.00000002        0.00000006
H          -1.37442874        0.96880875       -0.35894775
H          -1.37442879       -0.96880909        0.35894683
H           1.37442699        0.96880564        0.35895404
H           1.37442706       -0.96880566       -0.35895350
6
MD Time 2760.00
C          -0.86443644        0.00000001       -0.00000002
C           0.86443674        0.00000002        0.00000005
H          -1.36083022        0.97388247       -0.35381381
H          -1.36083026       -0.97388282        0.35381288
H           1.36082844        0.97387957        0.35382018
H           1.36082851       -0.97387959       -0.35381964
6
MD Time 2770.00
C          -0.85782542        0.00000001       -0.00000002
C           0.85782572        0.00000002        0.00000005
H          -1.34700837        0.97812335       -0.34800196
H          -1.34700841       -0.97812369        0.34800102
H           1.34700661        0.97812070        0.34800843
H           1.34700667       -0.97812072       -0.34800788
6
MD Time 2780.00
C          -0.85093001        0.00000001       -0.00000002
C           0.85093031        0.00000002        0.00000005
H          -1.33300497        0.98152898       -0.34151455
H          -1.33300501       -0.98152933        0.34151359
H           1.33300321        0.98152658        0.34152109
H           1.33300327       -0.98152659       -0.34152054
6
MD Time 2790.00
C          -0.84374436        0.00000001       -0.00000002
C           0.84374465        0.00000002        0.00000005
H          -1.31886541        0.98410748       -0.33435784
H          -1.31886545       -0.98410782        0.33435686
H           1.31886369        0.98410536        0.33436448
H           1.31886375       -0.98410537       -0.33436392
6
MD Time 2800.00
C          -0.83626262        0.00000001       -0.00000002
C           0.83626290        0.00000002        0.00000005
H          -1.30463868        0.98587759       -0.32654193
H          -1.30463871       -0.98587793        0.32654094
H           1.30463698        0.98587574        0.32654864
H           1.30463703       -0.98587574       -0.32654808
6
MD Time 2810.00
C          -0.82847912        0.00000001       -0.00000002
C           0.82847940        0.00000002        0.00000005
H          -1.29037708        0.98686858       -0.31808050
H          -1.29037711       -0.98686892        0.31807951
H           1.29037544        0.98686704        0.31808731
H           1.29037549       -0.98686704       -0.31808673
6
MD Time 2820.00
C          -0.82038854        0.00000001       -0.00000002
C           0.82038881        0.00000002        0.00000005
H          -1.27613626        0.98712033       -0.30899067
H          -1.27613629       -0.98712065        0.30898966
H           1.27613466        0.98711906        0.30899754
H           1.27613470       -0.98711905       -0.30899697
6
MD Time 2830.00
C          -0.81198606        0.00000001       -0.00000002
C           0.81198631        0.00000002        0.00000005
H          -1.26197488        0.98668296       -0.29929267
H          -1.26197490       -0.98668328        0.29929166
H           1.26197335        0.98668201        0.29929962
H           1.26197339       -0.98668200       -0.29929904
6
MD Time 2840.00
C          -0.80326761        0.00000001       -0.00000002
C           0.80326785        0.00000002        0.00000005
H          -1.24795449        0.98561676       -0.28900963
H          -1.24795450       -0.98561707        0.28900861
H           1.24795302        0.98561608        0.28901664
H           1.24795305       -0.98561607       -0.28901606
6
MD Time 2850.00
C          -0.79423014        0.00000001       -0.00000002
C           0.79423037        0.00000002        0.00000005
H          -1.23413916        0.98399144       -0.27816716
H          -1.23413917       -0.98399175        0.27816612
H           1.23413776        0.98399107        0.27817423
H           1.23413779       -0.98399106       -0.27817364
6
MD Time 2860.00
C          -0.78487195        0.00000000       -0.00000002
C           0.78487217        0.00000002        0.00000005
H          -1.22059514        0.98188557       -0.26679297
H          -1.22059514       -0.98188587        0.26679192
H           1.22059380        0.98188546        0.26680009
H           1.22059383       -0.98188546       -0.26679950
6
MD Time 2870.00
C          -0.77519305        0.00000000       -0.00000002
C           0.77519326        0.00000002        0.00000005
H          -1.20739029        0.97938532       -0.25491637
H          -1.20739029       -0.97938561        0.25491531
H           1.20738903        0.97938548        0.25492353
H           1.20738905       -0.97938548       -0.25492294
6
MD Time 2880.00
C          -0.76519561        0.00000000       -0.00000002
C           0.76519581        0.00000002        0.00000006
H          -1.19459350        0.97658311       -0.24256774
H          -1.19459348       -0.97658338        0.24256668
H           1.19459230        0.97658350        0.24257495
H           1.19459232       -0.97658351       -0.24257435
6
MD Time 2890.00
C          -0.75488453        0.00000000       -0.00000002
C           0.75488472        0.00000002        0.00000006
H          -1.18227379        0.97357565       -0.22977798
H          -1.18227377       -0.97357592        0.22977691
H           1.18227266        0.97357627        0.22978522
H           1.18227268       -0.97357628       -0.22978462
6
MD Time 2900.00
C          -0.74426806        0.00000000       -0.00000002
C           0.74426823        0.00000002        0.00000006
H          -1.17049941        0.97046175       -0.21657784
H          -1.17049938       -0.97046201        0.21657677
H           1.17049833        0.97046257        0.21658511
H           1.17049835       -0.97046258       -0.21658450
6
MD Time 2910.00
C          -0.73335849        0.00000000       -0.00000002
C           0.73335866        0.00000002        0.00000006
H          -1.15933661        0.96733955       -0.20299743
H          -1.15933658       -0.96733979        0.20299634
H           1.15933558        0.96734053        0.20300471
H           1.15933561       -0.96734055       -0.20300410
6
MD Time 2920.00
C          -0.72217306       -0.00000000       -0.00000002
C           0.72217322        0.00000002        0.00000006
H          -1.14884839        0.96430354       -0.18906562
H          -1.14884835       -0.96430377        0.18906453
H           1.14884741        0.96430465        0.18907292
H           1.14884743       -0.96430467       -0.18907231
6
MD Time 2930.00
C          -0.71073484       -0.00000000       -0.00000002
C           0.71073500        0.00000002        0.00000006
H          -1.13909302        0.96144132       -0.17480975
H          -1.13909296       -0.96144154        0.17480866
H           1.13909206        0.96144253        0.17481706
H           1.13909208       -0.96144256       -0.17481645
6
MD Time 2940.00
C          -0.69907380       -0.00000000       -0.00000002
C           0.69907395        0.00000002        0.00000006
H          -1.13012250        0.95883033       -0.16025533
H          -1.13012243       -0.95883054        0.16025423
H           1.13012156        0.95883160        0.16026264
H           1.13012158       -0.95883163       -0.16026203
6
MD Time 2950.00
C          -0.68722791       -0.00000000       -0.00000002
C           0.68722806        0.00000002        0.00000006
H          -1.12198109        0.95653474       -0.14542606
H          -1.12198102       -0.95653493        0.14542494
H           1.12198016        0.95653604        0.14543336
H           1.12198018       -0.95653608       -0.14543275
6
MD Time 2960.00
C          -0.67524429       -0.00000000       -0.00000002
C           0.67524444        0.00000002        0.00000006
H          -1.11470384        0.95460273       -0.13034406
H          -1.11470377       -0.95460291        0.13034295
H           1.11470292        0.95460402        0.13035137
H           1.11470294       -0.95460406       -0.13035075
6
MD Time 2970.00
C          -0.66318037       -0.00000001       -0.00000002
C           0.66318051        0.00000002        0.00000006
H          -1.10831540        0.95306442       -0.11503040
H          -1.10831531       -0.95306459        0.11502928
H           1.10831446        0.95306566        0.11503771
H           1.10831448       -0.95306571       -0.11503709
6
MD Time 2980.00
C          -0.65110493       -0.00000001       -0.00000002
C           0.65110508        0.00000002        0.00000006
H          -1.10282901        0.95193062       -0.09950572
H          -1.10282892       -0.95193078        0.09950460
H           1.10282806        0.95193179        0.09951303
H           1.10282808       -0.95193184       -0.09951240
6
MD Time 2990.00
C          -0.63909903       -0.00000001       -0.00000002
C           0.63909919        0.00000002        0.00000006
H          -1.09824610        0.95119260       -0.08379113
H          -1.09824599       -0.95119274        0.08379001
H           1.09824512        0.95119367        0.08379844
H           1.09824514       -0.95119372       -0.08379781
