6
MD Time 0.00
C          -1.00424993        0.00000000        0.00000000
C           1.00424993        0.00000000        0.00000000
H          -1.57974221        0.85087473        0.35244385
H          -1.57974221       -0.85087473       -0.35244385
H           1.57974221        0.85087473       -0.35244385
H           1.57974221       -0.85087473        0.35244385
6
MD Time 10.00
C          -1.00413125        0.00000000       -0.00000000
C           1.00413125       -0.00000000       -0.00000000
H          -1.57960227        0.85103907        0.35239827
H          -1.57960227       -0.85103907       -0.35239827
H           1.57960227        0.85103907       -0.35239827
H           1.57960227       -0.85103907        0.35239827
6
MD Time 20.00
C          -1.00377567        0.00000000       -0.00000000
C           1.00377567       -0.00000000       -0.00000000
H          -1.57918073        0.85152822        0.35226071
H          -1.57918073       -0.85152822       -0.35226071
H           1.57918073        0.85152822       -0.35226071
H           1.57918073       -0.85152822        0.35226071
6
MD Time 30.00
C          -1.00318459        0.00000000       -0.00000000
C           1.00318459       -0.00000000       -0.00000000
H          -1.57847257        0.85233067        0.35202879
H          -1.57847257       -0.85233067       -0.35202879
H           1.57847257        0.85233067       -0.35202879
H           1.57847257       -0.85233067        0.35202879
6
MD Time 40.00
C          -1.00236025        0.00000000       -0.00000000
C           1.00236025       -0.00000000       -0.00000000
H          -1.57746969        0.85342772        0.35169869
H          -1.57746969       -0.85342772       -0.35169869
H           1.57746969        0.85342772       -0.35169869
H           1.57746969       -0.85342772        0.35169869
6
MD Time 50.00
C          -1.00130572        0.00000000       -0.00000000
C           1.00130572       -0.00000000       -0.00000000
H          -1.57616146        0.85479424        0.35126551
H          -1.57616146       -0.85479424       -0.35126551
H           1.57616146        0.85479424       -0.35126551
H           1.57616146       -0.85479424        0.35126551
6
MD Time 60.00
C          -1.00002475        0.00000000       -0.00000000
C           1.00002475       -0.00000000       -0.00000000
H          -1.57453525        0.85639960        0.35072357
H          -1.57453525       -0.85639960       -0.35072357
H           1.57453525        0.85639960       -0.35072357
H           1.57453525       -0.85639960        0.35072357
6
MD Time 70.00
C          -0.99852169        0.00000000       -0.00000000
C           0.99852169       -0.00000000       -0.00000000
H          -1.57257720        0.85820883        0.35006687
H          -1.57257720       -0.85820883       -0.35006687
H           1.57257720        0.85820883       -0.35006687
H           1.57257720       -0.85820883        0.35006687
6
MD Time 80.00
C          -0.99680137        0.00000000       -0.00000000
C           0.99680137       -0.00000000       -0.00000000
H          -1.57027301        0.86018389        0.34928954
H          -1.57027301       -0.86018389       -0.34928954
H           1.57027301        0.86018389       -0.34928954
H           1.57027301       -0.86018389        0.34928954
6
MD Time 90.00
C          -0.99486894        0.00000000       -0.00000000
C           0.99486894       -0.00000000       -0.00000000
H          -1.56760878        0.86228504        0.34838638
H          -1.56760878       -0.86228504       -0.34838638
H           1.56760878        0.86228504       -0.34838638
H           1.56760878       -0.86228504        0.34838638
6
MD Time 100.00
C          -0.99272977        0.00000000       -0.00000000
C           0.99272977       -0.00000000       -0.00000000
H          -1.56457185        0.86447219        0.34735330
H          -1.56457185       -0.86447219       -0.34735330
H           1.56457185        0.86447219       -0.34735330
H           1.56457185       -0.86447219        0.34735330
6
MD Time 110.00
C          -0.99038933        0.00000000       -0.00000000
C           0.99038933       -0.00000000       -0.00000000
H          -1.56115163        0.86670625        0.34618781
H          -1.56115163       -0.86670625       -0.34618781
H           1.56115163        0.86670625       -0.34618781
H           1.56115163       -0.86670625        0.34618781
6
MD Time 120.00
C          -0.98785307        0.00000000       -0.00000000
C           0.98785307       -0.00000000       -0.00000000
H          -1.55734030        0.86895037        0.34488941
H          -1.55734030       -0.86895037       -0.34488941
H           1.55734030        0.86895037       -0.34488941
H           1.55734030       -0.86895037        0.34488941
6
MD Time 130.00
C          -0.98512635        0.00000000       -0.00000000
C           0.98512635       -0.00000000       -0.00000000
H          -1.55313350        0.87117110        0.34345995
H          -1.55313350       -0.87117110       -0.34345995
H           1.55313350        0.87117110       -0.34345995
H           1.55313350       -0.87117110        0.34345995
6
MD Time 140.00
C          -0.98221437        0.00000000       -0.00000000
C           0.98221437       -0.00000000       -0.00000000
H          -1.54853081        0.87333928        0.34190391
H          -1.54853081       -0.87333928       -0.34190391
H           1.54853081        0.87333928       -0.34190391
H           1.54853081       -0.87333928        0.34190391
6
MD Time 150.00
C          -0.97912213        0.00000000       -0.00000000
C           0.97912213       -0.00000000       -0.00000000
H          -1.54353622        0.87543089        0.34022857
H          -1.54353622       -0.87543089       -0.34022857
H           1.54353622        0.87543089       -0.34022857
H           1.54353622       -0.87543089        0.34022857
6
MD Time 160.00
C          -0.97585441        0.00000000       -0.00000000
C           0.97585441       -0.00000000       -0.00000000
H          -1.53815833        0.87742760        0.33844411
H          -1.53815833       -0.87742760       -0.33844411
H           1.53815833        0.87742760       -0.33844411
H           1.53815833       -0.87742760        0.33844411
6
MD Time 170.00
C          -0.97241581        0.00000000       -0.00000000
C           0.97241581       -0.00000000       -0.00000000
H          -1.53241050        0.87931710        0.33656366
H          -1.53241050       -0.87931710       -0.33656366
H           1.53241050        0.87931710       -0.33656366
H           1.53241050       -0.87931710        0.33656366
6
MD Time 180.00
C          -0.96881075        0.00000000       -0.00000000
C           0.96881075       -0.00000000       -0.00000000
H          -1.52631078        0.88109324        0.33460313
H          -1.52631078       -0.88109324       -0.33460313
H           1.52631078        0.88109324       -0.33460313
H           1.52631078       -0.88109324        0.33460313
6
MD Time 190.00
C          -0.96504357        0.00000000       -0.00000000
C           0.96504357       -0.00000000       -0.00000000
H          -1.51988177        0.88275593        0.33258110
H          -1.51988177       -0.88275593       -0.33258110
H           1.51988177        0.88275593       -0.33258110
H           1.51988177       -0.88275593        0.33258110
6
MD Time 200.00
C          -0.96111860        0.00000000       -0.00000000
C           0.96111860       -0.00000000       -0.00000000
H          -1.51315026        0.88431078        0.33051854
H          -1.51315026       -0.88431078       -0.33051854
H           1.51315026        0.88431078       -0.33051854
H           1.51315026       -0.88431078        0.33051854
6
MD Time 210.00
C          -0.95704030        0.00000000       -0.00000000
C           0.95704030       -0.00000000       -0.00000000
H          -1.50614676        0.88576858        0.32843842
H          -1.50614676       -0.88576858       -0.32843842
H           1.50614676        0.88576858       -0.32843842
H           1.50614676       -0.88576858        0.32843842
6
MD Time 220.00
C          -0.95281338        0.00000000       -0.00000000
C           0.95281338       -0.00000000       -0.00000000
H          -1.49890497        0.88714453        0.32636532
H          -1.49890497       -0.88714453       -0.32636532
H           1.49890497        0.88714453       -0.32636532
H           1.49890497       -0.88714453        0.32636532
6
MD Time 230.00
C          -0.94844298        0.00000000       -0.00000000
C           0.94844298       -0.00000000       -0.00000000
H          -1.49146104        0.88845729        0.32432494
H          -1.49146104       -0.88845729       -0.32432494
H           1.49146104        0.88845729       -0.32432494
H           1.49146104       -0.88845729        0.32432494
6
MD Time 240.00
C          -0.94393479        0.00000000       -0.00000000
C           0.94393479       -0.00000000       -0.00000000
H          -1.48385284        0.88972793        0.32234358
H          -1.48385284       -0.88972793       -0.32234358
H           1.48385284        0.88972793       -0.32234358
H           1.48385284       -0.88972793        0.32234358
6
MD Time 250.00
C          -0.93929528        0.00000000       -0.00000000
C           0.93929528       -0.00000000       -0.00000000
H          -1.47611913        0.89097869        0.32044752
H          -1.47611913       -0.89097869       -0.32044752
H           1.47611913        0.89097869       -0.32044752
H           1.47611913       -0.89097869        0.32044752
6
MD Time 260.00
C          -0.93453185        0.00000000       -0.00000000
C           0.93453185       -0.00000000       -0.00000000
H          -1.46829872        0.89223176        0.31866249
H          -1.46829872       -0.89223176       -0.31866249
H           1.46829872        0.89223176       -0.31866249
H           1.46829872       -0.89223176        0.31866249
6
MD Time 270.00
C          -0.92965298        0.00000000       -0.00000000
C           0.92965298       -0.00000000       -0.00000000
H          -1.46042967        0.89350800        0.31701306
H          -1.46042967       -0.89350800       -0.31701306
H           1.46042967        0.89350800       -0.31701306
H           1.46042967       -0.89350800        0.31701306
6
MD Time 280.00
C          -0.92466844        0.00000000       -0.00000000
C           0.92466844       -0.00000000       -0.00000000
H          -1.45254843        0.89482570        0.31552208
H          -1.45254843       -0.89482570       -0.31552208
H           1.45254843        0.89482570       -0.31552208
H           1.45254843       -0.89482570        0.31552208
6
MD Time 290.00
C          -0.91958938        0.00000000       -0.00000000
C           0.91958938       -0.00000000       -0.00000000
H          -1.44468919        0.89619949        0.31421023
H          -1.44468919       -0.89619949       -0.31421023
H           1.44468919        0.89619949       -0.31421023
H           1.44468919       -0.89619949        0.31421023
6
MD Time 300.00
C          -0.91442847        0.00000000       -0.00000000
C           0.91442847       -0.00000000       -0.00000000
H          -1.43688326        0.89763936        0.31309548
H          -1.43688326       -0.89763936       -0.31309548
H           1.43688326        0.89763936       -0.31309548
H           1.43688326       -0.89763936        0.31309548
6
MD Time 310.00
C          -0.90919997        0.00000000       -0.00000000
C           0.90919997       -0.00000000       -0.00000000
H          -1.42915861        0.89914996        0.31219285
H          -1.42915861       -0.89914996       -0.31219285
H           1.42915861        0.89914996       -0.31219285
H           1.42915861       -0.89914996        0.31219285
6
MD Time 320.00
C          -0.90391978        0.00000000       -0.00000000
C           0.90391978       -0.00000000       -0.00000000
H          -1.42153953        0.90073007        0.31151405
H          -1.42153953       -0.90073007       -0.31151405
H           1.42153953        0.90073007       -0.31151405
H           1.42153953       -0.90073007        0.31151405
6
MD Time 330.00
C          -0.89860540        0.00000000       -0.00000000
C           0.89860540       -0.00000000       -0.00000000
H          -1.41404656        0.90237247        0.31106739
H          -1.41404656       -0.90237247       -0.31106739
H           1.41404656        0.90237247       -0.31106739
H           1.41404656       -0.90237247        0.31106739
6
MD Time 340.00
C          -0.89327595        0.00000000       -0.00000000
C           0.89327595       -0.00000000       -0.00000000
H          -1.40669645        0.90406400        0.31085772
H          -1.40669645       -0.90406400       -0.31085772
H           1.40669645        0.90406400       -0.31085772
H           1.40669645       -0.90406400        0.31085772
6
MD Time 350.00
C          -0.88795204        0.00000000       -0.00000000
C           0.88795204       -0.00000000       -0.00000000
H          -1.39950244        0.90578598        0.31088650
H          -1.39950244       -0.90578598       -0.31088650
H           1.39950244        0.90578598       -0.31088650
H           1.39950244       -0.90578598        0.31088650
6
MD Time 360.00
C          -0.88265565        0.00000000       -0.00000000
C           0.88265565       -0.00000000       -0.00000000
H          -1.39247458        0.90751488        0.31115197
H          -1.39247458       -0.90751488       -0.31115197
H           1.39247458        0.90751488       -0.31115197
H           1.39247458       -0.90751488        0.31115197
6
MD Time 370.00
C          -0.87740993        0.00000000       -0.00000000
C           0.87740993       -0.00000000       -0.00000000
H          -1.38562026        0.90922324        0.31164941
H          -1.38562026       -0.90922324       -0.31164941
H           1.38562026        0.90922324       -0.31164941
H           1.38562026       -0.90922324        0.31164941
6
MD Time 380.00
C          -0.87223906        0.00000000       -0.00000000
C           0.87223906       -0.00000000       -0.00000000
H          -1.37894476        0.91088075        0.31237146
H          -1.37894476       -0.91088075       -0.31237146
H           1.37894476        0.91088075       -0.31237146
H           1.37894476       -0.91088075        0.31237146
6
MD Time 390.00
C          -0.86716793        0.00000000       -0.00000000
C           0.86716793       -0.00000000       -0.00000000
H          -1.37245198        0.91245548        0.31330853
H          -1.37245198       -0.91245548       -0.31330853
H           1.37245198        0.91245548       -0.31330853
H           1.37245198       -0.91245548        0.31330853
6
MD Time 400.00
C          -0.86222195        0.00000000       -0.00000000
C           0.86222195       -0.00000000       -0.00000000
H          -1.36614509        0.91391521        0.31444921
H          -1.36614509       -0.91391521       -0.31444921
H           1.36614509        0.91391521       -0.31444921
H           1.36614509       -0.91391521        0.31444921
6
MD Time 410.00
C          -0.85742670        0.00000000       -0.00000000
C           0.85742670       -0.00000000       -0.00000000
H          -1.36002730        0.91522869        0.31578074
H          -1.36002730       -0.91522869       -0.31578074
H           1.36002730        0.91522869       -0.31578074
H           1.36002730       -0.91522869        0.31578074
6
MD Time 420.00
C          -0.85280769        0.00000000       -0.00000000
C           0.85280769       -0.00000000       -0.00000000
H          -1.35410249        0.91636698        0.31728942
H          -1.35410249       -0.91636698       -0.31728942
H           1.35410249        0.91636698       -0.31728942
H           1.35410249       -0.91636698        0.31728942
6
MD Time 430.00
C          -0.84839003        0.00000000       -0.00000000
C           0.84839003       -0.00000000       -0.00000000
H          -1.34837588        0.91730458        0.31896105
H          -1.34837588       -0.91730458       -0.31896105
H           1.34837588        0.91730458       -0.31896105
H           1.34837588       -0.91730458        0.31896105
6
MD Time 440.00
C          -0.84419813        0.00000000       -0.00000000
C           0.84419813       -0.00000000       -0.00000000
H          -1.34285452        0.91802048        0.32078134
H          -1.34285452       -0.91802048       -0.32078134
H           1.34285452        0.91802048       -0.32078134
H           1.34285452       -0.91802048        0.32078134
6
MD Time 450.00
C          -0.84025543        0.00000000       -0.00000000
C           0.84025543       -0.00000000       -0.00000000
H          -1.33754777        0.91849903        0.32273622
H          -1.33754777       -0.91849903       -0.32273622
H           1.33754777        0.91849903       -0.32273622
H           1.33754777       -0.91849903        0.32273622
6
MD Time 460.00
C          -0.83658409        0.00000000       -0.00000000
C           0.83658409       -0.00000000       -0.00000000
H          -1.33246761        0.91873063        0.32481218
H          -1.33246761       -0.91873063       -0.32481218
H           1.33246761        0.91873063       -0.32481218
H           1.33246761       -0.91873063        0.32481218
6
MD Time 470.00
C          -0.83320471        0.00000000       -0.00000000
C           0.83320471       -0.00000000       -0.00000000
H          -1.32762884        0.91871213        0.32699648
H          -1.32762884       -0.91871213       -0.32699648
H           1.32762884        0.91871213       -0.32699648
H           1.32762884       -0.91871213        0.32699648
6
MD Time 480.00
C          -0.83013615        0.00000000       -0.00000000
C           0.83013615       -0.00000000       -0.00000000
H          -1.32304909        0.91844709        0.32927727
H          -1.32304909       -0.91844709       -0.32927727
H           1.32304909        0.91844709       -0.32927727
H           1.32304909       -0.91844709        0.32927727
6
MD Time 490.00
C          -0.82739524        0.00000000       -0.00000000
C           0.82739524       -0.00000000       -0.00000000
H          -1.31874878        0.91794572        0.33164376
H          -1.31874878       -0.91794572       -0.33164376
H           1.31874878        0.91794572       -0.33164376
H           1.31874878       -0.91794572        0.33164376
6
MD Time 500.00
C          -0.82499665        0.00000000       -0.00000000
C           0.82499665       -0.00000000       -0.00000000
H          -1.31475087        0.91722464        0.33408615
H          -1.31475087       -0.91722464       -0.33408615
H           1.31475087        0.91722464       -0.33408615
H           1.31475087       -0.91722464        0.33408615
6
MD Time 510.00
C          -0.82295271        0.00000000        0.00000000
C           0.82295271       -0.00000000       -0.00000000
H          -1.31108047        0.91630637        0.33659559
H          -1.31108047       -0.91630637       -0.33659559
H           1.31108047        0.91630637       -0.33659559
H           1.31108047       -0.91630637        0.33659559
6
MD Time 520.00
C          -0.82127335        0.00000000        0.00000000
C           0.82127335       -0.00000000       -0.00000000
H          -1.30776440        0.91521857        0.33916408
H          -1.30776440       -0.91521857       -0.33916408
H           1.30776440        0.91521857       -0.33916408
H           1.30776440       -0.91521857        0.33916408
6
MD Time 530.00
C          -0.81996594        0.00000000        0.00000000
C           0.81996594       -0.00000000       -0.00000000
H          -1.30483053        0.91399319        0.34178419
H          -1.30483053       -0.91399319       -0.34178419
H           1.30483053        0.91399319       -0.34178419
H           1.30483053       -0.91399319        0.34178419
6
MD Time 540.00
C          -0.81903538        0.00000000        0.00000000
C           0.81903538       -0.00000000       -0.00000000
H          -1.30230714        0.91266531        0.34444881
H          -1.30230714       -0.91266531       -0.34444881
H           1.30230714        0.91266531       -0.34444881
H           1.30230714       -0.91266531        0.34444881
6
MD Time 550.00
C          -0.81848403        0.00000000        0.00000000
C           0.81848403       -0.00000000       -0.00000000
H          -1.30022208        0.91127191        0.34715088
H          -1.30022208       -0.91127191       -0.34715088
H           1.30022208        0.91127191       -0.34715088
H           1.30022208       -0.91127191        0.34715088
6
MD Time 560.00
C          -0.81831178        0.00000000        0.00000000
C           0.81831178       -0.00000000       -0.00000000
H          -1.29860200        0.90985056        0.34988294
H          -1.29860200       -0.90985056       -0.34988294
H           1.29860200        0.90985056       -0.34988294
H           1.29860200       -0.90985056        0.34988294
6
MD Time 570.00
C          -0.81851620        0.00000000        0.00000000
C           0.81851620       -0.00000000       -0.00000000
H          -1.29747150        0.90843799        0.35263681
H          -1.29747150       -0.90843799       -0.35263681
H           1.29747150        0.90843799       -0.35263681
H           1.29747150       -0.90843799        0.35263681
6
MD Time 580.00
C          -0.81909258        0.00000000        0.00000000
C           0.81909258       -0.00000000       -0.00000000
H          -1.29685233        0.90706877        0.35540319
H          -1.29685233       -0.90706877       -0.35540319
H           1.29685233        0.90706877       -0.35540319
H           1.29685233       -0.90706877        0.35540319
6
MD Time 590.00
C          -0.82003414        0.00000000        0.00000000
C           0.82003414       -0.00000000       -0.00000000
H          -1.29676261        0.90577393        0.35817132
H          -1.29676261       -0.90577393       -0.35817132
H           1.29676261        0.90577393       -0.35817132
H           1.29676261       -0.90577393        0.35817132
6
MD Time 600.00
C          -0.82133220        0.00000000        0.00000000
C           0.82133220       -0.00000000       -0.00000000
H          -1.29721620        0.90457988        0.36092862
H          -1.29721620       -0.90457988       -0.36092862
H           1.29721620        0.90457988       -0.36092862
H           1.29721620       -0.90457988        0.36092862
6
MD Time 610.00
C          -0.82297630        0.00000000        0.00000000
C           0.82297630       -0.00000000       -0.00000000
H          -1.29822208        0.90350734        0.36366050
H          -1.29822208       -0.90350734       -0.36366050
H           1.29822208        0.90350734       -0.36366050
H           1.29822208       -0.90350734        0.36366050
6
MD Time 620.00
C          -0.82495449        0.00000000        0.00000000
C           0.82495449       -0.00000000       -0.00000000
H          -1.29978403        0.90257065        0.36635019
H          -1.29978403       -0.90257065       -0.36635019
H           1.29978403        0.90257065       -0.36635019
H           1.29978403       -0.90257065        0.36635019
6
MD Time 630.00
C          -0.82725341        0.00000000        0.00000000
C           0.82725341       -0.00000000       -0.00000000
H          -1.30190035        0.90177728        0.36897868
H          -1.30190035       -0.90177728       -0.36897868
H           1.30190035        0.90177728       -0.36897868
H           1.30190035       -0.90177728        0.36897868
6
MD Time 640.00
C          -0.82985857        0.00000000        0.00000000
C           0.82985857       -0.00000000       -0.00000000
H          -1.30456378        0.90112766        0.37152480
H          -1.30456378       -0.90112766       -0.37152480
H           1.30456378        0.90112766       -0.37152480
H           1.30456378       -0.90112766        0.37152480
6
MD Time 650.00
C          -0.83275443        0.00000000        0.00000000
C           0.83275443       -0.00000000       -0.00000000
H          -1.30776167        0.90061533        0.37396542
H          -1.30776167       -0.90061533       -0.37396542
H           1.30776167        0.90061533       -0.37396542
H           1.30776167       -0.90061533        0.37396542
6
MD Time 660.00
C          -0.83592462        0.00000000        0.00000000
C           0.83592462       -0.00000000       -0.00000000
H          -1.31147625        0.90022738        0.37627578
H          -1.31147625       -0.90022738       -0.37627578
H           1.31147625        0.90022738       -0.37627578
H           1.31147625       -0.90022738        0.37627578
6
MD Time 670.00
C          -0.83935207        0.00000000        0.00000000
C           0.83935207       -0.00000000       -0.00000000
H          -1.31568507        0.89994518        0.37842986
H          -1.31568507       -0.89994518       -0.37842986
H           1.31568507        0.89994518       -0.37842986
H           1.31568507       -0.89994518        0.37842986
6
MD Time 680.00
C          -0.84301908        0.00000000        0.00000000
C           0.84301908       -0.00000000       -0.00000000
H          -1.32036163        0.89974530        0.38040095
H          -1.32036163       -0.89974530       -0.38040095
H           1.32036163        0.89974530       -0.38040095
H           1.32036163       -0.89974530        0.38040095
6
MD Time 690.00
C          -0.84690749        0.00000000        0.00000000
C           0.84690749       -0.00000000       -0.00000000
H          -1.32547599        0.89960065        0.38216223
H          -1.32547599       -0.89960065       -0.38216223
H           1.32547599        0.89960065       -0.38216223
H           1.32547599       -0.89960065        0.38216223
6
MD Time 700.00
C          -0.85099877        0.00000000        0.00000000
C           0.85099877       -0.00000000       -0.00000000
H          -1.33099562        0.89948174        0.38368739
H          -1.33099562       -0.89948174       -0.38368739
H           1.33099562        0.89948174       -0.38368739
H           1.33099562       -0.89948174        0.38368739
6
MD Time 710.00
C          -0.85527404        0.00000000        0.00000000
C           0.85527404       -0.00000000       -0.00000000
H          -1.33688614        0.89935803        0.38495130
H          -1.33688614       -0.89935803       -0.38495130
H           1.33688614        0.89935803       -0.38495130
H           1.33688614       -0.89935803        0.38495130
6
MD Time 720.00
C          -0.85971420        0.00000000        0.00000000
C           0.85971420       -0.00000000       -0.00000000
H          -1.34311216        0.89919918        0.38593067
H          -1.34311216       -0.89919918       -0.38593067
H           1.34311216        0.89919918       -0.38593067
H           1.34311216       -0.89919918        0.38593067
6
MD Time 730.00
C          -0.86429998        0.00000000        0.00000000
C           0.86429998       -0.00000000       -0.00000000
H          -1.34963804        0.89897642        0.38660465
H          -1.34963804       -0.89897642       -0.38660465
H           1.34963804        0.89897642       -0.38660465
H           1.34963804       -0.89897642        0.38660465
6
MD Time 740.00
C          -0.86901200        0.00000000        0.00000000
C           0.86901200       -0.00000000       -0.00000000
H          -1.35642863        0.89866366        0.38695542
H          -1.35642863       -0.89866366       -0.38695542
H           1.35642863        0.89866366       -0.38695542
H           1.35642863       -0.89866366        0.38695542
6
MD Time 750.00
C          -0.87383079        0.00000000        0.00000000
C           0.87383079       -0.00000000       -0.00000000
H          -1.36344996        0.89823860        0.38696871
H          -1.36344996       -0.89823860       -0.38696871
H           1.36344996        0.89823860       -0.38696871
H           1.36344996       -0.89823860        0.38696871
6
MD Time 760.00
C          -0.87873693        0.00000000        0.00000000
C           0.87873693       -0.00000000       -0.00000000
H          -1.37066976        0.89768354        0.38663414
H          -1.37066976       -0.89768354       -0.38663414
H           1.37066976        0.89768354       -0.38663414
H           1.37066976       -0.89768354        0.38663414
6
MD Time 770.00
C          -0.88371103        0.00000000        0.00000000
C           0.88371103       -0.00000000       -0.00000000
H          -1.37805794        0.89698613        0.38594561
H          -1.37805794       -0.89698613       -0.38594561
H           1.37805794        0.89698613       -0.38594561
H           1.37805794       -0.89698613        0.38594561
6
MD Time 780.00
C          -0.88873383        0.00000000        0.00000000
C           0.88873383       -0.00000000       -0.00000000
H          -1.38558696        0.89613981        0.38490145
H          -1.38558696       -0.89613981       -0.38490145
H           1.38558696        0.89613981       -0.38490145
H           1.38558696       -0.89613981        0.38490145
6
MD Time 790.00
C          -0.89378627        0.00000000        0.00000000
C           0.89378627       -0.00000000       -0.00000000
H          -1.39323200        0.89514405        0.38350454
H          -1.39323200       -0.89514405       -0.38350454
H           1.39323200        0.89514405       -0.38350454
H           1.39323200       -0.89514405        0.38350454
6
MD Time 800.00
C          -0.89884955        0.00000000        0.00000000
C           0.89884955       -0.00000000       -0.00000000
H          -1.40097111        0.89400440        0.38176228
H          -1.40097111       -0.89400440       -0.38176228
H           1.40097111        0.89400440       -0.38176228
H           1.40097111       -0.89400440        0.38176228
6
MD Time 810.00
C          -0.90390522        0.00000000        0.00000000
C           0.90390522       -0.00000000       -0.00000000
H          -1.40878514        0.89273230        0.37968647
H          -1.40878514       -0.89273230       -0.37968647
H           1.40878514        0.89273230       -0.37968647
H           1.40878514       -0.89273230        0.37968647
6
MD Time 820.00
C          -0.90893525        0.00000000        0.00000000
C           0.90893525       -0.00000000       -0.00000000
H          -1.41665760        0.89134461        0.37729305
H          -1.41665760       -0.89134461       -0.37729305
H           1.41665760        0.89134461       -0.37729305
H           1.41665760       -0.89134461        0.37729305
6
MD Time 830.00
C          -0.91392214        0.00000000        0.00000000
C           0.91392214       -0.00000000       -0.00000000
H          -1.42457438        0.88986304        0.37460177
H          -1.42457438       -0.88986304       -0.37460177
H           1.42457438        0.88986304       -0.37460177
H           1.42457438       -0.88986304        0.37460177
6
MD Time 840.00
C          -0.91884902        0.00000000        0.00000000
C           0.91884902       -0.00000000       -0.00000000
H          -1.43252336        0.88831327        0.37163575
H          -1.43252336       -0.88831327       -0.37163575
H           1.43252336        0.88831327       -0.37163575
H           1.43252336       -0.88831327        0.37163575
6
MD Time 850.00
C          -0.92369970        0.00000000        0.00000000
C           0.92369970       -0.00000000       -0.00000000
H          -1.44049391        0.88672403        0.36842099
H          -1.44049391       -0.88672403       -0.36842099
H           1.44049391        0.88672403       -0.36842099
H           1.44049391       -0.88672403        0.36842099
6
MD Time 860.00
C          -0.92845887        0.00000000        0.00000000
C           0.92845887       -0.00000000       -0.00000000
H          -1.44847635        0.88512595        0.36498578
H          -1.44847635       -0.88512595       -0.36498578
H           1.44847635        0.88512595       -0.36498578
H           1.44847635       -0.88512595        0.36498578
6
MD Time 870.00
C          -0.93311211        0.00000000        0.00000000
C           0.93311211       -0.00000000       -0.00000000
H          -1.45646132        0.88355037        0.36136009
H          -1.45646132       -0.88355037       -0.36136009
H           1.45646132        0.88355037       -0.36136009
H           1.45646132       -0.88355037        0.36136009
6
MD Time 880.00
C          -0.93764606        0.00000000        0.00000000
C           0.93764606       -0.00000000       -0.00000000
H          -1.46443910        0.88202808        0.35757493
H          -1.46443910       -0.88202808       -0.35757493
H           1.46443910        0.88202808       -0.35757493
H           1.46443910       -0.88202808        0.35757493
6
MD Time 890.00
C          -0.94204847        0.00000000        0.00000000
C           0.94204847       -0.00000000       -0.00000000
H          -1.47239893        0.88058808        0.35366176
H          -1.47239893       -0.88058808       -0.35366176
H           1.47239893        0.88058808       -0.35366176
H           1.47239893       -0.88058808        0.35366176
6
MD Time 900.00
C          -0.94630832        0.00000000        0.00000000
C           0.94630832       -0.00000000       -0.00000000
H          -1.48032844        0.87925642        0.34965182
H          -1.48032844       -0.87925642       -0.34965182
H           1.48032844        0.87925642       -0.34965182
H           1.48032844       -0.87925642        0.34965182
6
MD Time 910.00
C          -0.95041588        0.00000000        0.00000000
C           0.95041588       -0.00000000       -0.00000000
H          -1.48821300        0.87805510        0.34557564
H          -1.48821300       -0.87805510       -0.34557564
H           1.48821300        0.87805510       -0.34557564
H           1.48821300       -0.87805510        0.34557564
6
MD Time 920.00
C          -0.95436274        0.00000000        0.00000000
C           0.95436274       -0.00000000       -0.00000000
H          -1.49603527        0.87700122        0.34146255
H          -1.49603527       -0.87700122       -0.34146255
H           1.49603527        0.87700122       -0.34146255
H           1.49603527       -0.87700122        0.34146255
6
MD Time 930.00
C          -0.95814186        0.00000000        0.00000000
C           0.95814186       -0.00000000       -0.00000000
H          -1.50377485        0.87610626        0.33734025
H          -1.50377485       -0.87610626       -0.33734025
H           1.50377485        0.87610626       -0.33734025
H           1.50377485       -0.87610626        0.33734025
6
MD Time 940.00
C          -0.96174756        0.00000000        0.00000000
C           0.96174756       -0.00000000       -0.00000000
H          -1.51140806        0.87537571        0.33323461
H          -1.51140806       -0.87537571       -0.33323461
H           1.51140806        0.87537571       -0.33323461
H           1.51140806       -0.87537571        0.33323461
6
MD Time 950.00
C          -0.96517549        0.00000000        0.00000000
C           0.96517549       -0.00000000       -0.00000000
H          -1.51890791        0.87480893        0.32916939
H          -1.51890791       -0.87480893       -0.32916939
H           1.51890791        0.87480893       -0.32916939
H           1.51890791       -0.87480893        0.32916939
6
MD Time 960.00
C          -0.96842255        0.00000000        0.00000000
C           0.96842255       -0.00000000       -0.00000000
H          -1.52624424        0.87439925        0.32516628
H          -1.52624424       -0.87439925       -0.32516628
H           1.52624424        0.87439925       -0.32516628
H           1.52624424       -0.87439925        0.32516628
6
MD Time 970.00
C          -0.97148683        0.00000000        0.00000000
C           0.97148683       -0.00000000       -0.00000000
H          -1.53338406        0.87413442        0.32124487
H          -1.53338406       -0.87413442       -0.32124487
H           1.53338406        0.87413442       -0.32124487
H           1.53338406       -0.87413442        0.32124487
6
MD Time 980.00
C          -0.97436744        0.00000000        0.00000000
C           0.97436744       -0.00000000       -0.00000000
H          -1.54029199        0.87399730        0.31742280
H          -1.54029199       -0.87399730       -0.31742280
H           1.54029199        0.87399730       -0.31742280
H           1.54029199       -0.87399730        0.31742280
6
MD Time 990.00
C          -0.97706443        0.00000000        0.00000000
C           0.97706443       -0.00000000       -0.00000000
H          -1.54693093        0.87396671        0.31371596
H          -1.54693093       -0.87396671       -0.31371596
H           1.54693093        0.87396671       -0.31371596
H           1.54693093       -0.87396671        0.31371596
6
MD Time 1000.00
C          -0.97957855        0.00000000        0.00000000
C           0.97957855       -0.00000000       -0.00000000
H          -1.55326279        0.87401850        0.31013876
H          -1.55326279       -0.87401850       -0.31013876
H           1.55326279        0.87401850       -0.31013876
H           1.55326279       -0.87401850        0.31013876
6
MD Time 1010.00
C          -0.98191114        0.00000000        0.00000000
C           0.98191114       -0.00000000       -0.00000000
H          -1.55924934        0.87412673        0.30670439
H          -1.55924934       -0.87412673       -0.30670439
H           1.55924934        0.87412673       -0.30670439
H           1.55924934       -0.87412673        0.30670439
6
MD Time 1020.00
C          -0.98406392        0.00000000        0.00000000
C           0.98406392       -0.00000000       -0.00000000
H          -1.56485308        0.87426485        0.30342517
H          -1.56485308       -0.87426485       -0.30342517
H           1.56485308        0.87426485       -0.30342517
H           1.56485308       -0.87426485        0.30342517
6
MD Time 1030.00
C          -0.98603879        0.00000000        0.00000000
C           0.98603879       -0.00000000       -0.00000000
H          -1.57003810        0.87440697        0.30031278
H          -1.57003810       -0.87440697       -0.30031278
H           1.57003810        0.87440697       -0.30031278
H           1.57003810       -0.87440697        0.30031278
6
MD Time 1040.00
C          -0.98783769        0.00000000        0.00000000
C           0.98783769       -0.00000000       -0.00000000
H          -1.57477102        0.87452897        0.29737863
H          -1.57477102       -0.87452897       -0.29737863
H           1.57477102        0.87452897       -0.29737863
H           1.57477102       -0.87452897        0.29737863
6
MD Time 1050.00
C          -0.98946242        0.00000000        0.00000000
C           0.98946242       -0.00000000       -0.00000000
H          -1.57902173        0.87460962        0.29463401
H          -1.57902173       -0.87460962       -0.29463401
H           1.57902173        0.87460962       -0.29463401
H           1.57902173       -0.87460962        0.29463401
6
MD Time 1060.00
C          -0.99091447        0.00000000        0.00000000
C           0.99091447       -0.00000000       -0.00000000
H          -1.58276412        0.87463149        0.29209034
H          -1.58276412       -0.87463149       -0.29209034
H           1.58276412        0.87463149       -0.29209034
H           1.58276412       -0.87463149        0.29209034
6
MD Time 1070.00
C          -0.99219494        0.00000000        0.00000000
C           0.99219494       -0.00000000       -0.00000000
H          -1.58597670        0.87458170        0.28975927
H          -1.58597670       -0.87458170       -0.28975927
H           1.58597670        0.87458170       -0.28975927
H           1.58597670       -0.87458170        0.28975927
6
MD Time 1080.00
C          -0.99330442        0.00000000        0.00000000
C           0.99330442       -0.00000000       -0.00000000
H          -1.58864305        0.87445251        0.28765281
H          -1.58864305       -0.87445251       -0.28765281
H           1.58864305        0.87445251       -0.28765281
H           1.58864305       -0.87445251        0.28765281
6
MD Time 1090.00
C          -0.99424293        0.00000000        0.00000000
C           0.99424293       -0.00000000       -0.00000000
H          -1.59075217        0.87424168        0.28578329
H          -1.59075217       -0.87424168       -0.28578329
H           1.59075217        0.87424168       -0.28578329
H           1.59075217       -0.87424168        0.28578329
6
MD Time 1100.00
C          -0.99500985        0.00000000        0.00000000
C           0.99500985       -0.00000000       -0.00000000
H          -1.59229860        0.87395259        0.28416332
H          -1.59229860       -0.87395259       -0.28416332
H           1.59229860        0.87395259       -0.28416332
H           1.59229860       -0.87395259        0.28416332
6
MD Time 1110.00
C          -0.99560394        0.00000000        0.00000000
C           0.99560394       -0.00000000       -0.00000000
H          -1.59328245        0.87359419        0.28280572
H          -1.59328245       -0.87359419       -0.28280572
H           1.59328245        0.87359419       -0.28280572
H           1.59328245       -0.87359419        0.28280572
6
MD Time 1120.00
C          -0.99602336        0.00000000        0.00000000
C           0.99602336       -0.00000000       -0.00000000
H          -1.59370922        0.87318068        0.28172329
H          -1.59370922       -0.87318068       -0.28172329
H           1.59370922        0.87318068       -0.28172329
H           1.59370922       -0.87318068        0.28172329
6
MD Time 1130.00
C          -0.99626569        0.00000000        0.00000000
C           0.99626569       -0.00000000       -0.00000000
H          -1.59358950        0.87273100        0.28092863
H          -1.59358950       -0.87273100       -0.28092863
H           1.59358950        0.87273100       -0.28092863
H           1.59358950       -0.87273100        0.28092863
6
MD Time 1140.00
C          -0.99632805        0.00000000        0.00000000
C           0.99632805       -0.00000000       -0.00000000
H          -1.59293846        0.87226808        0.28043379
H          -1.59293846       -0.87226808       -0.28043379
H           1.59293846        0.87226808       -0.28043379
H           1.59293846       -0.87226808        0.28043379
6
MD Time 1150.00
C          -0.99620718        0.00000000        0.00000000
C           0.99620718       -0.00000000       -0.00000000
H          -1.59177526        0.87181798        0.28025002
H          -1.59177526       -0.87181798       -0.28025002
H           1.59177526        0.87181798       -0.28025002
H           1.59177526       -0.87181798        0.28025002
6
MD Time 1160.00
C          -0.99589956        0.00000000        0.00000000
C           0.99589956       -0.00000000       -0.00000000
H          -1.59012232        0.87140878        0.28038733
H          -1.59012232       -0.87140878       -0.28038733
H           1.59012232        0.87140878       -0.28038733
H           1.59012232       -0.87140878        0.28038733
6
MD Time 1170.00
C          -0.99540157        0.00000000        0.00000000
C           0.99540157       -0.00000000       -0.00000000
H          -1.58800450        0.87106944        0.28085413
H          -1.58800450       -0.87106944       -0.28085413
H           1.58800450        0.87106944       -0.28085413
H           1.58800450       -0.87106944        0.28085413
6
MD Time 1180.00
C          -0.99470962        0.00000000        0.00000000
C           0.99470962       -0.00000000       -0.00000000
H          -1.58544819        0.87082852        0.28165680
H          -1.58544819       -0.87082852       -0.28165680
H           1.58544819        0.87082852       -0.28165680
H           1.58544819       -0.87082852        0.28165680
6
MD Time 1190.00
C          -0.99382037        0.00000000        0.00000000
C           0.99382037       -0.00000000       -0.00000000
H          -1.58248048        0.87071290        0.28279930
H          -1.58248048       -0.87071290       -0.28279930
H           1.58248048        0.87071290       -0.28279930
H           1.58248048       -0.87071290        0.28279930
6
MD Time 1200.00
C          -0.99273083        0.00000000        0.00000000
C           0.99273083       -0.00000000       -0.00000000
H          -1.57912817        0.87074649        0.28428273
H          -1.57912817       -0.87074649       -0.28428273
H           1.57912817        0.87074649       -0.28428273
H           1.57912817       -0.87074649        0.28428273
6
MD Time 1210.00
C          -0.99143853        0.00000000        0.00000000
C           0.99143853       -0.00000000       -0.00000000
H          -1.57541704        0.87094911        0.28610505
H          -1.57541704       -0.87094911       -0.28610505
H           1.57541704        0.87094911       -0.28610505
H           1.57541704       -0.87094911        0.28610505
6
MD Time 1220.00
C          -0.98994169        0.00000000        0.00000000
C           0.98994169       -0.00000000       -0.00000000
H          -1.57137106        0.87133542        0.28826069
H          -1.57137106       -0.87133542       -0.28826069
H           1.57137106        0.87133542       -0.28826069
H           1.57137106       -0.87133542        0.28826069
6
MD Time 1230.00
C          -0.98823931        0.00000000        0.00000000
C           0.98823931       -0.00000000       -0.00000000
H          -1.56701177        0.87191408        0.29074034
H          -1.56701177       -0.87191408       -0.29074034
H           1.56701177        0.87191408       -0.29074034
H           1.56701177       -0.87191408        0.29074034
6
MD Time 1240.00
C          -0.98633129        0.00000000        0.00000000
C           0.98633129       -0.00000000       -0.00000000
H          -1.56235791        0.87268722        0.29353082
H          -1.56235791       -0.87268722       -0.29353082
H           1.56235791        0.87268722       -0.29353082
H           1.56235791       -0.87268722        0.29353082
6
MD Time 1250.00
C          -0.98421844        0.00000000        0.00000000
C           0.98421844       -0.00000000       -0.00000000
H          -1.55742511        0.87365009        0.29661504
H          -1.55742511       -0.87365009       -0.29661504
H           1.55742511        0.87365009       -0.29661504
H           1.55742511       -0.87365009        0.29661504
6
MD Time 1260.00
C          -0.98190259        0.00000000        0.00000000
C           0.98190259       -0.00000000       -0.00000000
H          -1.55222586        0.87479110        0.29997201
H          -1.55222586       -0.87479110       -0.29997201
H           1.55222586        0.87479110       -0.29997201
H           1.55222586       -0.87479110        0.29997201
6
MD Time 1270.00
C          -0.97938653        0.00000000        0.00000000
C           0.97938653       -0.00000000       -0.00000000
H          -1.54676964        0.87609209        0.30357706
H          -1.54676964       -0.87609209       -0.30357706
H           1.54676964        0.87609209       -0.30357706
H           1.54676964       -0.87609209        0.30357706
6
MD Time 1280.00
C          -0.97667401        0.00000000        0.00000000
C           0.97667401       -0.00000000       -0.00000000
H          -1.54106326        0.87752897        0.30740212
H          -1.54106326       -0.87752897       -0.30740212
H           1.54106326        0.87752897       -0.30740212
H           1.54106326       -0.87752897        0.30740212
6
MD Time 1290.00
C          -0.97376970        0.00000000        0.00000000
C           0.97376970       -0.00000000       -0.00000000
H          -1.53511131        0.87907259        0.31141610
H          -1.53511131       -0.87907259       -0.31141610
H           1.53511131        0.87907259       -0.31141610
H           1.53511131       -0.87907259        0.31141610
6
MD Time 1300.00
C          -0.97067909        0.00000000        0.00000000
C           0.97067909       -0.00000000       -0.00000000
H          -1.52891682        0.88068977        0.31558537
H          -1.52891682       -0.88068977       -0.31558537
H           1.52891682        0.88068977       -0.31558537
H           1.52891682       -0.88068977        0.31558537
6
MD Time 1310.00
C          -0.96740839        0.00000000        0.00000000
C           0.96740839       -0.00000000       -0.00000000
H          -1.52248195        0.88234462        0.31987437
H          -1.52248195       -0.88234462       -0.31987437
H           1.52248195        0.88234462       -0.31987437
H           1.52248195       -0.88234462        0.31987437
6
MD Time 1320.00
C          -0.96396449        0.00000000        0.00000000
C           0.96396449       -0.00000000       -0.00000000
H          -1.51580874        0.88399983        0.32424616
H          -1.51580874       -0.88399983       -0.32424616
H           1.51580874        0.88399983       -0.32424616
H           1.51580874       -0.88399983        0.32424616
6
MD Time 1330.00
C          -0.96035481        0.00000000        0.00000000
C           0.96035481       -0.00000000       -0.00000000
H          -1.50889989        0.88561813        0.32866312
H          -1.50889989       -0.88561813       -0.32866312
H           1.50889989        0.88561813       -0.32866312
H           1.50889989       -0.88561813        0.32866312
6
MD Time 1340.00
C          -0.95658723        0.00000000        0.00000000
C           0.95658723       -0.00000000       -0.00000000
H          -1.50175953        0.88716363        0.33308763
H          -1.50175953       -0.88716363       -0.33308763
H           1.50175953        0.88716363       -0.33308763
H           1.50175953       -0.88716363        0.33308763
6
MD Time 1350.00
C          -0.95266999        0.00000000        0.00000000
C           0.95266999       -0.00000000       -0.00000000
H          -1.49439395        0.88860317        0.33748269
H          -1.49439395       -0.88860317       -0.33748269
H           1.49439395        0.88860317       -0.33748269
H           1.49439395       -0.88860317        0.33748269
6
MD Time 1360.00
C          -0.94861164        0.00000000        0.00000000
C           0.94861164       -0.00000000       -0.00000000
H          -1.48681217        0.88990750        0.34181260
H          -1.48681217       -0.88990750       -0.34181260
H           1.48681217        0.88990750       -0.34181260
H           1.48681217       -0.88990750        0.34181260
6
MD Time 1370.00
C          -0.94442098        0.00000000        0.00000000
C           0.94442098       -0.00000000       -0.00000000
H          -1.47902647        0.89105234        0.34604350
H          -1.47902647       -0.89105234       -0.34604350
H           1.47902647        0.89105234       -0.34604350
H           1.47902647       -0.89105234        0.34604350
6
MD Time 1380.00
C          -0.94010701        0.00000000        0.00000000
C           0.94010701       -0.00000000       -0.00000000
H          -1.47105283        0.89201925        0.35014395
H          -1.47105283       -0.89201925       -0.35014395
H           1.47105283        0.89201925       -0.35014395
H           1.47105283       -0.89201925        0.35014395
6
MD Time 1390.00
C          -0.93567895        0.00000000        0.00000000
C           0.93567895       -0.00000000       -0.00000000
H          -1.46291114        0.89279624        0.35408536
H          -1.46291114       -0.89279624       -0.35408536
H           1.46291114        0.89279624       -0.35408536
H           1.46291114       -0.89279624        0.35408536
6
MD Time 1400.00
C          -0.93114620        0.00000000        0.00000000
C           0.93114620       -0.00000000       -0.00000000
H          -1.45462539        0.89337823        0.35784234
H          -1.45462539       -0.89337823       -0.35784234
H           1.45462539        0.89337823       -0.35784234
H           1.45462539       -0.89337823        0.35784234
6
MD Time 1410.00
C          -0.92651841        0.00000000        0.00000000
C           0.92651841       -0.00000000       -0.00000000
H          -1.44622357        0.89376721        0.36139301
H          -1.44622357       -0.89376721       -0.36139301
H           1.44622357        0.89376721       -0.36139301
H           1.44622357       -0.89376721        0.36139301
6
MD Time 1420.00
C          -0.92180552        0.00000000        0.00000000
C           0.92180552       -0.00000000       -0.00000000
H          -1.43773762        0.89397218        0.36471914
H          -1.43773762       -0.89397218       -0.36471914
H           1.43773762        0.89397218       -0.36471914
H           1.43773762       -0.89397218        0.36471914
6
MD Time 1430.00
C          -0.91701779        0.00000000        0.00000000
C           0.91701779       -0.00000000       -0.00000000
H          -1.42920303        0.89400883        0.36780625
H          -1.42920303       -0.89400883       -0.36780625
H           1.42920303        0.89400883       -0.36780625
H           1.42920303       -0.89400883        0.36780625
6
MD Time 1440.00
C          -0.91216594        0.00000000        0.00000000
C           0.91216594       -0.00000000       -0.00000000
H          -1.42065851        0.89389904        0.37064352
H          -1.42065851       -0.89389904       -0.37064352
H           1.42065851        0.89389904       -0.37064352
H           1.42065851       -0.89389904        0.37064352
6
MD Time 1450.00
C          -0.90726121        0.00000000        0.00000000
C           0.90726121       -0.00000000       -0.00000000
H          -1.41214539        0.89367004        0.37322371
H          -1.41214539       -0.89367004       -0.37322371
H           1.41214539        0.89367004       -0.37322371
H           1.41214539       -0.89367004        0.37322371
6
MD Time 1460.00
C          -0.90231545        0.00000000        0.00000000
C           0.90231545       -0.00000000       -0.00000000
H          -1.40370697        0.89335349        0.37554287
H          -1.40370697       -0.89335349       -0.37554287
H           1.40370697        0.89335349       -0.37554287
H           1.40370697       -0.89335349        0.37554287
6
MD Time 1470.00
C          -0.89734127        0.00000000        0.00000000
C           0.89734127       -0.00000000       -0.00000000
H          -1.39538781        0.89298433        0.37760003
H          -1.39538781       -0.89298433       -0.37760003
H           1.39538781        0.89298433       -0.37760003
H           1.39538781       -0.89298433        0.37760003
6
MD Time 1480.00
C          -0.89235210        0.00000000        0.00000000
C           0.89235210       -0.00000000       -0.00000000
H          -1.38723291        0.89259945        0.37939677
H          -1.38723291       -0.89259945       -0.37939677
H           1.38723291        0.89259945       -0.37939677
H           1.38723291       -0.89259945        0.37939677
6
MD Time 1490.00
C          -0.88736233        0.00000000        0.00000000
C           0.88736233       -0.00000000       -0.00000000
H          -1.37928682        0.89223630        0.38093676
H          -1.37928682       -0.89223630       -0.38093676
H           1.37928682        0.89223630       -0.38093676
H           1.37928682       -0.89223630        0.38093676
6
MD Time 1500.00
C          -0.88238739        0.00000000        0.00000000
C           0.88238739       -0.00000000       -0.00000000
H          -1.37159280        0.89193146        0.38222523
H          -1.37159280       -0.89193146       -0.38222523
H           1.37159280        0.89193146       -0.38222523
H           1.37159280       -0.89193146        0.38222523
6
MD Time 1510.00
C          -0.87744381        0.00000000        0.00000000
C           0.87744381       -0.00000000       -0.00000000
H          -1.36419196        0.89171920        0.38326841
H          -1.36419196       -0.89171920       -0.38326841
H           1.36419196        0.89171920       -0.38326841
H           1.36419196       -0.89171920        0.38326841
6
MD Time 1520.00
C          -0.87254930        0.00000000        0.00000000
C           0.87254930       -0.00000000       -0.00000000
H          -1.35712245        0.89163007        0.38407306
H          -1.35712245       -0.89163007       -0.38407306
H           1.35712245        0.89163007       -0.38407306
H           1.35712245       -0.89163007        0.38407306
6
MD Time 1530.00
C          -0.86772271        0.00000000        0.00000000
C           0.86772271       -0.00000000       -0.00000000
H          -1.35041870        0.89168970        0.38464592
H          -1.35041870       -0.89168970       -0.38464592
H           1.35041870        0.89168970       -0.38464592
H           1.35041870       -0.89168970        0.38464592
6
MD Time 1540.00
C          -0.86298408        0.00000000        0.00000000
C           0.86298408       -0.00000000       -0.00000000
H          -1.34411082        0.89191773        0.38499332
H          -1.34411082       -0.89191773       -0.38499332
H           1.34411082        0.89191773       -0.38499332
H           1.34411082       -0.89191773        0.38499332
6
MD Time 1550.00
C          -0.85835451        0.00000000        0.00000000
C           0.85835451       -0.00000000       -0.00000000
H          -1.33822413        0.89232700        0.38512080
H          -1.33822413       -0.89232700       -0.38512080
H           1.33822413        0.89232700       -0.38512080
H           1.33822413       -0.89232700        0.38512080
6
MD Time 1560.00
C          -0.85385612        0.00000000        0.00000000
C           0.85385612       -0.00000000       -0.00000000
H          -1.33277881        0.89292305        0.38503291
H          -1.33277881       -0.89292305       -0.38503291
H           1.33277881        0.89292305       -0.38503291
H           1.33277881       -0.89292305        0.38503291
6
MD Time 1570.00
C          -0.84951184        0.00000000        0.00000000
C           0.84951184       -0.00000000       -0.00000000
H          -1.32778976        0.89370387        0.38473309
H          -1.32778976       -0.89370387       -0.38473309
H           1.32778976        0.89370387       -0.38473309
H           1.32778976       -0.89370387        0.38473309
6
MD Time 1580.00
C          -0.84534524        0.00000000        0.00000000
C           0.84534524       -0.00000000       -0.00000000
H          -1.32326661        0.89466009        0.38422367
H          -1.32326661       -0.89466009       -0.38422367
H           1.32326661        0.89466009       -0.38422367
H           1.32326661       -0.89466009        0.38422367
6
MD Time 1590.00
C          -0.84138028        0.00000000        0.00000000
C           0.84138028       -0.00000000       -0.00000000
H          -1.31921398        0.89577534        0.38350599
H          -1.31921398       -0.89577534       -0.38350599
H           1.31921398        0.89577534       -0.38350599
H           1.31921398       -0.89577534        0.38350599
6
MD Time 1600.00
C          -0.83764103        0.00000000        0.00000000
C           0.83764103       -0.00000000       -0.00000000
H          -1.31563178        0.89702705        0.38258067
H          -1.31563178       -0.89702705       -0.38258067
H           1.31563178        0.89702705       -0.38258067
H           1.31563178       -0.89702705        0.38258067
6
MD Time 1610.00
C          -0.83415137        0.00000000        0.00000000
C           0.83415137       -0.00000000       -0.00000000
H          -1.31251575        0.89838736        0.38144794
H          -1.31251575       -0.89838736       -0.38144794
H           1.31251575        0.89838736       -0.38144794
H           1.31251575       -0.89838736        0.38144794
6
MD Time 1620.00
C          -0.83093460        0.00000000        0.00000000
C           0.83093460       -0.00000000       -0.00000000
H          -1.30985808        0.89982436        0.38010800
H          -1.30985808       -0.89982436       -0.38010800
H           1.30985808        0.89982436       -0.38010800
H           1.30985808       -0.89982436        0.38010800
6
MD Time 1630.00
C          -0.82801314        0.00000000        0.00000000
C           0.82801314       -0.00000000       -0.00000000
H          -1.30764814        0.90130338        0.37856155
H          -1.30764814       -0.90130338       -0.37856155
H           1.30764814        0.90130338       -0.37856155
H           1.30764814       -0.90130338        0.37856155
6
MD Time 1640.00
C          -0.82540815        0.00000000        0.00000000
C           0.82540815       -0.00000000       -0.00000000
H          -1.30587324        0.90278840        0.37681019
H          -1.30587324       -0.90278840       -0.37681019
H           1.30587324        0.90278840       -0.37681019
H           1.30587324       -0.90278840        0.37681019
6
MD Time 1650.00
C          -0.82313917        0.00000000        0.00000000
C           0.82313917       -0.00000000       -0.00000000
H          -1.30451936        0.90424347        0.37485689
H          -1.30451936       -0.90424347       -0.37485689
H           1.30451936        0.90424347       -0.37485689
H           1.30451936       -0.90424347        0.37485689
6
MD Time 1660.00
C          -0.82122376        0.00000000        0.00000000
C           0.82122376       -0.00000000       -0.00000000
H          -1.30357202        0.90563407        0.37270644
H          -1.30357202       -0.90563407       -0.37270644
H           1.30357202        0.90563407       -0.37270644
H           1.30357202       -0.90563407        0.37270644
6
MD Time 1670.00
C          -0.81967723        0.00000000        0.00000000
C           0.81967723       -0.00000000       -0.00000000
H          -1.30301690        0.90692839        0.37036581
H          -1.30301690       -0.90692839       -0.37036581
H           1.30301690        0.90692839       -0.37036581
H           1.30301690       -0.90692839        0.37036581
6
MD Time 1680.00
C          -0.81851232        0.00000000        0.00000000
C           0.81851232       -0.00000000       -0.00000000
H          -1.30284058        0.90809850        0.36784443
H          -1.30284058       -0.90809850       -0.36784443
H           1.30284058        0.90809850       -0.36784443
H           1.30284058       -0.90809850        0.36784443
6
MD Time 1690.00
C          -0.81773896        0.00000000        0.00000000
C           0.81773896       -0.00000000       -0.00000000
H          -1.30303106        0.90912127        0.36515444
H          -1.30303106       -0.90912127       -0.36515444
H           1.30303106        0.90912127       -0.36515444
H           1.30303106       -0.90912127        0.36515444
6
MD Time 1700.00
C          -0.81736413        0.00000000       -0.00000000
C           0.81736413       -0.00000000       -0.00000000
H          -1.30357821        0.90997914        0.36231077
H          -1.30357821       -0.90997914       -0.36231077
H           1.30357821        0.90997914       -0.36231077
H           1.30357821       -0.90997914        0.36231077
6
MD Time 1710.00
C          -0.81739167        0.00000000       -0.00000000
C           0.81739167       -0.00000000       -0.00000000
H          -1.30447412        0.91066067        0.35933124
H          -1.30447412       -0.91066067       -0.35933124
H           1.30447412        0.91066067       -0.35933124
H           1.30447412       -0.91066067        0.35933124
6
MD Time 1720.00
C          -0.81782226        0.00000000       -0.00000000
C           0.81782226       -0.00000000       -0.00000000
H          -1.30571329        0.91116082        0.35623639
H          -1.30571329       -0.91116082       -0.35623639
H           1.30571329        0.91116082       -0.35623639
H           1.30571329       -0.91116082        0.35623639
6
MD Time 1730.00
C          -0.81865334        0.00000000       -0.00000000
C           0.81865334       -0.00000000       -0.00000000
H          -1.30729268        0.91148098        0.35304941
H          -1.30729268       -0.91148098       -0.35304941
H           1.30729268        0.91148098       -0.35304941
H           1.30729268       -0.91148098        0.35304941
6
MD Time 1740.00
C          -0.81987925        0.00000000       -0.00000000
C           0.81987925       -0.00000000       -0.00000000
H          -1.30921162        0.91162879        0.34979578
H          -1.30921162       -0.91162879       -0.34979578
H           1.30921162        0.91162879       -0.34979578
H           1.30921162       -0.91162879        0.34979578
6
MD Time 1750.00
C          -0.82149127        0.00000000       -0.00000000
C           0.82149127       -0.00000000       -0.00000000
H          -1.31147161        0.91161768        0.34650298
H          -1.31147161       -0.91161768       -0.34650298
H           1.31147161        0.91161768       -0.34650298
H           1.31147161       -0.91161768        0.34650298
6
MD Time 1760.00
C          -0.82347783        0.00000000       -0.00000000
C           0.82347783       -0.00000000       -0.00000000
H          -1.31407592        0.91146622        0.34320002
H          -1.31407592       -0.91146622       -0.34320002
H           1.31407592        0.91146622       -0.34320002
H           1.31407592       -0.91146622        0.34320002
6
MD Time 1770.00
C          -0.82582471        0.00000000       -0.00000000
C           0.82582471       -0.00000000       -0.00000000
H          -1.31702916        0.91119719        0.33991691
H          -1.31702916       -0.91119719       -0.33991691
H           1.31702916        0.91119719       -0.33991691
H           1.31702916       -0.91119719        0.33991691
6
MD Time 1780.00
C          -0.82851532        0.00000000       -0.00000000
C           0.82851532       -0.00000000       -0.00000000
H          -1.32033664        0.91083655        0.33668415
H          -1.32033664       -0.91083655       -0.33668415
H           1.32033664        0.91083655       -0.33668415
H           1.32033664       -0.91083655        0.33668415
6
MD Time 1790.00
C          -0.83153101        0.00000000       -0.00000000
C           0.83153101       -0.00000000       -0.00000000
H          -1.32400377        0.91041218        0.33353203
H          -1.32400377       -0.91041218       -0.33353203
H           1.32400377        0.91041218       -0.33353203
H           1.32400377       -0.91041218        0.33353203
6
MD Time 1800.00
C          -0.83485140        0.00000000       -0.00000000
C           0.83485140       -0.00000000       -0.00000000
H          -1.32803529        0.90995257        0.33049011
H          -1.32803529       -0.90995257       -0.33049011
H           1.32803529        0.90995257       -0.33049011
H           1.32803529       -0.90995257        0.33049011
6
MD Time 1810.00
C          -0.83845470        0.00000000       -0.00000000
C           0.83845470       -0.00000000       -0.00000000
H          -1.33243450        0.90948544        0.32758648
H          -1.33243450       -0.90948544       -0.32758648
H           1.33243450        0.90948544       -0.32758648
H           1.33243450       -0.90948544        0.32758648
6
MD Time 1820.00
C          -0.84231814        0.00000000       -0.00000000
C           0.84231814       -0.00000000       -0.00000000
H          -1.33720257        0.90903637        0.32484723
H          -1.33720257       -0.90903637       -0.32484723
H           1.33720257        0.90903637       -0.32484723
H           1.33720257       -0.90903637        0.32484723
6
MD Time 1830.00
C          -0.84641827        0.00000000       -0.00000000
C           0.84641827       -0.00000000       -0.00000000
H          -1.34233780        0.90862749        0.32229583
H          -1.34233780       -0.90862749       -0.32229583
H           1.34233780        0.90862749       -0.32229583
H           1.34233780       -0.90862749        0.32229583
6
MD Time 1840.00
C          -0.85073131        0.00000000       -0.00000000
C           0.85073131       -0.00000000       -0.00000000
H          -1.34783500        0.90827632        0.31995268
H          -1.34783500       -0.90827632       -0.31995268
H           1.34783500        0.90827632       -0.31995268
H           1.34783500       -0.90827632        0.31995268
6
MD Time 1850.00
C          -0.85523349        0.00000000       -0.00000000
C           0.85523349       -0.00000000       -0.00000000
H          -1.35368499        0.90799484        0.31783469
H          -1.35368499       -0.90799484       -0.31783469
H           1.35368499        0.90799484       -0.31783469
H           1.35368499       -0.90799484        0.31783469
6
MD Time 1860.00
C          -0.85990132        0.00000000       -0.00000000
C           0.85990132       -0.00000000       -0.00000000
H          -1.35987422        0.90778873        0.31595497
H          -1.35987422       -0.90778873       -0.31595497
H           1.35987422        0.90778873       -0.31595497
H           1.35987422       -0.90778873        0.31595497
6
MD Time 1870.00
C          -0.86471182        0.00000000       -0.00000000
C           0.86471182       -0.00000000       -0.00000000
H          -1.36638460        0.90765702        0.31432266
H          -1.36638460       -0.90765702       -0.31432266
H           1.36638460        0.90765702       -0.31432266
H           1.36638460       -0.90765702        0.31432266
6
MD Time 1880.00
C          -0.86964276        0.00000000       -0.00000000
C           0.86964276       -0.00000000       -0.00000000
H          -1.37319343        0.90759195        0.31294290
H          -1.37319343       -0.90759195       -0.31294290
H           1.37319343        0.90759195       -0.31294290
H           1.37319343       -0.90759195        0.31294290
6
MD Time 1890.00
C          -0.87467278        0.00000000       -0.00000000
C           0.87467278       -0.00000000       -0.00000000
H          -1.38027360        0.90757927        0.31181686
H          -1.38027360       -0.90757927       -0.31181686
H           1.38027360        0.90757927       -0.31181686
H           1.38027360       -0.90757927        0.31181686
6
MD Time 1900.00
C          -0.87978149        0.00000000       -0.00000000
C           0.87978149       -0.00000000       -0.00000000
H          -1.38759395        0.90759873        0.31094197
H          -1.38759395       -0.90759873       -0.31094197
H           1.38759395        0.90759873       -0.31094197
H           1.38759395       -0.90759873        0.31094197
6
MD Time 1910.00
C          -0.88494955        0.00000000       -0.00000000
C           0.88494955       -0.00000000       -0.00000000
H          -1.39511974        0.90762498        0.31031220
H          -1.39511974       -0.90762498       -0.31031220
H           1.39511974        0.90762498       -0.31031220
H           1.39511974       -0.90762498        0.31031220
6
MD Time 1920.00
C          -0.89015871        0.00000000       -0.00000000
C           0.89015871       -0.00000000       -0.00000000
H          -1.40281330        0.90762864        0.30991849
H          -1.40281330       -0.90762864       -0.30991849
H           1.40281330        0.90762864       -0.30991849
H           1.40281330       -0.90762864        0.30991849
6
MD Time 1930.00
C          -0.89539171        0.00000000       -0.00000000
C           0.89539171       -0.00000000       -0.00000000
H          -1.41063484        0.90757756        0.30974913
H          -1.41063484       -0.90757756       -0.30974913
H           1.41063484        0.90757756       -0.30974913
H           1.41063484       -0.90757756        0.30974913
6
MD Time 1940.00
C          -0.90063233        0.00000000       -0.00000000
C           0.90063233       -0.00000000       -0.00000000
H          -1.41854321        0.90743822        0.30979035
H          -1.41854321       -0.90743822       -0.30979035
H           1.41854321        0.90743822       -0.30979035
H           1.41854321       -0.90743822        0.30979035
6
MD Time 1950.00
C          -0.90586524        0.00000000       -0.00000000
C           0.90586524       -0.00000000       -0.00000000
H          -1.42649682        0.90717719        0.31002684
H          -1.42649682       -0.90717719       -0.31002684
H           1.42649682        0.90717719       -0.31002684
H           1.42649682       -0.90717719        0.31002684
6
MD Time 1960.00
C          -0.91107594        0.00000000       -0.00000000
C           0.91107594       -0.00000000       -0.00000000
H          -1.43445451        0.90676256        0.31044225
H          -1.43445451       -0.90676256       -0.31044225
H           1.43445451        0.90676256       -0.31044225
H           1.43445451       -0.90676256        0.31044225
6
MD Time 1970.00
C          -0.91625067        0.00000000       -0.00000000
C           0.91625067       -0.00000000       -0.00000000
H          -1.44237636        0.90616528        0.31101978
H          -1.44237636       -0.90616528       -0.31101978
H           1.44237636        0.90616528       -0.31101978
H           1.44237636       -0.90616528        0.31101978
6
MD Time 1980.00
C          -0.92137627        0.00000000       -0.00000000
C           0.92137627       -0.00000000       -0.00000000
H          -1.45022453        0.90536048        0.31174263
H          -1.45022453       -0.90536048       -0.31174263
H           1.45022453        0.90536048       -0.31174263
H           1.45022453       -0.90536048        0.31174263
6
MD Time 1990.00
C          -0.92644014        0.00000000       -0.00000000
C           0.92644014       -0.00000000       -0.00000000
H          -1.45796391        0.90432849        0.31259445
H          -1.45796391       -0.90432849       -0.31259445
H           1.45796391        0.90432849       -0.31259445
H           1.45796391       -0.90432849        0.31259445
6
MD Time 2000.00
C          -0.93143007        0.00000000       -0.00000000
C           0.93143007       -0.00000000       -0.00000000
H          -1.46556276        0.90305576        0.31355978
H          -1.46556276       -0.90305576       -0.31355978
H           1.46556276        0.90305576       -0.31355978
H           1.46556276       -0.90305576        0.31355978
6
MD Time 2010.00
C          -0.93633422        0.00000000       -0.00000000
C           0.93633422       -0.00000000       -0.00000000
H          -1.47299314        0.90153555        0.31462433
H          -1.47299314       -0.90153555       -0.31462433
H           1.47299314        0.90153555       -0.31462433
H           1.47299314       -0.90153555        0.31462433
6
MD Time 2020.00
C          -0.94114102        0.00000000       -0.00000000
C           0.94114102       -0.00000000       -0.00000000
H          -1.48023130        0.89976834        0.31577524
H          -1.48023130       -0.89976834       -0.31577524
H           1.48023130        0.89976834       -0.31577524
H           1.48023130       -0.89976834        0.31577524
6
MD Time 2030.00
C          -0.94583914        0.00000000       -0.00000000
C           0.94583914       -0.00000000       -0.00000000
H          -1.48725784        0.89776202        0.31700125
H          -1.48725784       -0.89776202       -0.31700125
H           1.48725784        0.89776202       -0.31700125
H           1.48725784       -0.89776202        0.31700125
6
MD Time 2040.00
C          -0.95041743        0.00000000       -0.00000000
C           0.95041743       -0.00000000       -0.00000000
H          -1.49405778        0.89553183        0.31829284
H          -1.49405778       -0.89553183       -0.31829284
H           1.49405778        0.89553183       -0.31829284
H           1.49405778       -0.89553183        0.31829284
6
MD Time 2050.00
C          -0.95486494        0.00000000       -0.00000000
C           0.95486494       -0.00000000       -0.00000000
H          -1.50062044        0.89310004        0.31964215
H          -1.50062044       -0.89310004       -0.31964215
H           1.50062044        0.89310004       -0.31964215
H           1.50062044       -0.89310004        0.31964215
6
MD Time 2060.00
C          -0.95917091        0.00000000       -0.00000000
C           0.95917091       -0.00000000       -0.00000000
H          -1.50693926        0.89049539        0.32104299
H          -1.50693926       -0.89049539       -0.32104299
H           1.50693926        0.89049539       -0.32104299
H           1.50693926       -0.89049539        0.32104299
6
MD Time 2070.00
C          -0.96332482        0.00000000       -0.00000000
C           0.96332482       -0.00000000       -0.00000000
H          -1.51301136        0.88775229        0.32249064
H          -1.51301136       -0.88775229       -0.32249064
H           1.51301136        0.88775229       -0.32249064
H           1.51301136       -0.88775229        0.32249064
6
MD Time 2080.00
C          -0.96731642        0.00000000       -0.00000000
C           0.96731642       -0.00000000       -0.00000000
H          -1.51883704        0.88490987        0.32398165
H          -1.51883704       -0.88490987       -0.32398165
H           1.51883704        0.88490987       -0.32398165
H           1.51883704       -0.88490987        0.32398165
6
MD Time 2090.00
C          -0.97113584        0.00000000       -0.00000000
C           0.97113584       -0.00000000       -0.00000000
H          -1.52441919        0.88201075        0.32551352
H          -1.52441919       -0.88201075       -0.32551352
H           1.52441919        0.88201075       -0.32551352
H           1.52441919       -0.88201075        0.32551352
6
MD Time 2100.00
C          -0.97477361        0.00000000       -0.00000000
C           0.97477361       -0.00000000       -0.00000000
H          -1.52976254        0.87909974        0.32708436
H          -1.52976254       -0.87909974       -0.32708436
H           1.52976254        0.87909974       -0.32708436
H           1.52976254       -0.87909974        0.32708436
6
MD Time 2110.00
C          -0.97822082        0.00000000       -0.00000000
C           0.97822082       -0.00000000       -0.00000000
H          -1.53487290        0.87622243        0.32869251
H          -1.53487290       -0.87622243       -0.32869251
H           1.53487290        0.87622243       -0.32869251
H           1.53487290       -0.87622243        0.32869251
6
MD Time 2120.00
C          -0.98146921        0.00000000       -0.00000000
C           0.98146921       -0.00000000       -0.00000000
H          -1.53975628        0.87342373        0.33033610
H          -1.53975628       -0.87342373       -0.33033610
H           1.53975628        0.87342373       -0.33033610
H           1.53975628       -0.87342373        0.33033610
6
MD Time 2130.00
C          -0.98451124        0.00000000       -0.00000000
C           0.98451124       -0.00000000       -0.00000000
H          -1.54441812        0.87074638        0.33201260
H          -1.54441812       -0.87074638       -0.33201260
H           1.54441812        0.87074638       -0.33201260
H           1.54441812       -0.87074638        0.33201260
6
MD Time 2140.00
C          -0.98734026        0.00000000       -0.00000000
C           0.98734026       -0.00000000       -0.00000000
H          -1.54886246        0.86822958        0.33371847
H          -1.54886246       -0.86822958       -0.33371847
H           1.54886246        0.86822958       -0.33371847
H           1.54886246       -0.86822958        0.33371847
6
MD Time 2150.00
C          -0.98995051        0.00000000       -0.00000000
C           0.98995051       -0.00000000       -0.00000000
H          -1.55309119        0.86590774        0.33544871
H          -1.55309119       -0.86590774       -0.33544871
H           1.55309119        0.86590774       -0.33544871
H           1.55309119       -0.86590774        0.33544871
6
MD Time 2160.00
C          -0.99233729        0.00000000       -0.00000000
C           0.99233729       -0.00000000       -0.00000000
H          -1.55710350        0.86380940        0.33719659
H          -1.55710350       -0.86380940       -0.33719659
H           1.55710350        0.86380940       -0.33719659
H           1.55710350       -0.86380940        0.33719659
6
MD Time 2170.00
C          -0.99449694        0.00000000       -0.00000000
C           0.99449694       -0.00000000       -0.00000000
H          -1.56089534        0.86195641        0.33895343
H          -1.56089534       -0.86195641       -0.33895343
H           1.56089534        0.86195641       -0.33895343
H           1.56089534       -0.86195641        0.33895343
6
MD Time 2180.00
C          -0.99642689        0.00000000       -0.00000000
C           0.99642689       -0.00000000       -0.00000000
H          -1.56445919        0.86036341        0.34070841
H          -1.56445919       -0.86036341       -0.34070841
H           1.56445919        0.86036341       -0.34070841
H           1.56445919       -0.86036341        0.34070841
6
MD Time 2190.00
C          -0.99812564        0.00000000       -0.00000000
C           0.99812564       -0.00000000       -0.00000000
H          -1.56778389        0.85903760        0.34244864
H          -1.56778389       -0.85903760       -0.34244864
H           1.56778389        0.85903760       -0.34244864
H           1.56778389       -0.85903760        0.34244864
6
MD Time 2200.00
C          -0.99959274        0.00000000       -0.00000000
C           0.99959274       -0.00000000       -0.00000000
H          -1.57085480        0.85797877        0.34415917
H          -1.57085480       -0.85797877       -0.34415917
H           1.57085480        0.85797877       -0.34415917
H           1.57085480       -0.85797877        0.34415917
6
MD Time 2210.00
C          -1.00082871        0.00000000       -0.00000000
C           1.00082871       -0.00000000       -0.00000000
H          -1.57365403        0.85717979        0.34582326
H          -1.57365403       -0.85717979       -0.34582326
H           1.57365403        0.85717979       -0.34582326
H           1.57365403       -0.85717979        0.34582326
6
MD Time 2220.00
C          -1.00183494        0.00000000       -0.00000000
C           1.00183494       -0.00000000       -0.00000000
H          -1.57616098        0.85662718        0.34742271
H          -1.57616098       -0.85662718       -0.34742271
H           1.57616098        0.85662718       -0.34742271
H           1.57616098       -0.85662718        0.34742271
6
MD Time 2230.00
C          -1.00261356        0.00000000       -0.00000000
C           1.00261356       -0.00000000       -0.00000000
H          -1.57835291        0.85630212        0.34893825
H          -1.57835291       -0.85630212       -0.34893825
H           1.57835291        0.85630212       -0.34893825
H           1.57835291       -0.85630212        0.34893825
6
MD Time 2240.00
C          -1.00316730        0.00000000        0.00000000
C           1.00316730       -0.00000000       -0.00000000
H          -1.58020574        0.85618145        0.35035006
H          -1.58020574       -0.85618145       -0.35035006
H           1.58020574        0.85618145       -0.35035006
H           1.58020574       -0.85618145        0.35035006
6
MD Time 2250.00
C          -1.00349934        0.00000000        0.00000000
C           1.00349934       -0.00000000       -0.00000000
H          -1.58169487        0.85623900        0.35163831
H          -1.58169487       -0.85623900       -0.35163831
H           1.58169487        0.85623900       -0.35163831
H           1.58169487       -0.85623900        0.35163831
6
MD Time 2260.00
C          -1.00361317        0.00000000        0.00000000
C           1.00361317       -0.00000000       -0.00000000
H          -1.58279606        0.85644681        0.35278372
H          -1.58279606       -0.85644681       -0.35278372
H           1.58279606        0.85644681       -0.35278372
H           1.58279606       -0.85644681        0.35278372
6
MD Time 2270.00
C          -1.00351238        0.00000000        0.00000000
C           1.00351238       -0.00000000       -0.00000000
H          -1.58348636        0.85677649        0.35376817
H          -1.58348636       -0.85677649       -0.35376817
H           1.58348636        0.85677649       -0.35376817
H           1.58348636       -0.85677649        0.35376817
6
MD Time 2280.00
C          -1.00320056        0.00000000        0.00000000
C           1.00320056       -0.00000000       -0.00000000
H          -1.58374492        0.85720048        0.35457522
H          -1.58374492       -0.85720048       -0.35457522
H           1.58374492        0.85720048       -0.35457522
H           1.58374492       -0.85720048        0.35457522
6
MD Time 2290.00
C          -1.00268114        0.00000000        0.00000000
C           1.00268114       -0.00000000       -0.00000000
H          -1.58355383        0.85769321        0.35519062
H          -1.58355383       -0.85769321       -0.35519062
H           1.58355383        0.85769321       -0.35519062
H           1.58355383       -0.85769321        0.35519062
6
MD Time 2300.00
C          -1.00195726        0.00000000        0.00000000
C           1.00195726       -0.00000000       -0.00000000
H          -1.58289879        0.85823214        0.35560279
H          -1.58289879       -0.85823214       -0.35560279
H           1.58289879        0.85823214       -0.35560279
H           1.58289879       -0.85823214        0.35560279
6
MD Time 2310.00
C          -1.00103172        0.00000000        0.00000000
C           1.00103172       -0.00000000       -0.00000000
H          -1.58176973        0.85879866        0.35580318
H          -1.58176973       -0.85879866       -0.35580318
H           1.58176973        0.85879866       -0.35580318
H           1.58176973       -0.85879866        0.35580318
6
MD Time 2320.00
C          -0.99990684        0.00000000        0.00000000
C           0.99990684       -0.00000000       -0.00000000
H          -1.58016122        0.85937877        0.35578654
H          -1.58016122       -0.85937877       -0.35578654
H           1.58016122        0.85937877       -0.35578654
H           1.58016122       -0.85937877        0.35578654
6
MD Time 2330.00
C          -0.99858449        0.00000000        0.00000000
C           0.99858449       -0.00000000       -0.00000000
H          -1.57807277        0.85996356        0.35555115
H          -1.57807277       -0.85996356       -0.35555115
H           1.57807277        0.85996356       -0.35555115
H           1.57807277       -0.85996356        0.35555115
6
MD Time 2340.00
C          -0.99706601       -0.00000000        0.00000000
C           0.99706601       -0.00000000       -0.00000000
H          -1.57550903        0.86054943        0.35509888
H          -1.57550903       -0.86054943       -0.35509888
H           1.57550903        0.86054943       -0.35509888
H           1.57550903       -0.86054943        0.35509888
6
MD Time 2350.00
C          -0.99535228       -0.00000000        0.00000000
C           0.99535228       -0.00000000       -0.00000000
H          -1.57247969        0.86113820        0.35443520
H          -1.57247969       -0.86113820       -0.35443520
H           1.57247969        0.86113820       -0.35443520
H           1.57247969       -0.86113820        0.35443520
6
MD Time 2360.00
C          -0.99344376       -0.00000000        0.00000000
C           0.99344376       -0.00000000       -0.00000000
H          -1.56899937        0.86173685        0.35356906
H          -1.56899937       -0.86173685       -0.35356906
H           1.56899937        0.86173685       -0.35356906
H           1.56899937       -0.86173685        0.35356906
6
MD Time 2370.00
C          -0.99134052       -0.00000000        0.00000000
C           0.99134052       -0.00000000       -0.00000000
H          -1.56508726        0.86235716        0.35251270
H          -1.56508726       -0.86235716       -0.35251270
H           1.56508726        0.86235716       -0.35251270
H           1.56508726       -0.86235716        0.35251270
6
MD Time 2380.00
C          -0.98904239       -0.00000000       -0.00000000
C           0.98904239       -0.00000000       -0.00000000
H          -1.56076664        0.86301503        0.35128132
H          -1.56076664       -0.86301503       -0.35128132
H           1.56076664        0.86301503       -0.35128132
H           1.56076664       -0.86301503        0.35128132
6
MD Time 2390.00
C          -0.98654908       -0.00000000       -0.00000000
C           0.98654908       -0.00000000       -0.00000000
H          -1.55606432        0.86372971        0.34989272
H          -1.55606432       -0.86372971       -0.34989272
H           1.55606432        0.86372971       -0.34989272
H           1.55606432       -0.86372971        0.34989272
6
MD Time 2400.00
C          -0.98386032       -0.00000000       -0.00000000
C           0.98386032       -0.00000000       -0.00000000
H          -1.55100986        0.86452280        0.34836680
H          -1.55100986       -0.86452280       -0.34836680
H           1.55100986        0.86452280       -0.34836680
H           1.55100986       -0.86452280        0.34836680
6
MD Time 2410.00
C          -0.98097602       -0.00000000       -0.00000000
C           0.98097602       -0.00000000       -0.00000000
H          -1.54563482        0.86541713        0.34672509
H          -1.54563482       -0.86541713       -0.34672509
H           1.54563482        0.86541713       -0.34672509
H           1.54563482       -0.86541713        0.34672509
6
MD Time 2420.00
C          -0.97789648       -0.00000000       -0.00000000
C           0.97789648       -0.00000000       -0.00000000
H          -1.53997187        0.86643551        0.34499014
H          -1.53997187       -0.86643551       -0.34499014
H           1.53997187        0.86643551       -0.34499014
H           1.53997187       -0.86643551        0.34499014
6
MD Time 2430.00
C          -0.97462253       -0.00000000       -0.00000000
C           0.97462253       -0.00000000       -0.00000000
H          -1.53405394        0.86759949        0.34318497
H          -1.53405394       -0.86759949       -0.34318497
H           1.53405394        0.86759949       -0.34318497
H           1.53405394       -0.86759949        0.34318497
6
MD Time 2440.00
C          -0.97115576       -0.00000000       -0.00000000
C           0.97115576       -0.00000000       -0.00000000
H          -1.52791329        0.86892809        0.34133248
H          -1.52791329       -0.86892809       -0.34133248
H           1.52791329        0.86892809       -0.34133248
H           1.52791329       -0.86892809        0.34133248
6
MD Time 2450.00
C          -0.96749866       -0.00000000       -0.00000000
C           0.96749866       -0.00000000       -0.00000000
H          -1.52158073        0.87043659        0.33945488
H          -1.52158073       -0.87043659       -0.33945488
H           1.52158073        0.87043659       -0.33945488
H           1.52158073       -0.87043659        0.33945488
6
MD Time 2460.00
C          -0.96365483        0.00000000       -0.00000000
C           0.96365483       -0.00000000       -0.00000000
H          -1.51508489        0.87213543        0.33757321
H          -1.51508489       -0.87213543       -0.33757321
H           1.51508489        0.87213543       -0.33757321
H           1.51508489       -0.87213543        0.33757321
6
MD Time 2470.00
C          -0.95962906        0.00000000       -0.00000000
C           0.95962906       -0.00000000       -0.00000000
H          -1.50845159        0.87402936        0.33570688
H          -1.50845159       -0.87402936       -0.33570688
H           1.50845159        0.87402936       -0.33570688
H           1.50845159       -0.87402936        0.33570688
6
MD Time 2480.00
C          -0.95542753        0.00000000       -0.00000000
C           0.95542753       -0.00000000       -0.00000000
H          -1.50170340        0.87611676        0.33387338
H          -1.50170340       -0.87611676       -0.33387338
H           1.50170340        0.87611676       -0.33387338
H           1.50170340       -0.87611676        0.33387338
6
MD Time 2490.00
C          -0.95105781        0.00000000       -0.00000000
C           0.95105781       -0.00000000       -0.00000000
H          -1.49485937        0.87838923        0.33208799
H          -1.49485937       -0.87838923       -0.33208799
H           1.49485937        0.87838923       -0.33208799
H           1.49485937       -0.87838923        0.33208799
6
MD Time 2500.00
C          -0.94652896        0.00000000       -0.00000000
C           0.94652896       -0.00000000       -0.00000000
H          -1.48793494        0.88083154        0.33036368
H          -1.48793494       -0.88083154       -0.33036368
H           1.48793494        0.88083154       -0.33036368
H           1.48793494       -0.88083154        0.33036368
6
MD Time 2510.00
C          -0.94185157        0.00000000       -0.00000000
C           0.94185157       -0.00000000       -0.00000000
H          -1.48094205        0.88342185        0.32871112
H          -1.48094205       -0.88342185       -0.32871112
H           1.48094205        0.88342185       -0.32871112
H           1.48094205       -0.88342185        0.32871112
6
MD Time 2520.00
C          -0.93703768        0.00000000       -0.00000000
C           0.93703768       -0.00000000       -0.00000000
H          -1.47388941        0.88613222        0.32713874
H          -1.47388941       -0.88613222       -0.32713874
H           1.47388941        0.88613222       -0.32713874
H           1.47388941       -0.88613222        0.32713874
6
MD Time 2530.00
C          -0.93210078        0.00000000       -0.00000000
C           0.93210078       -0.00000000       -0.00000000
H          -1.46678301        0.88892943        0.32565300
H          -1.46678301       -0.88892943       -0.32565300
H           1.46678301        0.88892943       -0.32565300
H           1.46678301       -0.88892943        0.32565300
6
MD Time 2540.00
C          -0.92705573        0.00000000       -0.00000000
C           0.92705573       -0.00000000       -0.00000000
H          -1.45962664        0.89177606        0.32425858
H          -1.45962664       -0.89177606       -0.32425858
H           1.45962664        0.89177606       -0.32425858
H           1.45962664       -0.89177606        0.32425858
6
MD Time 2550.00
C          -0.92191862        0.00000000       -0.00000000
C           0.92191862       -0.00000000       -0.00000000
H          -1.45242267        0.89463167        0.32295878
H          -1.45242267       -0.89463167       -0.32295878
H           1.45242267        0.89463167       -0.32295878
H           1.45242267       -0.89463167        0.32295878
6
MD Time 2560.00
C          -0.91670669        0.00000000       -0.00000000
C           0.91670669       -0.00000000       -0.00000000
H          -1.44517274        0.89745420        0.32175590
H          -1.44517274       -0.89745420       -0.32175590
H           1.44517274        0.89745420       -0.32175590
H           1.44517274       -0.89745420        0.32175590
6
MD Time 2570.00
C          -0.91143819        0.00000000       -0.00000000
C           0.91143819       -0.00000000       -0.00000000
H          -1.43787860        0.90020136        0.32065161
H          -1.43787860       -0.90020136       -0.32065161
H           1.43787860        0.90020136       -0.32065161
H           1.43787860       -0.90020136        0.32065161
6
MD Time 2580.00
C          -0.90613219        0.00000000       -0.00000000
C           0.90613219       -0.00000000       -0.00000000
H          -1.43054289        0.90283210        0.31964737
H          -1.43054289       -0.90283210       -0.31964737
H           1.43054289        0.90283210       -0.31964737
H           1.43054289       -0.90283210        0.31964737
6
MD Time 2590.00
C          -0.90080850        0.00000000       -0.00000000
C           0.90080850       -0.00000000       -0.00000000
H          -1.42316988        0.90530799        0.31874481
H          -1.42316988       -0.90530799       -0.31874481
H           1.42316988        0.90530799       -0.31874481
H           1.42316988       -0.90530799        0.31874481
6
MD Time 2600.00
C          -0.89548746        0.00000000       -0.00000000
C           0.89548746       -0.00000000       -0.00000000
H          -1.41576615        0.90759442        0.31794601
H          -1.41576615       -0.90759442       -0.31794601
H           1.41576615        0.90759442       -0.31794601
H           1.41576615       -0.90759442        0.31794601
6
MD Time 2610.00
C          -0.89018982        0.00000000       -0.00000000
C           0.89018982       -0.00000000       -0.00000000
H          -1.40834118        0.90966182        0.31725387
H          -1.40834118       -0.90966182       -0.31725387
H           1.40834118        0.90966182       -0.31725387
H           1.40834118       -0.90966182        0.31725387
6
MD Time 2620.00
C          -0.88493658        0.00000000       -0.00000000
C           0.88493658       -0.00000000       -0.00000000
H          -1.40090782        0.91148650        0.31667224
H          -1.40090782       -0.91148650       -0.31667224
H           1.40090782        0.91148650       -0.31667224
H           1.40090782       -0.91148650        0.31667224
6
MD Time 2630.00
C          -0.87974885        0.00000000       -0.00000000
C           0.87974885       -0.00000000       -0.00000000
H          -1.39348261        0.91305147        0.31620615
H          -1.39348261       -0.91305147       -0.31620615
H           1.39348261        0.91305147       -0.31620615
H           1.39348261       -0.91305147        0.31620615
6
MD Time 2640.00
C          -0.87464777        0.00000000       -0.00000000
C           0.87464777       -0.00000000       -0.00000000
H          -1.38608600        0.91434682        0.31586182
H          -1.38608600       -0.91434682       -0.31586182
H           1.38608600        0.91434682       -0.31586182
H           1.38608600       -0.91434682        0.31586182
6
MD Time 2650.00
C          -0.86965430        0.00000000       -0.00000000
C           0.86965430       -0.00000000       -0.00000000
H          -1.37874238        0.91537007        0.31564670
H          -1.37874238       -0.91537007       -0.31564670
H           1.37874238        0.91537007       -0.31564670
H           1.37874238       -0.91537007        0.31564670
6
MD Time 2660.00
C          -0.86478919        0.00000000       -0.00000000
C           0.86478919       -0.00000000       -0.00000000
H          -1.37148000        0.91612607        0.31556938
H          -1.37148000       -0.91612607       -0.31556938
H           1.37148000        0.91612607       -0.31556938
H           1.37148000       -0.91612607        0.31556938
6
MD Time 2670.00
C          -0.86007283        0.00000000       -0.00000000
C           0.86007283       -0.00000000       -0.00000000
H          -1.36433068        0.91662678        0.31563941
H          -1.36433068       -0.91662678       -0.31563941
H           1.36433068        0.91662678       -0.31563941
H           1.36433068       -0.91662678        0.31563941
6
MD Time 2680.00
C          -0.85552515        0.00000000       -0.00000000
C           0.85552515       -0.00000000       -0.00000000
H          -1.35732944        0.91689076        0.31586706
H          -1.35732944       -0.91689076       -0.31586706
H           1.35732944        0.91689076       -0.31586706
H           1.35732944       -0.91689076        0.31586706
6
MD Time 2690.00
C          -0.85116558        0.00000000        0.00000000
C           0.85116558       -0.00000000       -0.00000000
H          -1.35051396        0.91694238        0.31626303
H          -1.35051396       -0.91694238       -0.31626303
H           1.35051396        0.91694238       -0.31626303
H           1.35051396       -0.91694238        0.31626303
6
MD Time 2700.00
C          -0.84701294        0.00000000        0.00000000
C           0.84701294       -0.00000000       -0.00000000
H          -1.34392389        0.91681087        0.31683806
H          -1.34392389       -0.91681087       -0.31683806
H           1.34392389        0.91681087       -0.31683806
H           1.34392389       -0.91681087        0.31683806
6
MD Time 2710.00
C          -0.84308536        0.00000000        0.00000000
C           0.84308536       -0.00000000       -0.00000000
H          -1.33760011        0.91652918        0.31760250
H          -1.33760011       -0.91652918       -0.31760250
H           1.33760011        0.91652918       -0.31760250
H           1.33760011       -0.91652918        0.31760250
6
MD Time 2720.00
C          -0.83940022        0.00000000        0.00000000
C           0.83940022       -0.00000000       -0.00000000
H          -1.33158386        0.91613262        0.31856581
H          -1.33158386       -0.91613262       -0.31856581
H           1.33158386        0.91613262       -0.31856581
H           1.33158386       -0.91613262        0.31856581
6
MD Time 2730.00
C          -0.83597413        0.00000000        0.00000000
C           0.83597413       -0.00000000       -0.00000000
H          -1.32591579        0.91565745        0.31973609
H          -1.32591579       -0.91565745       -0.31973609
H           1.32591579        0.91565745       -0.31973609
H           1.32591579       -0.91565745        0.31973609
6
MD Time 2740.00
C          -0.83282279        0.00000000        0.00000000
C           0.83282279       -0.00000000       -0.00000000
H          -1.32063509        0.91513942        0.32111951
H          -1.32063509       -0.91513942       -0.32111951
H           1.32063509        0.91513942       -0.32111951
H           1.32063509       -0.91513942        0.32111951
6
MD Time 2750.00
C          -0.82996099        0.00000000        0.00000000
C           0.82996099       -0.00000000       -0.00000000
H          -1.31577849        0.91461230        0.32271984
H          -1.31577849       -0.91461230       -0.32271984
H           1.31577849        0.91461230       -0.32271984
H           1.31577849       -0.91461230        0.32271984
6
MD Time 2760.00
C          -0.82740249        0.00000000        0.00000000
C           0.82740249       -0.00000000       -0.00000000
H          -1.31137941        0.91410644        0.32453797
H          -1.31137941       -0.91410644       -0.32453797
H           1.31137941        0.91410644       -0.32453797
H           1.31137941       -0.91410644        0.32453797
6
MD Time 2770.00
C          -0.82516001        0.00000000        0.00000000
C           0.82516001       -0.00000000       -0.00000000
H          -1.30746719        0.91364756        0.32657149
H          -1.30746719       -0.91364756       -0.32657149
H           1.30746719        0.91364756       -0.32657149
H           1.30746719       -0.91364756        0.32657149
6
MD Time 2780.00
C          -0.82324505        0.00000000        0.00000000
C           0.82324505       -0.00000000       -0.00000000
H          -1.30406638        0.91325566        0.32881431
H          -1.30406638       -0.91325566       -0.32881431
H           1.30406638        0.91325566       -0.32881431
H           1.30406638       -0.91325566        0.32881431
6
MD Time 2790.00
C          -0.82166790        0.00000000        0.00000000
C           0.82166790       -0.00000000       -0.00000000
H          -1.30119625        0.91294424        0.33125650
H          -1.30119625       -0.91294424       -0.33125650
H           1.30119625        0.91294424       -0.33125650
H           1.30119625       -0.91294424        0.33125650
6
MD Time 2800.00
C          -0.82043745        0.00000000        0.00000000
C           0.82043745       -0.00000000       -0.00000000
H          -1.29887045        0.91271979        0.33388411
H          -1.29887045       -0.91271979       -0.33388411
H           1.29887045        0.91271979       -0.33388411
H           1.29887045       -0.91271979        0.33388411
6
MD Time 2810.00
C          -0.81956111        0.00000000        0.00000000
C           0.81956111       -0.00000000       -0.00000000
H          -1.29709685        0.91258164        0.33667921
H          -1.29709685       -0.91258164       -0.33667921
H           1.29709685        0.91258164       -0.33667921
H           1.29709685       -0.91258164        0.33667921
6
MD Time 2820.00
C          -0.81904472        0.00000000        0.00000000
C           0.81904472       -0.00000000       -0.00000000
H          -1.29587766        0.91252210        0.33962001
H          -1.29587766       -0.91252210       -0.33962001
H           1.29587766        0.91252210       -0.33962001
H           1.29587766       -0.91252210        0.33962001
6
MD Time 2830.00
C          -0.81889237        0.00000000        0.00000000
C           0.81889237       -0.00000000       -0.00000000
H          -1.29520959        0.91252700        0.34268118
H          -1.29520959       -0.91252700       -0.34268118
H           1.29520959        0.91252700       -0.34268118
H           1.29520959       -0.91252700        0.34268118
6
MD Time 2840.00
C          -0.81910634        0.00000000        0.00000000
C           0.81910634       -0.00000000       -0.00000000
H          -1.29508436        0.91257640        0.34583425
H          -1.29508436       -0.91257640       -0.34583425
H           1.29508436        0.91257640       -0.34583425
H           1.29508436       -0.91257640        0.34583425
6
MD Time 2850.00
C          -0.81968695        0.00000000        0.00000000
C           0.81968695       -0.00000000       -0.00000000
H          -1.29548920        0.91264572        0.34904810
H          -1.29548920       -0.91264572       -0.34904810
H           1.29548920        0.91264572       -0.34904810
H           1.29548920       -0.91264572        0.34904810
6
MD Time 2860.00
C          -0.82063251        0.00000000        0.00000000
C           0.82063251       -0.00000000       -0.00000000
H          -1.29640761        0.91270687        0.35228961
H          -1.29640761       -0.91270687       -0.35228961
H           1.29640761        0.91270687       -0.35228961
H           1.29640761       -0.91270687        0.35228961
6
MD Time 2870.00
C          -0.82193919        0.00000000        0.00000000
C           0.82193919       -0.00000000       -0.00000000
H          -1.29782009        0.91272970        0.35552430
H          -1.29782009       -0.91272970       -0.35552430
H           1.29782009        0.91272970       -0.35552430
H           1.29782009       -0.91272970        0.35552430
6
MD Time 2880.00
C          -0.82360104        0.00000000        0.00000000
C           0.82360104       -0.00000000       -0.00000000
H          -1.29970498        0.91268338        0.35871708
H          -1.29970498       -0.91268338       -0.35871708
H           1.29970498        0.91268338       -0.35871708
H           1.29970498       -0.91268338        0.35871708
6
MD Time 2890.00
C          -0.82560991        0.00000000        0.00000000
C           0.82560991       -0.00000000       -0.00000000
H          -1.30203929        0.91253781        0.36183294
H          -1.30203929       -0.91253781       -0.36183294
H           1.30203929        0.91253781       -0.36183294
H           1.30203929       -0.91253781        0.36183294
6
MD Time 2900.00
C          -0.82795549        0.00000000        0.00000000
C           0.82795549       -0.00000000       -0.00000000
H          -1.30479952        0.91226502        0.36483772
H          -1.30479952       -0.91226502       -0.36483772
H           1.30479952        0.91226502       -0.36483772
H           1.30479952       -0.91226502        0.36483772
6
MD Time 2910.00
C          -0.83062536        0.00000000        0.00000000
C           0.83062536       -0.00000000       -0.00000000
H          -1.30796238        0.91184037        0.36769876
H          -1.30796238       -0.91184037       -0.36769876
H           1.30796238        0.91184037       -0.36769876
H           1.30796238       -0.91184037        0.36769876
6
MD Time 2920.00
C          -0.83360505        0.00000000        0.00000000
C           0.83360505       -0.00000000       -0.00000000
H          -1.31150546        0.91124368        0.37038553
H          -1.31150546       -0.91124368       -0.37038553
H           1.31150546        0.91124368       -0.37038553
H           1.31150546       -0.91124368        0.37038553
6
MD Time 2930.00
C          -0.83687818        0.00000000        0.00000000
C           0.83687818       -0.00000000       -0.00000000
H          -1.31540784        0.91046012        0.37287021
H          -1.31540784       -0.91046012       -0.37287021
H           1.31540784        0.91046012       -0.37287021
H           1.31540784       -0.91046012        0.37287021
6
MD Time 2940.00
C          -0.84042658        0.00000000        0.00000000
C           0.84042658       -0.00000000       -0.00000000
H          -1.31965048        0.90948089        0.37512812
H          -1.31965048       -0.90948089       -0.37512812
H           1.31965048        0.90948089       -0.37512812
H           1.31965048       -0.90948089        0.37512812
6
MD Time 2950.00
C          -0.84423045        0.00000000        0.00000000
C           0.84423045       -0.00000000       -0.00000000
H          -1.32421659        0.90830369        0.37713814
H          -1.32421659       -0.90830369       -0.37713814
H           1.32421659        0.90830369       -0.37713814
H           1.32421659       -0.90830369        0.37713814
6
MD Time 2960.00
C          -0.84826859        0.00000000        0.00000000
C           0.84826859       -0.00000000       -0.00000000
H          -1.32909179        0.90693287        0.37888294
H          -1.32909179       -0.90693287       -0.37888294
H           1.32909179        0.90693287       -0.37888294
H           1.32909179       -0.90693287        0.37888294
6
MD Time 2970.00
C          -0.85251859        0.00000000        0.00000000
C           0.85251859       -0.00000000       -0.00000000
H          -1.33426416        0.90537949        0.38034913
H          -1.33426416       -0.90537949       -0.38034913
H           1.33426416        0.90537949       -0.38034913
H           1.33426416       -0.90537949        0.38034913
6
MD Time 2980.00
C          -0.85695708        0.00000000        0.00000000
C           0.85695708       -0.00000000       -0.00000000
H          -1.33972416        0.90366092        0.38152732
H          -1.33972416       -0.90366092       -0.38152732
H           1.33972416        0.90366092       -0.38152732
H           1.33972416       -0.90366092        0.38152732
6
MD Time 2990.00
C          -0.86155998        0.00000000        0.00000000
C           0.86155998       -0.00000000       -0.00000000
H          -1.34546439        0.90180040        0.38241204
H          -1.34546439       -0.90180040       -0.38241204
H           1.34546439        0.90180040       -0.38241204
H           1.34546439       -0.90180040        0.38241204
