6
MD Time 0.00
C          -1.00424993        0.00000000        0.00000000
C           1.00424993        0.00000000        0.00000000
H          -1.57974221        0.85087473        0.35244385
H          -1.57974221       -0.85087473       -0.35244385
H           1.57974221        0.85087473       -0.35244385
H           1.57974221       -0.85087473        0.35244385
6
MD Time 10.00
C          -1.00257930        0.00000000        0.00000000
C           1.00257930        0.00000000       -0.00000000
H          -1.57901193        0.84502473        0.34610665
H          -1.57901193       -0.84502473       -0.34610665
H           1.57901193        0.84502473       -0.34610665
H           1.57901193       -0.84502473        0.34610665
6
MD Time 20.00
C          -0.99748436        0.00000000        0.00000000
C           0.99748436        0.00000000       -0.00000000
H          -1.57677607        0.82733203        0.32699165
H          -1.57677607       -0.82733203       -0.32699165
H           1.57677607        0.82733203       -0.32699165
H           1.57677607       -0.82733203        0.32699165
6
MD Time 30.00
C          -0.98870315        0.00000000        0.00000000
C           0.98870315        0.00000000       -0.00000000
H          -1.57288207        0.79735028        0.29478097
H          -1.57288207       -0.79735028       -0.29478097
H           1.57288207        0.79735028       -0.29478097
H           1.57288207       -0.79735028        0.29478097
6
MD Time 40.00
C          -0.97575485        0.00000000        0.00000000
C           0.97575485        0.00000000       -0.00000000
H          -1.56700229        0.75427521        0.24892279
H          -1.56700229       -0.75427521       -0.24892279
H           1.56700229        0.75427521       -0.24892279
H           1.56700229       -0.75427521        0.24892279
6
MD Time 50.00
C          -0.95786938        0.00000000        0.00000000
C           0.95786938        0.00000000       -0.00000000
H          -1.55845986        0.69687141        0.18862511
H          -1.55845986       -0.69687141       -0.18862511
H           1.55845986        0.69687141       -0.18862511
H           1.55845986       -0.69687141        0.18862511
6
MD Time 60.00
C          -0.93389071        0.00000000        0.00000000
C           0.93389071        0.00000000       -0.00000000
H          -1.54582699        0.62348664        0.11296355
H          -1.54582699       -0.62348664       -0.11296355
H           1.54582699        0.62348664       -0.11296355
H           1.54582699       -0.62348664        0.11296355
6
MD Time 70.00
C          -0.90218088        0.00000000        0.00000000
C           0.90218088        0.00000000       -0.00000000
H          -1.52615602        0.53254393        0.02137746
H          -1.52615602       -0.53254393       -0.02137746
H           1.52615602        0.53254393       -0.02137746
H           1.52615602       -0.53254393        0.02137746
6
MD Time 80.00
C          -0.86055331        0.00000000        0.00000000
C           0.86055331        0.00000000       -0.00000000
H          -1.49394813        0.42449533       -0.08522127
H          -1.49394813       -0.42449533        0.08522127
H           1.49394813        0.42449533        0.08522127
H           1.49394813       -0.42449533       -0.08522127
6
MD Time 90.00
C          -0.80593386        0.00000000        0.00000000
C           0.80593386        0.00000000       -0.00000000
H          -1.44070780        0.30583802       -0.20540486
H          -1.44070780       -0.30583802        0.20540486
H           1.44070780        0.30583802        0.20540486
H           1.44070780       -0.30583802       -0.20540486
6
MD Time 100.00
C          -0.73234427        0.00000000        0.00000000
C           0.73234427        0.00000000       -0.00000000
H          -1.35744097        0.18215926       -0.34429159
H          -1.35744097       -0.18215926        0.34429159
H           1.35744097        0.18215926        0.34429159
H           1.35744097       -0.18215926       -0.34429159
6
MD Time 110.00
C          -0.62820573        0.00000000        0.00000000
C           0.62820573        0.00000000       -0.00000000
H          -1.23970666        0.04491713       -0.49597149
H          -1.23970666       -0.04491713        0.49597149
H           1.23970666        0.04491713        0.49597149
H           1.23970666       -0.04491713       -0.49597149
6
MD Time 120.00
C          -0.47631769        0.00000000       -0.00000000
C           0.47631769        0.00000000        0.00000000
H          -1.09147073       -0.10001881       -0.63376599
H          -1.09147073        0.10001881        0.63376599
H           1.09147073       -0.10001881        0.63376599
H           1.09147073        0.10001881       -0.63376599
6
MD Time 130.00
C          -0.25481761        0.00000000       -0.00000000
C           0.25481761        0.00000000        0.00000000
H          -0.91816670       -0.23125221       -0.73945546
H          -0.91816670        0.23125221        0.73945546
H           0.91816670       -0.23125221        0.73945546
H           0.91816670        0.23125221       -0.73945546
6
MD Time 140.00
C          -0.01695523        0.00000000       -0.00000000
C           0.01695523        0.00000000        0.00000000
H          -0.71162203       -0.33795762       -0.80583412
H          -0.71162203        0.33795762        0.80583412
H           0.71162203       -0.33795762        0.80583412
H           0.71162203        0.33795762       -0.80583412
6
MD Time 150.00
C        9370.09316347        0.25426727        0.28185004
C       -9372.40993696       -0.24506163       -0.26791059
H         -43.29717366        0.00595211       -3.86444655
H         -43.31115760       -0.12455647        3.71669588
H          43.31519543        0.03858068        3.75718768
H          43.31174628       -0.04122453       -3.82562856
6
MD Time 160.00
C       18740.20328216        0.50853453        0.56370008
C      -18744.83682916       -0.49012325       -0.53582118
H         -85.88272370        0.34985983       -6.92294156
H         -85.91069114       -0.58706855        6.62744021
H          85.91876697        0.41511775        6.70842383
H          85.91186878       -0.42040544       -6.84530559
6
MD Time 170.00
C       28110.31340086        0.76280180        0.84555012
C      -28117.26372135       -0.73518488       -0.80373176
H        -128.46827336        0.69376504       -9.98140043
H        -128.51022416       -1.04957813        9.53814841
H         128.52233804        0.79165259        9.65962380
H         128.51199083       -0.79958412       -9.86494645
6
MD Time 180.00
C       37480.42351956        1.01706906        1.12740016
C      -37489.69061355       -0.98024651       -1.07164235
H        -171.05382286        1.03766872      -13.03984203
H        -171.10975693       -1.51208616       12.44883934
H         171.12590889        1.16818602       12.61080650
H         171.11211270       -1.17876140      -12.88457002
6
MD Time 190.00
C       46850.53363825        1.27133633        1.40925020
C      -46862.11750574       -1.22530813       -1.33955294
H        -213.63937226        1.38157138      -16.09827357
H        -213.70928957       -1.97459319       15.35952020
H         213.72947963        1.54471852       15.56197910
H         213.71223445       -1.55793775      -15.90418350
6
MD Time 200.00
C       56220.64375695        1.52560359        1.69110024
C      -56234.54439793       -1.47036976       -1.60746353
H        -256.22492160        1.72547335      -19.15669852
H        -256.30882212       -2.43709951       18.27019448
H         256.33305029        1.92125037       18.51314509
H         256.31235614       -1.93711344      -18.92379038
6
MD Time 210.00
C       65590.75387564        1.77987086        1.97295028
C      -65606.97129013       -1.71543139       -1.87537412
H        -298.81047091        2.06937480      -22.21511882
H        -298.90835461       -2.89960532       21.18086411
H         298.93662089        2.29778174       21.46430644
H         298.91247778       -2.31628866      -21.94339260
6
MD Time 220.00
C       74960.86399434        2.03413812        2.25480032
C      -74979.39818232       -1.96049302       -2.14328470
H        -341.39602018        2.41327585      -25.27353567
H        -341.50788705       -3.36211073       24.09153029
H         341.54019146        2.67431275       24.41546433
H         341.51259938       -2.69546351      -24.96299137
6
MD Time 230.00
C       84330.97411304        2.28840539        2.53665036
C      -84351.82507451       -2.20555464       -2.41119529
H        -383.98156943        2.75717659      -28.33194986
H        -384.10741946       -3.82461584       27.00219380
H         384.14376199        3.05084346       27.36661955
H         384.11272095       -3.07463807      -27.98258748
6
MD Time 240.00
C       93701.08423173        2.54267266        2.81850040
C      -93724.25196671       -2.45061627       -2.67910588
H        -426.56711866        3.10107708      -31.39036193
H        -426.70695185       -4.28712068       29.91285521
H         426.74733250        3.42737394       30.31777265
H         426.71284251       -3.45381239      -31.00218146
6
MD Time 250.00
C      103071.19435043        2.79693992        3.10035044
C     -103096.67885890       -2.69567790       -2.94701647
H        -469.15266788        3.44497736      -34.44877229
H        -469.30648420       -4.74962533       32.82351489
H         469.35090300        3.80390422       33.26892402
H         469.31296404       -3.83298652      -34.02177371
6
MD Time 260.00
C      112441.30446913        3.05120719        3.38220048
C     -112469.10575109       -2.94073952       -3.21492706
H        -511.73821709        3.78887747      -37.50718121
H        -511.90601655       -5.21212979       35.73417314
H         511.95447347        4.18043434       36.22007396
H         511.91308556       -4.21216049      -37.04136453
6
MD Time 270.00
C      121811.41458782        3.30547445        3.66405052
C     -121841.53264329       -3.18580115       -3.48283764
H        -554.32376628        4.13277743      -40.56558893
H        -554.50554887       -5.67463411       38.64483018
H         554.55804394        4.55696433       39.17122269
H         554.51320707       -4.59133432      -40.06095415
6
MD Time 280.00
C      131181.52470652        3.55974172        3.94590056
C     -131213.95953548       -3.43086278       -3.75074823
H        -596.90931547        4.47667726      -43.62399561
H        -597.10508118       -6.13713831       41.55548620
H         597.16161439        4.93349419       42.12237039
H         597.11332857       -4.97050803      -43.08054273
6
MD Time 290.00
C      140551.63482522        3.81400898        4.22775060
C     -140586.38642768       -3.67592440       -4.01865882
H        -639.49486465        4.82057699      -46.68240141
H        -639.70461349       -6.59964239       44.46614132
H         639.76518483        5.31002395       45.07351720
H         639.71345006       -5.34968164      -46.10013041
6
MD Time 300.00
C      149921.74494391        4.06827625        4.50960064
C     -149958.81331987       -3.92098603       -4.28656941
H        -682.08041383        5.16447661      -49.74080643
H        -682.30414578       -7.06214637       47.37679567
H         682.36875526        5.68655362       48.02466322
H         682.31357155       -5.72885515      -49.11971732
6
MD Time 310.00
C      159291.85506261        4.32254351        4.79145068
C     -159331.24021206       -4.16604766       -4.55447999
H        -724.66596300        5.50837615      -52.79921077
H        -724.90367806       -7.52465027       50.28744933
H         724.97232569        6.06308321       50.97580857
H         724.91369302       -6.10802859      -52.13930355
6
MD Time 320.00
C      168661.96518130        4.57681078        5.07330072
C     -168703.66710426       -4.41110928       -4.82239058
H        -767.25151216        5.85227561      -55.85761449
H        -767.50321033       -7.98715409       53.19810239
H         767.57589611        6.43961273       53.92695330
H         767.51381449       -6.48720195      -55.15888916
6
MD Time 330.00
C      178032.07530000        4.83107805        5.35515076
C     -178076.09399645       -4.65617091       -5.09030117
H        -809.83706132        6.19617500      -58.91601768
H        -810.10274260       -8.44965784       56.10875490
H         810.17946652        6.81614218       56.87809749
H         810.11393596       -6.86637525      -58.17847423
6
MD Time 340.00
C      187402.18541870        5.08534531        5.63700080
C     -187448.52088864       -4.90123254       -5.35821176
H        -852.42261048        6.54007433      -61.97442038
H        -852.70227486       -8.91216153       59.01940693
H         852.78303693        7.19267157       59.82924119
H         852.71405742       -7.24554849      -61.19805882
6
MD Time 350.00
C      196772.29553739        5.33961258        5.91885084
C     -196820.94778084       -5.14629417       -5.62612235
H        -895.00815963        6.88397361      -65.03282264
H        -895.30180712       -9.37466517       61.93005851
H         895.38660733        7.56920091       62.78038445
H         895.31417887       -7.62472168      -64.21764296
6
MD Time 360.00
C      206142.40565609        5.59387984        6.20070088
C     -206193.37467303       -5.39135579       -5.89403293
H        -937.59370878        7.22787283      -68.09122450
H        -937.90133937       -9.83716875       64.84070970
H         937.99017773        7.94573021       65.73152731
H         937.91430032       -8.00389482      -67.23722670
6
MD Time 370.00
C      215512.51577479        5.84814711        6.48255092
C     -215565.80156522       -5.63641742       -6.16194352
H        -980.17925792        7.57177201      -71.14962599
H        -980.50087162      -10.29967228       67.75136052
H         980.59374812        8.32225946       68.68266980
H         980.51442177       -8.38306792      -70.25681007
6
MD Time 380.00
C      224882.62589348        6.10241437        6.76440096
C     -224938.22845742       -5.88147905       -6.42985411
H       -1022.76480707        7.91567114      -74.20802715
H       -1023.10040386      -10.76217578       70.66201101
H        1023.19731851        8.69878867       71.63381196
H        1023.11454322       -8.76224097      -73.27639311
6
MD Time 390.00
C      234252.73601218        6.35668164        7.04625100
C     -234310.65534961       -6.12654067       -6.69776470
H       -1065.35035621        8.25957023      -77.26642800
H       -1065.69993610      -11.22467923       73.57266119
H        1065.80088890        9.07531784       74.58495381
H        1065.71466466       -9.14141399      -76.29597584
6
MD Time 400.00
C      243622.84613088        6.61094890        7.32810104
C     -243683.08224181       -6.37160230       -6.96567529
H       -1107.93590534        8.60346929      -80.32482857
H       -1108.29946833      -11.68718265       76.48331109
H        1108.40445928        9.45184698       77.53609538
H        1108.31478610       -9.52058698      -79.31555829
6
MD Time 410.00
C      252992.95624957        6.86521617        7.60995108
C     -253055.50913400       -6.61666393       -7.23358587
H       -1150.52145448        8.94736831      -83.38322888
H       -1150.89900056      -12.14968603       79.39396072
H        1151.00802967        9.82837608       80.48723668
H        1150.91490753       -9.89975993      -82.33514048
6
MD Time 420.00
C      262363.06636827        7.11948344        7.89180112
C     -262427.93602619       -6.86172555       -7.50149646
H       -1193.10700362        9.29126731      -86.44162895
H       -1193.49853279      -12.61218938       82.30461012
H        1193.61160004       10.20490516       83.43837774
H        1193.51502897      -10.27893285      -85.35472242
6
MD Time 430.00
C      271733.17648696        7.37375070        8.17365116
C     -271800.36291839       -7.10678718       -7.76940705
H       -1235.69255275        9.63516627      -89.50002878
H       -1236.09806502      -13.07469270       85.21525928
H        1236.21517042       10.58143421       86.38951857
H        1236.11515040      -10.65810575      -88.37430413
6
MD Time 440.00
C      281103.28660566        7.62801797        8.45550120
C     -281172.78981058       -7.35184881       -8.03731764
H       -1278.27810188        9.97906520      -92.55842841
H       -1278.69759724      -13.53719600       88.12590824
H        1278.81874079       10.95796323       89.34065920
H        1278.71527183      -11.03727862      -91.39388564
6
MD Time 450.00
C      290473.39672436        7.88228523        8.73735124
C     -290545.21670277       -7.59691043       -8.30522823
H       -1320.86365101       10.32296411      -95.61682784
H       -1321.29712946      -13.99969927       91.03655700
H        1321.42231117       11.33449223       92.29179962
H        1321.31539326      -11.41645147      -94.41346694
6
MD Time 460.00
C      299843.50684305        8.13655250        9.01920128
C     -299917.64359497       -7.84197206       -8.57313881
H       -1363.44920014       10.66686300      -98.67522709
H       -1363.89666168      -14.46220251       93.94720557
H        1364.02588154       11.71102121       95.24293986
H        1363.91551469      -11.79562429      -97.43304806
6
MD Time 470.00
C      309213.61696175        8.39081976        9.30105132
C     -309290.07048716       -8.08703369       -8.84104940
H       -1406.03474926       11.01076186     -101.73362616
H       -1406.49619389      -14.92470573       96.85785397
H        1406.62945190       12.08755017       98.19407992
H        1406.51563611      -12.17479709     -100.45262901
6
MD Time 480.00
C      318583.72708045        8.64508703        9.58290136
C     -318662.49737935       -8.33209532       -9.10895999
H       -1448.62029839       11.35466070     -104.79202507
H       -1449.09572611      -15.38720893       99.76850221
H        1449.23302227       12.46407910      101.14521982
H        1449.11575753      -12.55396987     -103.47220979
6
MD Time 490.00
C      327953.83719914        8.89935429        9.86475140
C     -328034.92427155       -8.57715694       -9.37687058
H       -1491.20584751       11.69855952     -107.85042382
H       -1491.69525832      -15.84971211      102.67915029
H        1491.83659263       12.84060802      104.09635957
H        1491.71587895      -12.93314264     -106.49179042
6
MD Time 500.00
C      337323.94731784        9.15362156       10.14660144
C     -337407.35116374       -8.82221857       -9.64478117
H       -1533.79139663       12.04245833     -110.90882243
H       -1534.29479053      -16.31221528      105.58979823
H        1534.44016300       13.21713692      107.04749917
H        1534.31600037      -13.31231538     -109.51137091
6
MD Time 510.00
C      346694.05743653        9.40788883       10.42845148
C     -346779.77805594       -9.06728020       -9.91269175
H       -1576.37694576       12.38635711     -113.96722091
H       -1576.89432274      -16.77471842      108.50044603
H        1577.04373336       13.59366580      109.99863864
H        1576.91612179      -13.69148811     -112.53095125
6
MD Time 520.00
C      356064.16755523        9.66215609       10.71030152
C     -356152.20494813       -9.31234182      -10.18060234
H       -1618.96249488       12.73025588     -117.02561925
H       -1619.49385494      -17.23722155      111.41109370
H        1619.64730372       13.97019467      112.94977797
H        1619.51624321      -14.07066083     -115.55053147
6
MD Time 530.00
C      365434.27767393        9.91642336       10.99215156
C     -365524.63184032       -9.55740345      -10.44851293
H       -1661.54804400       13.07415463     -120.08401747
H       -1662.09338715      -17.69972466      114.32174124
H        1662.25087408       14.34672352      115.90091718
H        1662.11636463      -14.44983352     -118.57011156
6
MD Time 540.00
C      374804.38779262       10.17069062       11.27400160
C     -374897.05873252       -9.80246508      -10.71642352
H       -1704.13359311       13.41805336     -123.14241557
H       -1704.69291935      -18.16222775      117.23238867
H        1704.85444443       14.72325236      118.85205627
H        1704.71648604      -14.82900621     -121.58969153
6
MD Time 550.00
C      384174.49791132       10.42495789       11.55585164
C     -384269.48562471      -10.04752670      -10.98433410
H       -1746.71914223       13.76195208     -126.20081356
H       -1747.29245155      -18.62473083      120.14303599
H        1747.45801479       15.09978118      121.80319525
H        1747.31660746      -15.20817888     -124.60927139
6
MD Time 560.00
C      393544.60803002       10.67922515       11.83770168
C     -393641.91251690      -10.29258833      -11.25224469
H       -1789.30469135       14.10585079     -129.25921145
H       -1789.89198375      -19.08723390      123.05368320
H        1790.06158515       15.47630999      124.75433413
H        1789.91672887      -15.58735153     -127.62885115
6
MD Time 570.00
C      402914.71814871       10.93349242       12.11955172
C     -403014.33940910      -10.53764996      -11.52015528
H       -1831.89024047       14.44974949     -132.31760923
H       -1832.49151595      -19.54973695      125.96433032
H        1832.66515550       15.85283879      127.70547290
H        1832.51685028      -15.96652418     -130.64843081
6
MD Time 580.00
C      412284.82826741       11.18775968       12.40140176
C     -412386.76630129      -10.78271158      -11.78806587
H       -1874.47578958       14.79364817     -135.37600692
H       -1875.09104815      -20.01223999      128.87497733
H        1875.26872585       16.22936757      130.65661158
H        1875.11697169      -16.34569681     -133.66801036
6
MD Time 590.00
C      421654.93838611       11.44202695       12.68325180
C     -421759.19319349      -11.02777321      -12.05597646
H       -1917.06133870       15.13754684     -138.43440451
H       -1917.69058035      -20.47474302      131.78562425
H        1917.87229620       16.60589635      133.60775016
H        1917.71709310      -16.72486943     -136.68758983
6
MD Time 600.00
C      431025.04850480       11.69629422       12.96510184
C     -431131.62008568      -11.27283484      -12.32388704
H       -1959.64688781       15.48144549     -141.49280202
H       -1960.29011255      -20.93724604      134.69627109
H        1960.47586655       16.98242511      136.55888866
H        1960.31721451      -17.10404204     -139.70716921
6
MD Time 610.00
C      440395.15862350       11.95056148       13.24695188
C     -440504.04697787      -11.51789647      -12.59179763
H       -2002.23243692       15.82534414     -144.55119944
H       -2002.88964474      -21.39974904      137.60691784
H        2003.07943690       17.35895386      139.51002707
H        2002.91733592      -17.48321464     -142.72674850
6
MD Time 620.00
C      449765.26874219       12.20482875       13.52880192
C     -449876.47387007      -11.76295809      -12.85970822
H       -2044.81798604       16.16924277     -147.60959678
H       -2045.48917693      -21.86225204      140.51756451
H        2045.68300725       17.73548260      142.46116540
H        2045.51745733      -17.86238723     -145.74632771
6
MD Time 630.00
C      459135.37886089       12.45909601       13.81065196
C     -459248.90076226      -12.00801972      -13.12761881
H       -2087.40353515       16.51314140     -150.66799405
H       -2088.08870913      -22.32475502      143.42821110
H        2088.28657760       18.11201134      145.41230365
H        2088.11757873      -18.24155981     -148.76590685
6
MD Time 640.00
C      468505.48897959       12.71336328       14.09250200
C     -468621.32765445      -12.25308135      -13.39552940
H       -2129.98908426       16.85704002     -153.72639124
H       -2130.68824132      -22.78725800      146.33885762
H        2130.89014795       18.48854006      148.36344183
H        2130.71770014      -18.62073238     -151.78548591
6
MD Time 650.00
C      477875.59909828       12.96763054       14.37435204
C     -477993.75454665      -12.49814297      -13.66343998
H       -2172.57463337       17.20093862     -156.78478836
H       -2173.28777351      -23.24976096      149.24950407
H        2173.49371830       18.86506878      151.31457994
H        2173.31782155      -18.99990494     -154.80506489
6
MD Time 660.00
C      487245.70921698       13.22189781       14.65620208
C     -487366.18143884      -12.74320460      -13.93135057
H       -2215.16018248       17.54483722     -159.84318541
H       -2215.88730570      -23.71226392      152.16015044
H        2216.09728864       19.24159748      154.26571798
H        2215.91794295      -19.37907749     -157.82464381
6
MD Time 670.00
C      496615.81933568       13.47616507       14.93805212
C     -496738.60833103      -12.98826623      -14.19926116
H       -2257.74573159       17.88873581     -162.90158239
H       -2258.48683789      -24.17476687      155.07079676
H        2258.70085899       19.61812618      157.21685595
H        2258.51806436      -19.75825004     -160.84422267
6
MD Time 680.00
C      505985.92945437       13.73043234       15.21990216
C     -506111.03522323      -13.23332785      -14.46717175
H       -2300.33128070       18.23263439     -165.95997931
H       -2301.08637008      -24.63726981      157.98144300
H        2301.30442933       19.99465487      160.16799385
H        2301.11818576      -20.13742258     -163.86380146
6
MD Time 690.00
C      515356.03957307       13.98469961       15.50175220
C     -515483.46211542      -13.47838948      -14.73508234
H       -2342.91682981       18.57653296     -169.01837617
H       -2343.68590227      -25.09977274      160.89208919
H        2343.90799968       20.37118356      163.11913170
H        2343.71830716      -20.51659511     -166.88338018
6
MD Time 700.00
C      524726.14969176       14.23896687       15.78360224
C     -524855.88900762      -13.72345111      -15.00299292
H       -2385.50237892       18.92043152     -172.07677297
H       -2386.28543445      -25.56227566      163.80273532
H        2386.51157002       20.74771223      166.07026949
H        2386.31842856      -20.89576763     -169.90295885
6
MD Time 710.00
C      534096.25981046       14.49323414       16.06545228
C     -534228.31589981      -13.96851273      -15.27090351
H       -2428.08792803       19.26433008     -175.13516971
H       -2428.88496664      -26.02477858      166.71338139
H        2429.11514036       21.12424090      169.02140722
H        2428.91854997      -21.27494014     -172.92253746
6
MD Time 720.00
C      543466.36992916       14.74750140       16.34730232
C     -543600.74279200      -14.21357436      -15.53881410
H       -2470.67347713       19.60822863     -178.19356640
H       -2471.48449883      -26.48728149      169.62402741
H        2471.71871070       21.50076956      171.97254489
H        2471.51867137      -21.65411265     -175.94211602
6
MD Time 730.00
C      552836.48004785       15.00176867       16.62915236
C     -552973.16968420      -14.45863599      -15.80672469
H       -2513.25902624       19.95212717     -181.25196304
H       -2514.08403101      -26.94978439      172.53467337
H        2514.32228105       21.87729822      174.92368251
H        2514.11879277      -22.03328515     -178.96169452
6
MD Time 740.00
C      562206.59016655       15.25603593       16.91100240
C     -562345.59657639      -14.70369762      -16.07463528
H       -2555.84457535       20.29602570     -184.31035962
H       -2556.68356320      -27.41228728      175.44531928
H        2556.92585139       22.25382687      177.87482008
H        2556.71891417      -22.41245765     -181.98127298
6
MD Time 750.00
C      571576.70028525       15.51030320       17.19285244
C     -571718.02346858      -14.94875924      -16.34254586
H       -2598.43012445       20.63992423     -187.36875615
H       -2599.28309538      -27.87479017      178.35596514
H        2599.52942173       22.63035551      180.82595760
H        2599.31903557      -22.79163014     -185.00085138
6
MD Time 760.00
C      580946.81040394       15.76457046       17.47470248
C     -581090.45036078      -15.19382087      -16.61045645
H       -2641.01567356       20.98382276     -190.42715264
H       -2641.88262756      -28.33729305      181.26661096
H        2642.13299207       23.00688414      183.77709507
H        2641.91915697      -23.17080262     -188.02042973
6
MD Time 770.00
C      590316.92052264       16.01883773       17.75655252
C     -590462.87725297      -15.43888250      -16.87836704
H       -2683.60122266       21.32772127     -193.48554908
H       -2684.48215975      -28.79979593      184.17725672
H        2684.73656241       23.38341278      186.72823250
H        2684.51927837      -23.54997510     -191.04000804
6
MD Time 780.00
C      599687.03064134       16.27310499       18.03840256
C     -599835.30414516      -15.68394412      -17.14627763
H       -2726.18677177       21.67161978     -196.54394547
H       -2727.08169193      -29.26229880      187.08790244
H        2727.34013274       23.75994140      189.67936988
H        2727.11939977      -23.92914757     -194.05958630
6
MD Time 790.00
C      609057.14076003       16.52737226       18.32025260
C     -609207.73103736      -15.92900575      -17.41418821
H       -2768.77232087       22.01551829     -199.60234182
H       -2769.68122411      -29.72480166      189.99854812
H        2769.94370308       24.13647002      192.63050722
H        2769.71952116      -24.30832003     -197.07916452
6
MD Time 800.00
C      618427.25087873       16.78163953       18.60210264
C     -618580.15792955      -16.17406738      -17.68209880
H       -2811.35786998       22.35941679     -202.66073813
H       -2812.28075629      -30.18730452      192.90919376
H        2812.54727342       24.51299863      195.58164451
H        2812.31964256      -24.68749250     -200.09874269
6
MD Time 810.00
C      627797.36099742       17.03590679       18.88395268
C     -627952.58482175      -16.41912900      -17.95000939
H       -2853.94341908       22.70331528     -205.71913440
H       -2854.88028847      -30.64980737      195.81983935
H        2855.15084376       24.88952724      198.53278176
H        2854.91976396      -25.06666495     -203.11832083
6
MD Time 820.00
C      637167.47111612       17.29017406       19.16580272
C     -637325.01171394      -16.66419063      -18.21791998
H       -2896.52896819       23.04721377     -208.77753063
H       -2897.47982065      -31.11231022      198.73048491
H        2897.75441410       25.26605585      201.48391898
H        2897.51988536      -25.44583740     -206.13789892
6
MD Time 830.00
C      646537.58123482       17.54444132       19.44765276
C     -646697.43860613      -16.90925226      -18.48583057
H       -2939.11451729       23.39111225     -211.83592682
H       -2940.07935283      -31.57481306      201.64113042
H        2940.35798443       25.64258445      204.43505615
H        2940.12000675      -25.82500985     -209.15747698
6
MD Time 840.00
C      655907.69135351       17.79870859       19.72950280
C     -656069.86549833      -17.15431388      -18.75374115
H       -2981.70006639       23.73501073     -214.89432297
H       -2982.67888501      -32.03731590      204.55177590
H        2982.96155477       26.01911304      207.38619328
H        2982.72012815      -26.20418229     -212.17705499
6
MD Time 850.00
C      665277.80147221       18.05297585       20.01135284
C     -665442.29239052      -17.39937551      -19.02165174
H       -3024.28561550       24.07890920     -217.95271908
H       -3025.27841719      -32.49981873      207.46242135
H        3025.56512510       26.39564163      210.33733038
H        3025.32024954      -26.58335473     -215.19663298
6
MD Time 860.00
C      674647.91159091       18.30724312       20.29320288
C     -674814.71928271      -17.64443714      -19.28956233
H       -3066.87116460       24.42280767     -221.01111516
H       -3067.87794936      -32.96232156      210.37306675
H        3068.16869544       26.77217022      213.28846745
H        3067.92037094      -26.96252716     -218.21621092
6
MD Time 870.00
C      684018.02170960       18.56151038       20.57505292
C     -684187.14617491      -17.88949877      -19.55747292
H       -3109.45671370       24.76670613     -224.06951120
H       -3110.47748154      -33.42482438      213.28371212
H        3110.77226578       27.14869880      216.23960448
H        3110.52049234      -27.34169959     -221.23578883
6
MD Time 880.00
C      693388.13182830       18.81577765       20.85690296
C     -693559.57306710      -18.13456039      -19.82538351
H       -3152.04226280       25.11060459     -227.12790721
H       -3153.07701372      -33.88732720      216.19435746
H        3153.37583611       27.52522738      219.19074147
H        3153.12061373      -27.72087201     -224.25536671
6
MD Time 890.00
C      702758.24194699       19.07004492       21.13875300
C     -702931.99995930      -18.37962202      -20.09329409
H       -3194.62781191       25.45450305     -230.18630319
H       -3195.67654590      -34.34983001      219.10500277
H        3195.97940644       27.90175595      222.14187844
H        3195.72073512      -28.10004443     -227.27494455
6
MD Time 900.00
C      712128.35206569       19.32431218       21.42060304
C     -712304.42685149      -18.62468365      -20.36120468
H       -3237.21336101       25.79840150     -233.24469914
H       -3238.27607807      -34.81233282      222.01564804
H        3238.58297678       28.27828452      225.09301537
H        3238.32085652      -28.47921685     -230.29452237
6
MD Time 910.00
C      721498.46218439       19.57857945       21.70245308
C     -721676.85374368      -18.86974527      -20.62911527
H       -3279.79891011       26.14229994     -236.30309505
H       -3280.87561025      -35.27483563      224.92629329
H        3281.18654711       28.65481309      228.04415227
H        3280.92097791      -28.85838926     -233.31410015
6
MD Time 920.00
C      730868.57230308       19.83284671       21.98430312
C     -731049.28063588      -19.11480690      -20.89702586
H       -3322.38445921       26.48619839     -239.36149094
H       -3323.47514242      -35.73733843      227.83693850
H        3323.79011745       29.03134165      230.99528914
H        3323.52109931      -29.23756167     -236.33367790
6
MD Time 930.00
C      740238.68242178       20.08711398       22.26615316
C     -740421.70752807      -19.35986853      -21.16493645
H       -3364.97000831       26.83009682     -242.41988679
H       -3366.07467460      -36.19984123      230.74758368
H        3366.39368778       29.40787020      233.94642598
H        3366.12122070      -29.61673407     -239.35325562
6
MD Time 940.00
C      749608.79254048       20.34138124       22.54800320
C     -749794.13442026      -19.60493015      -21.43284703
H       -3407.55555741       27.17399526     -245.47828262
H       -3408.67420677      -36.66234402      233.65822884
H        3408.99725811       29.78439876      236.89756279
H        3408.72134209      -29.99590647     -242.37283331
6
MD Time 950.00
C      758978.90265917       20.59564851       22.82985324
C     -759166.56131246      -19.84999178      -21.70075762
H       -3450.14110651       27.51789369     -248.53667842
H       -3451.27373895      -37.12484681      236.56887396
H        3451.60082844       30.16092731      239.84869957
H        3451.32146349      -30.37507887     -245.39241098
6
MD Time 960.00
C      768349.01277787       20.84991577       23.11170328
C     -768538.98820465      -20.09505341      -21.96866821
H       -3492.72665561       27.86179212     -251.59507419
H       -3493.87327112      -37.58734960      239.47951906
H        3494.20439878       30.53745586      242.79983633
H        3493.92158488      -30.75425126     -248.41198861
6
MD Time 970.00
C      777719.12289657       21.10418304       23.39355332
C     -777911.41509684      -20.34011503      -22.23657880
H       -3535.31220471       28.20569054     -254.65346994
H       -3536.47280330      -38.04985238      242.39016413
H        3536.80796911       30.91398440      245.75097305
H        3536.52170627      -31.13342365     -251.43156622
6
MD Time 980.00
C      787089.23301526       21.35845031       23.67540336
C     -787283.84198904      -20.58517666      -22.50448939
H       -3577.89775381       28.54958896     -257.71186566
H       -3579.07233547      -38.51235516      245.30080918
H        3579.41153944       31.29051294      248.70210976
H        3579.12182766      -31.51259604     -254.45114381
6
MD Time 990.00
C      796459.34313396       21.61271757       23.95725340
C     -796656.26888123      -20.83023829      -22.77239997
H       -3620.48330291       28.89348738     -260.77026135
H       -3621.67186764      -38.97485794      248.21145420
H        3622.01510977       31.66704148      251.65324643
H        3621.72194905      -31.89176843     -257.47072137
6
MD Time 1000.00
C      805829.45325265       21.86698484       24.23910344
C     -806028.69577343      -21.07529992      -23.04031056
H       -3663.06885201       29.23738579     -263.82865702
H       -3664.27139982      -39.43736071      251.12209920
H        3664.61868010       32.04357001      254.60438309
H        3664.32207045      -32.27094081     -260.49029890
6
MD Time 1010.00
C      815199.56337135       22.12125210       24.52095348
C     -815401.12266562      -21.32036154      -23.30822115
H       -3705.65440111       29.58128420     -266.88705266
H       -3706.87093199      -39.89986348      254.03274417
H        3707.22225043       32.42009855      257.55551971
H        3706.92219184      -32.65011318     -263.50987641
6
MD Time 1020.00
C      824569.67349005       22.37551937       24.80280352
C     -824773.54955781      -21.56542317      -23.57613174
H       -3748.23995021       29.92518261     -269.94544828
H       -3749.47046416      -40.36236625      256.94338912
H        3749.82582076       32.79662707      260.50665632
H        3749.52231323      -33.02928556     -266.52945390
6
MD Time 1030.00
C      833939.78360874       22.62978663       25.08465356
C     -834145.97645001      -21.81048480      -23.84404232
H       -3790.82549931       30.26908101     -273.00384388
H       -3792.06999633      -40.82486901      259.85403405
H        3792.42939109       33.17315560      263.45779290
H        3792.12243462      -33.40845793     -269.54903136
6
MD Time 1040.00
C      843309.89372744       22.88405390       25.36650360
C     -843518.40334220      -22.05554642      -24.11195291
H       -3833.41104841       30.61297941     -276.06223946
H       -3834.66952851      -41.28737177      262.76467895
H        3835.03296142       33.54968412      266.40892946
H        3834.72255601      -33.78763030     -272.56860880
6
MD Time 1050.00
C      852680.00384614       23.13832116       25.64835364
C     -852890.83023439      -22.30060805      -24.37986350
H       -3875.99659751       30.95687781     -279.12063501
H       -3877.26906068      -41.74987453      265.67532383
H        3877.63653175       33.92621264      269.36006600
H        3877.32267740      -34.16680267     -275.58818622
6
MD Time 1060.00
C      862050.11396483       23.39258843       25.93020368
C     -862263.25712659      -22.54566968      -24.64777409
H       -3918.58214661       31.30077621     -282.17903054
H       -3919.86859285      -42.21237729      268.58596869
H        3920.24010208       34.30274116      272.31120251
H        3919.92279879      -34.54597503     -278.60776362
6
MD Time 1070.00
C      871420.22408353       23.64685570       26.21205372
C     -871635.68401878      -22.79073130      -24.91568468
H       -3961.16769570       31.64467460     -285.23742605
H       -3962.46812502      -42.67488004      271.49661353
H        3962.84367241       34.67926967      275.26233900
H        3962.52292018      -34.92514739     -281.62734099
6
MD Time 1080.00
C      880790.33420222       23.90112296       26.49390376
C     -881008.11091097      -23.03579293      -25.18359526
H       -4003.75324480       31.98857299     -288.29582154
H       -4005.06765719      -43.13738279      274.40725834
H        4005.44724274       35.05579819      278.21347548
H        4005.12304157      -35.30431975     -284.64691835
6
MD Time 1090.00
C      890160.44432092       24.15539023       26.77575380
C     -890380.53780317      -23.28085456      -25.45150585
H       -4046.33879390       32.33247138     -291.35421701
H       -4047.66718936      -43.59988553      277.31790314
H        4048.05081307       35.43232670      281.16461193
H        4047.72316296      -35.68349211     -287.66649568
6
MD Time 1100.00
C      899530.55443962       24.40965749       27.05760384
C     -899752.96469536      -23.52591618      -25.71941644
H       -4088.92434300       32.67636976     -294.41261246
H       -4090.26672153      -44.06238828      280.22854792
H        4090.65438340       35.80885520      284.11574836
H        4090.32328435      -36.06266446     -290.68607299
6
MD Time 1110.00
C      908900.66455831       24.66392476       27.33945388
C     -909125.39158756      -23.77097781      -25.98732703
H       -4131.50989209       33.02026814     -297.47100789
H       -4132.86625370      -44.52489102      283.13919267
H        4133.25795373       36.18538371      287.06688477
H        4132.92340574      -36.44183681     -293.70565029
6
MD Time 1120.00
C      918270.77467701       24.91819202       27.62130392
C     -918497.81847975      -24.01603944      -26.25523762
H       -4174.09544119       33.36416652     -300.52940330
H       -4175.46578587      -44.98739376      286.04983741
H        4175.86152405       36.56191221      290.01802117
H        4175.52352713      -36.82100916     -296.72522756
6
MD Time 1130.00
C      927640.88479571       25.17245929       27.90315396
C     -927870.24537194      -24.26110107      -26.52314820
H       -4216.68099029       33.70806490     -303.58779869
H       -4218.06531804      -45.44989649      288.96048213
H        4218.46509438       36.93844071      292.96915754
H        4218.12364852      -37.20018151     -299.74480482
6
MD Time 1140.00
C      937010.99491440       25.42672655       28.18500400
C     -937242.67226414      -24.50616269      -26.79105879
H       -4259.26653939       34.05196327     -306.64619406
H       -4260.66485021      -45.91239923      291.87112683
H        4261.06866471       37.31496921      295.92029390
H        4260.72376991      -37.57935385     -302.76438206
6
MD Time 1150.00
C      946381.10503310       25.68099382       28.46685404
C     -946615.09915633      -24.75122432      -27.05896938
H       -4301.85208848       34.39586164     -309.70458942
H       -4303.26438238      -46.37490196      294.78177152
H        4303.67223504       37.69149770      298.87143024
H        4303.32389129      -37.95852619     -305.78395928
6
MD Time 1160.00
C      955751.21515180       25.93526109       28.74870408
C     -955987.52604852      -24.99628595      -27.32687997
H       -4344.43763758       34.73976001     -312.76298476
H       -4345.86391455      -46.83740469      297.69241618
H        4346.27580537       38.06802620      301.82256656
H        4345.92401268      -38.33769853     -308.80353648
6
MD Time 1170.00
C      965121.32527049       26.18952835       29.03055412
C     -965359.95294072      -25.24134757      -27.59479056
H       -4387.02318668       35.08365838     -315.82138008
H       -4388.46344671      -47.29990741      300.60306083
H        4388.87937569       38.44455469      304.77370286
H        4388.52413407      -38.71687087     -311.82311367
6
MD Time 1180.00
C      974491.43538919       26.44379562       29.31240416
C     -974732.37983291      -25.48640920      -27.86270114
H       -4429.60873577       35.42755675     -318.87977538
H       -4431.06297888      -47.76241014      303.51370546
H        4431.48294602       38.82108318      307.72483915
H        4431.12425546      -39.09604321     -314.84269084
6
MD Time 1190.00
C      983861.54550788       26.69806288       29.59425420
C     -984104.80672511      -25.73147083      -28.13061173
H       -4472.19428487       35.77145511     -321.93817067
H       -4473.66251105      -48.22491286      306.42435008
H        4474.08651635       39.19761166      310.67597542
H        4473.72437685      -39.47521554     -317.86226799
6
MD Time 1200.00
C      993231.65562658       26.95233015       29.87610424
C     -993477.23361730      -25.97653245      -28.39852232
H       -4514.77983397       36.11535347     -324.99656594
H       -4516.26204322      -48.68741558      309.33499468
H        4516.69008667       39.57414015      313.62711167
H        4516.32449823      -39.85438787     -320.88184512
6
MD Time 1210.00
C     1002601.76574528       27.20659741       30.15795428
C    -1002849.66050949      -26.22159408      -28.66643291
H       -4557.36538306       36.45925183     -328.05496119
H       -4558.86157539      -49.14991830      312.24563926
H        4559.29365700       39.95066863      316.57824791
H        4558.92461962      -40.23356020     -323.90142224
6
MD Time 1220.00
C     1011971.87586397       27.46086468       30.43980432
C    -1012222.08740169      -26.46665571      -28.93434350
H       -4599.95093216       36.80315018     -331.11335643
H       -4601.46110755      -49.61242101      315.15628383
H        4601.89722733       40.32719711      319.52938413
H        4601.52474101      -40.61273253     -326.92099935
6
MD Time 1230.00
C     1021341.98598267       27.71513194       30.72165436
C    -1021594.51429388      -26.71171733      -29.20225408
H       -4642.53648125       37.14704854     -334.17175166
H       -4644.06063972      -50.07492373      318.06692838
H        4644.50079765       40.70372559      322.48052034
H        4644.12486240      -40.99190485     -329.94057643
6
MD Time 1240.00
C     1030712.09610137       27.96939921       31.00350440
C    -1030966.94118607      -26.95677896      -29.47016467
H       -4685.12203035       37.49094689     -337.23014687
H       -4686.66017189      -50.53742644      320.97757292
H        4687.10436798       41.08025407      325.43165653
H        4686.72498378      -41.37107718     -332.96015351
6
MD Time 1250.00
C     1040082.20622006       28.22366648       31.28535444
C    -1040339.36807827      -27.20184059      -29.73807526
H       -4727.70757945       37.83484524     -340.28854206
H       -4729.25970406      -50.99992915      323.88821744
H        4729.70793830       41.45678254      328.38279271
H        4729.32510517      -41.75024950     -335.97973057
6
MD Time 1260.00
C     1049452.31633876       28.47793374       31.56720448
C    -1049711.79497046      -27.44690222      -30.00598585
H       -4770.29312854       38.17874359     -343.34693724
H       -4771.85923622      -51.46243186      326.79886194
H        4772.31150863       41.83331101      331.33392887
H        4771.92522656      -42.12942182     -338.99930761
6
MD Time 1270.00
C     1058822.42645745       28.73220101       31.84905452
C    -1059084.22186265      -27.69196384      -30.27389643
H       -4812.87867764       38.52264194     -346.40533241
H       -4814.45876839      -51.92493456      329.70950644
H        4814.91507896       42.20983949      334.28506502
H        4814.52534794      -42.50859414     -342.01888464
6
MD Time 1280.00
C     1068192.53657615       28.98646827       32.13090456
C    -1068456.64875485      -27.93702547      -30.54180702
H       -4855.46422673       38.86654028     -349.46372756
H       -4857.05830056      -52.38743727      332.62015092
H        4857.51864928       42.58636795      337.23620115
H        4857.12546933      -42.88776645     -345.03846165
6
MD Time 1290.00
C     1077562.64669485       29.24073554       32.41275460
C    -1077829.07564704      -28.18208710      -30.80971761
H       -4898.04977583       39.21043862     -352.52212269
H       -4899.65783272      -52.84993997      335.53079538
H        4900.12221961       42.96289642      340.18733727
H        4899.72559072      -43.26693877     -348.05803866
6
MD Time 1300.00
C     1086932.75681354       29.49500280       32.69460464
C    -1087201.50253924      -28.42714872      -31.07762820
H       -4940.63532492       39.55433696     -355.58051782
H       -4942.25736489      -53.31244267      338.44143983
H        4942.72578993       43.33942489      343.13847338
H        4942.32571210      -43.64611108     -351.07761564
6
MD Time 1310.00
C     1096302.86693224       29.74927007       32.97645468
C    -1096573.92943143      -28.67221035      -31.34553879
H       -4983.22087402       39.89823530     -358.63891293
H       -4984.85689705      -53.77494537      341.35208427
H        4985.32936026       43.71595335      346.08960947
H        4984.92583349      -44.02528339     -354.09719262
6
MD Time 1320.00
C     1105672.97705094       30.00353733       33.25830472
C    -1105946.35632362      -28.91727198      -31.61344937
H       -5025.80642311       40.24213364     -361.69730803
H       -5027.45642922      -54.23744806      344.26272870
H        5027.93293058       44.09248182      349.04074555
H        5027.52595488      -44.40445570     -357.11676958
6
MD Time 1330.00
C     1115043.08716963       30.25780460       33.54015476
C    -1115318.78321582      -29.16233360      -31.88135996
H       -5068.39197221       40.58603197     -364.75570311
H       -5070.05596138      -54.69995076      347.17337311
H        5070.53650091       44.46901028      351.99188162
H        5070.12607626      -44.78362801     -360.13634653
6
MD Time 1340.00
C     1124413.19728833       30.51207187       33.82200480
C    -1124691.21010801      -29.40739523      -32.14927055
H       -5110.97752130       40.92993031     -367.81409818
H       -5112.65549355      -55.16245345      350.08401751
H        5113.14007123       44.84553874      354.94301767
H        5112.72619765      -45.16280031     -363.15592346
6
MD Time 1350.00
C     1133783.30740703       30.76633913       34.10385484
C    -1134063.63700020      -29.65245686      -32.41718114
H       -5153.56307040       41.27382864     -370.87249324
H       -5155.25502572      -55.62495614      352.99466190
H        5155.74364156       45.22206720      357.89415371
H        5155.32631903      -45.54197262     -366.17550039
6
MD Time 1360.00
C     1143153.41752572       31.02060640       34.38570488
C    -1143436.06389240      -29.89751848      -32.68509173
H       -5196.14861949       41.61772697     -373.93088829
H       -5197.85455788      -56.08745883      355.90530627
H        5198.34721188       45.59859565      360.84528974
H        5197.92644042      -45.92114492     -369.19507730
6
MD Time 1370.00
C     1152523.52764442       31.27487366       34.66755492
C    -1152808.49078459      -30.14258011      -32.95300231
H       -5238.73416859       41.96162530     -376.98928332
H       -5240.45409005      -56.54996152      358.81595063
H        5240.95078220       45.97512411      363.79642576
H        5240.52656180      -46.30031722     -372.21465420
6
MD Time 1380.00
C     1161893.63776311       31.52914093       34.94940496
C    -1162180.91767678      -30.38764174      -33.22091290
H       -5281.31971768       42.30552363     -380.04767835
H       -5283.05362221      -57.01246421      361.72659498
H        5283.55435253       46.35165256      366.74756176
H        5283.12668319      -46.67948952     -375.23423108
6
MD Time 1390.00
C     1171263.74788181       31.78340819       35.23125500
C    -1171553.34456898      -30.63270336      -33.48882349
H       -5323.90526678       42.64942195     -383.10607336
H       -5325.65315437      -57.47496689      364.63723932
H        5326.15792285       46.72818101      369.69869776
H        5325.72680457      -47.05866182     -378.25380796
6
MD Time 1400.00
C     1180633.85800051       32.03767546       35.51310504
C    -1180925.77146117      -30.87776499      -33.75673408
H       -5366.49081587       42.99332028     -386.16446836
H       -5368.25268654      -57.93746958      367.54788365
H        5368.76149318       47.10470946      372.64983374
H        5368.32692596      -47.43783412     -381.27338482
6
MD Time 1410.00
C     1190003.96811920       32.29194272       35.79495508
C    -1190298.19835336      -31.12282662      -34.02464467
H       -5409.07636496       43.33721860     -389.22286335
H       -5410.85221870      -58.39997226      370.45852797
H        5411.36506350       47.48123791      375.60096971
H        5410.92704734      -47.81700641     -384.29296167
6
MD Time 1420.00
C     1199374.07823790       32.54620999       36.07680512
C    -1199670.62524556      -31.36788825      -34.29255525
H       -5451.66191406       43.68111692     -392.28125832
H       -5453.45175087      -58.86247494      373.36917227
H        5453.96863382       47.85776636      378.55210567
H        5453.52716873      -48.19617871     -387.31253852
6
MD Time 1430.00
C     1208744.18835659       32.80047726       36.35865516
C    -1209043.05213775      -31.61294987      -34.56046584
H       -5494.24746315       44.02501524     -395.33965329
H       -5496.05128303      -59.32497762      376.27981657
H        5496.57220415       48.23429481      381.50324162
H        5496.12729011      -48.57535100     -390.33211535
6
MD Time 1440.00
C     1218114.29847529       33.05474452       36.64050520
C    -1218415.47902995      -31.85801150      -34.82837643
H       -5536.83301225       44.36891356     -398.39804825
H       -5538.65081520      -59.78748030      379.19046085
H        5539.17577447       48.61082325      384.45437756
H        5538.72741150      -48.95452329     -393.35169217
6
MD Time 1450.00
C     1227484.40859399       33.30901179       36.92235524
C    -1227787.90592214      -32.10307313      -35.09628702
H       -5579.41856134       44.71281188     -401.45644319
H       -5581.25034736      -60.24998297      382.10110512
H        5581.77934479       48.98735170      387.40551348
H        5581.32753288      -49.33369558     -396.37126897
6
MD Time 1460.00
C     1236854.51871268       33.56327905       37.20420528
C    -1237160.33281433      -32.34813475      -35.36419761
H       -5622.00411043       45.05671019     -404.51483813
H       -5623.84987952      -60.71248565      385.01174939
H        5624.38291512       49.36388014      390.35664940
H        5623.92765427      -49.71286787     -399.39084577
6
MD Time 1470.00
C     1246224.62883138       33.81754632       37.48605532
C    -1246532.75970653      -32.59319638      -35.63210819
H       -5664.58965953       45.40060851     -407.57323305
H       -5666.44941169      -61.17498832      387.92239364
H        5666.98648544       49.74040858      393.30778531
H        5666.52777565      -50.09204016     -402.41042256
6
MD Time 1480.00
C     1255594.73895008       34.07181358       37.76790536
C    -1255905.18659872      -32.83825801      -35.90001878
H       -5707.17520862       45.74450682     -410.63162796
H       -5709.04894385      -61.63749099      390.83303788
H        5709.59005576       50.11693702      396.25892120
H        5709.12789704      -50.47121245     -405.42999934
6
MD Time 1490.00
C     1264964.84906877       34.32608085       38.04975540
C    -1265277.61349091      -33.08331963      -36.16792937
H       -5749.76075771       46.08840513     -413.69002287
H       -5751.64847601      -62.09999366      393.74368211
H        5752.19362609       50.49346546      399.21005709
H        5751.72801842      -50.85038473     -408.44957611
6
MD Time 1500.00
C     1274334.95918747       34.58034811       38.33160544
C    -1274650.04038311      -33.32838126      -36.43583996
H       -5792.34630681       46.43230344     -416.74841776
H       -5794.24800818      -62.56249633      396.65432633
H        5794.79719641       50.86999389      402.16119296
H        5794.32813980      -51.22955702     -411.46915286
6
MD Time 1510.00
C     1283705.06930616       34.83461538       38.61345548
C    -1284022.46727530      -33.57344289      -36.70375054
H       -5834.93185590       46.77620175     -419.80681265
H       -5836.84754034      -63.02499900      399.56497055
H        5837.40076673       51.24652233      405.11232883
H        5836.92826119      -51.60872930     -414.48872961
6
MD Time 1520.00
C     1293075.17942486       35.08888265       38.89530552
C    -1293394.89416749      -33.81850451      -36.97166113
H       -5877.51740499       47.12010006     -422.86520752
H       -5879.44707250      -63.48750167      402.47561475
H        5880.00433705       51.62305077      408.06346469
H        5879.52838257      -51.98790158     -417.50830635
6
MD Time 1530.00
C     1302445.28954356       35.34314991       39.17715556
C    -1302767.32105969      -34.06356614      -37.23957172
H       -5920.10295409       47.46399836     -425.92360239
H       -5922.04660467      -63.95000433      405.38625894
H        5922.60790738       51.99957920      411.01460053
H        5922.12850396      -52.36707386     -420.52788308
6
MD Time 1540.00
C     1311815.39966225       35.59741718       39.45900560
C    -1312139.74795188      -34.30862777      -37.50748231
H       -5962.68850318       47.80789667     -428.98199725
H       -5964.64613683      -64.41250700      408.29690313
H        5965.21147770       52.37610763      413.96573637
H        5964.72862534      -52.74624614     -423.54745980
6
MD Time 1550.00
C     1321185.50978095       35.85168444       39.74085564
C    -1321512.17484407      -34.55368940      -37.77539290
H       -6005.27405227       48.15179497     -432.04039209
H       -6007.24566899      -64.87500966      411.20754730
H        6007.81504802       52.75263606      416.91687220
H        6007.32874672      -53.12541842     -426.56703651
6
MD Time 1560.00
C     1330555.61989965       36.10595171       40.02270568
C    -1330884.60173627      -34.79875102      -38.04330348
H       -6047.85960137       48.49569327     -435.09878693
H       -6049.84520115      -65.33751232      414.11819147
H        6050.41861834       53.12916449      419.86800802
H        6049.92886811      -53.50459069     -429.58661321
6
MD Time 1570.00
C     1339925.73001834       36.36021897       40.30455572
C    -1340257.02862846      -35.04381265      -38.31121407
H       -6090.44515046       48.83959158     -438.15718176
H       -6092.44473332      -65.80001499      417.02883563
H        6093.02218866       53.50569292      422.81914383
H        6092.52898949      -53.88376297     -432.60618990
6
MD Time 1580.00
C     1349295.84013704       36.61448624       40.58640576
C    -1349629.45552066      -35.28887428      -38.57912466
H       -6133.03069955       49.18348988     -441.21557658
H       -6135.04426548      -66.26251764      419.93947977
H        6135.62575899       53.88222135      425.77027963
H        6135.12911087      -54.26293524     -435.62576659
6
MD Time 1590.00
C     1358665.95025573       36.86875350       40.86825580
C    -1359001.88241285      -35.53393590      -38.84703525
H       -6175.61624864       49.52738818     -444.27397139
H       -6177.64379764      -66.72502030      422.85012391
H        6178.22932931       54.25874978      428.72141543
H        6177.72923226      -54.64210752     -438.64534326
6
MD Time 1600.00
C     1368036.06037443       37.12302077       41.15010584
C    -1368374.30930504      -35.77899753      -39.11494584
H       -6218.20179774       49.87128647     -447.33236620
H       -6220.24332980      -67.18752296      425.76076804
H        6220.83289963       54.63527820      431.67255121
H        6220.32935364      -55.02127979     -441.66491993
6
MD Time 1610.00
C     1377406.17049313       37.37728804       41.43195588
C    -1377746.73619724      -36.02405916      -39.38285642
H       -6260.78734683       50.21518477     -450.39076099
H       -6262.84286196      -67.65002562      428.67141217
H        6263.43646995       55.01180663      434.62368699
H        6262.92947502      -55.40045206     -444.68449659
6
MD Time 1620.00
C     1386776.28061182       37.63155530       41.71380592
C    -1387119.16308943      -36.26912078      -39.65076701
H       -6303.37289592       50.55908307     -453.44915578
H       -6305.44239413      -68.11252827      431.58205628
H        6306.04004027       55.38833505      437.57482276
H        6305.52959641      -55.77962433     -447.70407324
6
MD Time 1630.00
C     1396146.39073052       37.88582257       41.99565596
C    -1396491.58998162      -36.51418241      -39.91867760
H       -6345.95844501       50.90298136     -456.50755056
H       -6348.04192629      -68.57503093      434.49270039
H        6348.64361059       55.76486347      440.52595852
H        6348.12971779      -56.15879660     -450.72364988
6
MD Time 1640.00
C     1405516.50084921       38.14008983       42.27750600
C    -1405864.01687382      -36.75924404      -40.18658819
H       -6388.54399411       51.24687965     -459.56594533
H       -6390.64145845      -69.03753358      437.40334449
H        6391.24718092       56.14139190      443.47709427
H        6390.72983917      -56.53796887     -453.74322651
6
MD Time 1650.00
C     1414886.61096791       38.39435710       42.55935604
C    -1415236.44376601      -37.00430566      -40.45449878
H       -6431.12954320       51.59077795     -462.62434009
H       -6433.24099061      -69.50003623      440.31398858
H        6433.85075124       56.51792032      446.42823001
H        6433.32996056      -56.91714114     -456.76280314
6
MD Time 1660.00
C     1424256.72108661       38.64862436       42.84120608
C    -1424608.87065820      -37.24936729      -40.72240936
H       -6473.71509229       51.93467624     -465.68273484
H       -6475.84052277      -69.96253888      443.22463266
H        6476.45432156       56.89444874      449.37936575
H        6475.93008194      -57.29631340     -459.78237975
6
MD Time 1670.00
C     1433626.83120530       38.90289163       43.12305612
C    -1433981.29755040      -37.49442892      -40.99031995
H       -6516.30064138       52.27857453     -468.74112959
H       -6518.44005493      -70.42504153      446.13527673
H        6519.05789188       57.27097716      452.33050148
H        6518.53020332      -57.67548567     -462.80195636
6
MD Time 1680.00
C     1442996.94132400       39.15715889       43.40490616
C    -1443353.72444259      -37.73949055      -41.25823054
H       -6558.88619048       52.62247282     -471.79952433
H       -6561.03958709      -70.88754418      449.04592080
H        6561.66146220       57.64750557      455.28163720
H        6561.13032470      -58.05465793     -465.82153297
6
MD Time 1690.00
C     1452367.05144270       39.41142616       43.68675620
C    -1452726.15133478      -37.98455217      -41.52614113
H       -6601.47173957       52.96637111     -474.85791906
H       -6603.63911926      -71.35004683      451.95656486
H        6604.26503252       58.02403399      458.23277291
H        6603.73044609      -58.43383020     -468.84110956
6
MD Time 1700.00
C     1461737.16156139       39.66569343       43.96860624
C    -1462098.57822698      -38.22961380      -41.79405172
H       -6644.05728866       53.31026939     -477.91631378
H       -6646.23865142      -71.81254947      454.86720891
H        6646.86860284       58.40056241      461.18390861
H        6646.33056747      -58.81300246     -471.86068615
6
MD Time 1710.00
C     1471107.27168009       39.91996069       44.25045628
C    -1471471.00511917      -38.47467543      -42.06196230
H       -6686.64283775       53.65416768     -480.97470850
H       -6688.83818358      -72.27505212      457.77785295
H        6689.47217316       58.77709082      464.13504431
H        6688.93068885      -59.19217472     -474.88026273
6
MD Time 1720.00
C     1480477.38179878       40.17422796       44.53230632
C    -1480843.43201136      -38.71973705      -42.32987289
H       -6729.22838684       53.99806596     -484.03310321
H       -6731.43771574      -72.73755476      460.68849699
H        6732.07574348       59.15361924      467.08618000
H        6731.53081023      -59.57134698     -477.89983930
6
MD Time 1730.00
C     1489847.49191748       40.42849522       44.81415636
C    -1490215.85890356      -38.96479868      -42.59778348
H       -6771.81393594       54.34196425     -487.09149791
H       -6774.03724790      -73.20005741      463.59914102
H        6774.67931380       59.53014765      470.03731568
H        6774.13093162      -59.95051924     -480.91941586
6
MD Time 1740.00
C     1499217.60203618       40.68276249       45.09600640
C    -1499588.28579575      -39.20986031      -42.86569407
H       -6814.39948503       54.68586253     -490.14989261
H       -6816.63678006      -73.66256005      466.50978504
H        6817.28288412       59.90667606      472.98845136
H        6816.73105300      -60.32969150     -483.93899242
6
MD Time 1750.00
C     1508587.71215487       40.93702975       45.37785644
C    -1508960.71268795      -39.45492193      -43.13360465
H       -6856.98503412       55.02976081     -493.20828729
H       -6859.23631222      -74.12506269      469.42042906
H        6859.88645444       60.28320447      475.93958703
H        6859.33117438      -60.70886376     -486.95856897
6
MD Time 1760.00
C     1517957.82227357       41.19129702       45.65970648
C    -1518333.13958014      -39.69998356      -43.40151524
H       -6899.57058321       55.37365910     -496.26668197
H       -6901.83584438      -74.58756533      472.33107307
H        6902.49002476       60.65973288      478.89072269
H        6901.93129576      -61.08803601     -489.97814552
6
MD Time 1770.00
C     1527327.93239227       41.44556428       45.94155652
C    -1527705.56647233      -39.94504519      -43.66942583
H       -6942.15613230       55.71755738     -499.32507665
H       -6944.43537654      -75.05006797      475.24171707
H        6945.09359508       61.03626129      481.84185835
H        6944.53141714      -61.46720827     -492.99772205
6
MD Time 1780.00
C     1536698.04251096       41.69983155       46.22340656
C    -1537077.99336453      -40.19010681      -43.93733642
H       -6984.74168139       56.06145566     -502.38347132
H       -6987.03490870      -75.51257061      478.15236107
H        6987.69716541       61.41278970      484.79299400
H        6987.13153853      -61.84638053     -496.01729858
6
MD Time 1790.00
C     1546068.15262966       41.95409882       46.50525660
C    -1546450.42025672      -40.43516844      -44.20524701
H       -7027.32723049       56.40535393     -505.44186598
H       -7029.63444086      -75.97507325      481.06300505
H        7030.30073573       61.78931811      487.74412964
H        7029.73165991      -62.22555278     -499.03687511
6
MD Time 1800.00
C     1555438.26274835       42.20836608       46.78710664
C    -1555822.84714891      -40.68023007      -44.47315759
H       -7069.91277958       56.74925221     -508.50026063
H       -7072.23397302      -76.43757589      483.97364904
H        7072.90430605       62.16584652      490.69526527
H        7072.33178129      -62.60472503     -502.05645162
6
MD Time 1810.00
C     1564808.37286705       42.46263335       47.06895668
C    -1565195.27404111      -40.92529170      -44.74106818
H       -7112.49832867       57.09315049     -511.55865528
H       -7114.83350518      -76.90007852      486.88429301
H        7115.50787637       62.54237492      493.64640090
H        7114.93190267      -62.98389729     -505.07602813
6
MD Time 1820.00
C     1574178.48298575       42.71690061       47.35080672
C    -1574567.70093330      -41.17035332      -45.00897877
H       -7155.08387776       57.43704877     -514.61704992
H       -7157.43303734      -77.36258116      489.79493698
H        7158.11144669       62.91890333      496.59753652
H        7157.53202405      -63.36306954     -508.09560464
6
MD Time 1830.00
C     1583548.59310444       42.97116788       47.63265676
C    -1583940.12782549      -41.41541495      -45.27688936
H       -7197.66942685       57.78094704     -517.67544455
H       -7200.03256950      -77.82508379      492.70558094
H        7200.71501701       63.29543173      499.54867214
H        7200.13214543      -63.74224179     -511.11518114
6
MD Time 1840.00
C     1592918.70322314       43.22543514       47.91450680
C    -1593312.55471769      -41.66047658      -45.54479995
H       -7240.25497594       58.12484532     -520.73383918
H       -7242.63210166      -78.28758643      495.61622490
H        7243.31858733       63.67196014      502.49980775
H        7242.73226682      -64.12141404     -514.13475763
6
MD Time 1850.00
C     1602288.81334184       43.47970241       48.19635684
C    -1602684.98160988      -41.90553820      -45.81271053
H       -7282.84052503       58.46874359     -523.79223380
H       -7285.23163382      -78.75008906      498.52686885
H        7285.92215764       64.04848854      505.45094335
H        7285.33238820      -64.50058629     -517.15433411
6
MD Time 1860.00
C     1611658.92346053       43.73396967       48.47820688
C    -1612057.40850207      -42.15059983      -46.08062112
H       -7325.42607412       58.81264186     -526.85062842
H       -7327.83116598      -79.21259169      501.43751279
H        7328.52572796       64.42501694      508.40207895
H        7327.93250958      -64.87975854     -520.17391059
6
MD Time 1870.00
C     1621029.03357923       43.98823694       48.76005692
C    -1621429.83539427      -42.39566146      -46.34853171
H       -7368.01162322       59.15654013     -529.90902303
H       -7370.43069814      -79.67509433      504.34815673
H        7371.12929828       64.80154534      511.35321454
H        7370.53263096      -65.25893079     -523.19348706
6
MD Time 1880.00
C     1630399.14369792       44.24250421       49.04190696
C    -1630802.26228646      -42.64072308      -46.61644230
H       -7410.59717231       59.50043840     -532.96741763
H       -7413.03023030      -80.13759696      507.25880066
H        7413.73286860       65.17807374      514.30435013
H        7413.13275234      -65.63810303     -526.21306353
6
MD Time 1890.00
C     1639769.25381662       44.49677147       49.32375700
C    -1640174.68917865      -42.88578471      -46.88435289
H       -7453.18272140       59.84433668     -536.02581223
H       -7455.62976246      -80.60009959      510.16944459
H        7456.33643892       65.55460214      517.25548570
H        7455.73287372      -66.01727528     -529.23263999
6
MD Time 1900.00
C     1649139.36393532       44.75103874       49.60560704
C    -1649547.11607085      -43.13084634      -47.15226347
H       -7495.76827049       60.18823494     -539.08420683
H       -7498.22929462      -81.06260221      513.08008851
H        7498.94000924       65.93113054      520.20662128
H        7498.33299510      -66.39644753     -532.25221644
6
MD Time 1910.00
C     1658509.47405401       45.00530600       49.88745708
C    -1658919.54296304      -43.37590796      -47.42017406
H       -7538.35381958       60.53213321     -542.14260141
H       -7540.82882678      -81.52510484      515.99073242
H        7541.54357956       66.30765894      523.15775684
H        7540.93311649      -66.77561977     -535.27179289
6
MD Time 1920.00
C     1667879.58417271       45.25957327       50.16930712
C    -1668291.96985524      -43.62096959      -47.68808465
H       -7580.93936867       60.87603148     -545.20099599
H       -7583.42835894      -81.98760747      518.90137633
H        7584.14714988       66.68418734      526.10889241
H        7583.53323787      -67.15479202     -538.29136934
6
MD Time 1930.00
C     1677249.69429140       45.51384053       50.45115716
C    -1677664.39674743      -43.86603122      -47.95599524
H       -7623.52491776       61.21992975     -548.25939057
H       -7626.02789110      -82.45011010      521.81202023
H        7626.75072020       67.06071574      529.06002796
H        7626.13335925      -67.53396426     -541.31094577
6
MD Time 1940.00
C     1686619.80441010       45.76810780       50.73300720
C    -1687036.82363962      -44.11109285      -48.22390583
H       -7666.11046685       61.56382802     -551.31778514
H       -7668.62742326      -82.91261272      524.72266413
H        7669.35429052       67.43724413      532.01116351
H        7668.73348063      -67.91313650     -544.33052221
6
MD Time 1950.00
C     1695989.91452880       46.02237506       51.01485724
C    -1696409.25053182      -44.35615447      -48.49181641
H       -7708.69601594       61.90772628     -554.37617970
H       -7711.22695542      -83.37511535      527.63330802
H        7711.95786084       67.81377253      534.96229906
H        7711.33360201      -68.29230875     -547.35009863
6
MD Time 1960.00
C     1705360.02464749       46.27664233       51.29670728
C    -1705781.67742401      -44.60121610      -48.75972700
H       -7751.28156503       62.25162455     -557.43457426
H       -7753.82648758      -83.83761797      530.54395191
H        7754.56143116       68.19030092      537.91343460
H        7753.93372339      -68.67148099     -550.36967505
6
MD Time 1970.00
C     1714730.13476619       46.53090959       51.57855732
C    -1715154.10431620      -44.84627773      -49.02763759
H       -7793.86711412       62.59552281     -560.49296881
H       -7796.42601973      -84.30012060      533.45459579
H        7797.16500148       68.56682932      540.86457013
H        7796.53384477      -69.05065323     -553.38925147
6
MD Time 1980.00
C     1724100.24488489       46.78517686       51.86040736
C    -1724526.53120840      -45.09133935      -49.29554818
H       -7836.45266322       62.93942107     -563.55136336
H       -7839.02555189      -84.76262322      536.36523967
H        7839.76857180       68.94335771      543.81570566
H        7839.13396615      -69.42982547     -556.40882788
6
MD Time 1990.00
C     1733470.35500358       47.03944413       52.14225740
C    -1733898.95810059      -45.33640098      -49.56345876
H       -7879.03821231       63.28331934     -566.60975790
H       -7881.62508405      -85.22512584      539.27588354
H        7882.37214211       69.31988610      546.76684118
H        7881.73408753      -69.80899771     -559.42840428
6
MD Time 2000.00
C     1742840.46512228       47.29371139       52.42410744
C    -1743271.38499278      -45.58146261      -49.83136935
H       -7921.62376140       63.62721760     -569.66815244
H       -7924.22461621      -85.68762846      542.18652740
H        7924.97571243       69.69641450      549.71797670
H        7924.33420891      -70.18816995     -562.44798068
6
MD Time 2010.00
C     1752210.57524097       47.54797866       52.70595748
C    -1752643.81188498      -45.82652423      -50.09927994
H       -7964.20931049       63.97111586     -572.72654697
H       -7966.82414837      -86.15013108      545.09717126
H        7967.57928275       70.07294289      552.66911221
H        7966.93433029      -70.56734219     -565.46755708
6
MD Time 2020.00
C     1761580.68535967       47.80224592       52.98780752
C    -1762016.23877717      -46.07158586      -50.36719053
H       -8006.79485958       64.31501412     -575.78494150
H       -8009.42368053      -86.61263370      548.00781511
H        8010.18285307       70.44947128      555.62024772
H        8009.53445167      -70.94651442     -568.48713347
6
MD Time 2030.00
C     1770950.79547837       48.05651319       53.26965756
C    -1771388.66566936      -46.31664749      -50.63510112
H       -8049.38040867       64.65891238     -578.84333602
H       -8052.02321269      -87.07513632      550.91845896
H        8052.78642339       70.82599967      558.57138322
H        8052.13457305      -71.32568666     -571.50670985
6
MD Time 2040.00
C     1780320.90559706       48.31078045       53.55150760
C    -1780761.09256156      -46.56170911      -50.90301170
H       -8091.96595776       65.00281064     -581.90173054
H       -8094.62274484      -87.53763894      553.82910281
H        8095.38999371       71.20252806      561.52251872
H        8094.73469444      -71.70485890     -574.52628623
6
MD Time 2050.00
C     1789691.01571576       48.56504772       53.83335764
C    -1790133.51945375      -46.80677074      -51.17092229
H       -8134.55150685       65.34670890     -584.96012505
H       -8137.22227700      -88.00014156      556.73974665
H        8137.99356403       71.57905645      564.47365421
H        8137.33481582      -72.08403113     -577.54586260
6
MD Time 2060.00
C     1799061.12583446       48.81931498       54.11520768
C    -1799505.94634595      -47.05183237      -51.43883288
H       -8177.13705594       65.69060716     -588.01851955
H       -8179.82180916      -88.46264418      559.65039048
H        8180.59713435       71.95558484      567.42478970
H        8179.93493720      -72.46320337     -580.56543897
6
MD Time 2070.00
C     1808431.23595315       49.07358225       54.39705772
C    -1808878.37323814      -47.29689400      -51.70674347
H       -8219.72260503       66.03450542     -591.07691406
H       -8222.42134132      -88.92514679      562.56103431
H        8223.20070466       72.33211322      570.37592518
H        8222.53505858      -72.84237560     -583.58501534
6
MD Time 2080.00
C     1817801.34607185       49.32784952       54.67890776
C    -1818250.80013033      -47.54195562      -51.97465406
H       -8262.30815412       66.37840367     -594.13530855
H       -8265.02087348      -89.38764941      565.47167814
H        8265.80427498       72.70864161      573.32706066
H        8265.13517996      -73.22154784     -586.60459170
6
MD Time 2090.00
C     1827171.45619054       49.58211678       54.96075780
C    -1827623.22702253      -47.78701725      -52.24256464
H       -8304.89370321       66.72230193     -597.19370304
H       -8307.62040564      -89.85015203      568.38232196
H        8308.40784530       73.08517000      576.27819613
H        8307.73530134      -73.60072007     -589.62416805
6
MD Time 2100.00
C     1836541.56630924       49.83638405       55.24260784
C    -1836995.65391472      -48.03207888      -52.51047523
H       -8347.47925230       67.06620018     -600.25209753
H       -8350.21993779      -90.31265464      571.29296577
H        8351.01141562       73.46169838      579.22933160
H        8350.33542272      -73.97989230     -592.64374440
6
MD Time 2110.00
C     1845911.67642794       50.09065131       55.52445788
C    -1846368.08080691      -48.27714050      -52.77838582
H       -8390.06480139       67.41009844     -603.31049201
H       -8392.81946995      -90.77515726      574.20360958
H        8393.61498594       73.83822677      582.18046706
H        8392.93554410      -74.35906453     -595.66332075
6
MD Time 2120.00
C     1855281.78654663       50.34491858       55.80630792
C    -1855740.50769911      -48.52220213      -53.04629641
H       -8432.65035048       67.75399669     -606.36888649
H       -8435.41900211      -91.23765987      577.11425339
H        8436.21855626       74.21475516      585.13160252
H        8435.53566548      -74.73823676     -598.68289709
6
MD Time 2130.00
C     1864651.89666533       50.59918584       56.08815796
C    -1865112.93459130      -48.76726376      -53.31420700
H       -8475.23589957       68.09789495     -609.42728097
H       -8478.01853427      -91.70016248      580.02489719
H        8478.82212657       74.59128354      588.08273798
H        8478.13578686      -75.11740900     -601.70247342
6
MD Time 2140.00
C     1874022.00678402       50.85345311       56.37000800
C    -1874485.36148349      -49.01232538      -53.58211758
H       -8517.82144866       68.44179320     -612.48567544
H       -8520.61806643      -92.16266509      582.93554099
H        8521.42569689       74.96781192      591.03387343
H        8520.73590824      -75.49658123     -604.72204975
6
MD Time 2150.00
C     1883392.11690272       51.10772037       56.65185804
C    -1883857.78837569      -49.25738701      -53.85002817
H       -8560.40699775       68.78569145     -615.54406990
H       -8563.21759858      -92.62516771      585.84618478
H        8564.02926721       75.34434031      593.98500887
H        8563.33602962      -75.87575346     -607.74162608
6
MD Time 2160.00
C     1892762.22702142       51.36198764       56.93370808
C    -1893230.21526788      -49.50244864      -54.11793876
H       -8602.99254684       69.12958970     -618.60246436
H       -8605.81713074      -93.08767032      588.75682857
H        8606.63283753       75.72086869      596.93614431
H        8605.93615100      -76.25492568     -610.76120240
6
MD Time 2170.00
C     1902132.33714011       51.61625491       57.21555812
C    -1902602.64216007      -49.74751026      -54.38584935
H       -8645.57809593       69.47348796     -621.66085882
H       -8648.41666290      -93.55017293      591.66747235
H        8649.23640785       76.09739707      599.88727975
H        8648.53627238      -76.63409791     -613.78077872
6
MD Time 2180.00
C     1911502.44725881       51.87052217       57.49740816
C    -1911975.06905227      -49.99257189      -54.65375994
H       -8688.16364502       69.81738621     -624.71925327
H       -8691.01619506      -94.01267554      594.57811613
H        8691.83997816       76.47392545      602.83841518
H        8691.13639376      -77.01327014     -616.80035503
6
MD Time 2190.00
C     1920872.55737751       52.12478944       57.77925820
C    -1921347.49594446      -50.23763352      -54.92167052
H       -8730.74919411       70.16128446     -627.77764771
H       -8733.61572721      -94.47517815      597.48875990
H        8734.44354848       76.85045383      605.78955061
H        8733.73651514      -77.39244237     -619.81993134
6
MD Time 2200.00
C     1930242.66749620       52.37905670       58.06110824
C    -1930719.92283665      -50.48269515      -55.18958111
H       -8773.33474320       70.50518271     -630.83604216
H       -8776.21525937      -94.93768076      600.39940367
H        8777.04711880       77.22698221      608.74068603
H        8776.33663652      -77.77161460     -622.83950765
6
MD Time 2210.00
C     1939612.77761490       52.63332397       58.34295828
C    -1940092.34972885      -50.72775677      -55.45749170
H       -8815.92029229       70.84908095     -633.89443659
H       -8818.81479153      -95.40018337      603.31004744
H        8819.65068912       77.60351059      611.69182145
H        8818.93675790      -78.15078682     -625.85908395
6
MD Time 2220.00
C     1948982.88773359       52.88759123       58.62480832
C    -1949464.77662104      -50.97281840      -55.72540229
H       -8858.50584138       71.19297920     -636.95283103
H       -8861.41432369      -95.86268597      606.22069120
H        8862.25425943       77.98003897      614.64295686
H        8861.53687928      -78.52995905     -628.87866025
6
MD Time 2230.00
C     1958352.99785229       53.14185850       58.90665836
C    -1958837.20351324      -51.21788003      -55.99331287
H       -8901.09139047       71.53687745     -640.01122546
H       -8904.01385584      -96.32518858      609.13133496
H        8904.85782975       78.35656735      617.59409227
H        8904.13700066      -78.90913127     -631.89823654
6
MD Time 2240.00
C     1967723.10797099       53.39612576       59.18850840
C    -1968209.63040543      -51.46294165      -56.26122346
H       -8943.67693956       71.88077570     -643.06961988
H       -8946.61338800      -96.78769119      612.04197871
H        8947.46140007       78.73309573      620.54522768
H        8946.73712204      -79.28830350     -634.91781283
6
MD Time 2250.00
C     1977093.21808968       53.65039303       59.47035844
C    -1977582.05729762      -51.70800328      -56.52913405
H       -8986.26248865       72.22467394     -646.12801431
H       -8989.21292016      -97.25019379      614.95262246
H        8990.06497039       79.10962411      623.49636308
H        8989.33724341      -79.66747572     -637.93738911
6
MD Time 2260.00
C     1986463.32820838       53.90466030       59.75220848
C    -1986954.48418982      -51.95306491      -56.79704464
H       -9028.84803774       72.56857219     -649.18640872
H       -9031.81245232      -97.71269640      617.86326621
H        9032.66854071       79.48615249      626.44749848
H        9031.93736479      -80.04664795     -640.95696539
6
MD Time 2270.00
C     1995833.43832708       54.15892756       60.03405852
C    -1996326.91108201      -52.19812653      -57.06495523
H       -9071.43358683       72.91247044     -652.24480314
H       -9074.41198447      -98.17519900      620.77390995
H        9075.27211102       79.86268086      629.39863388
H        9074.53748617      -80.42582017     -643.97654167
6
MD Time 2280.00
C     2005203.54844577       54.41319483       60.31590856
C    -2005699.33797420      -52.44318816      -57.33286581
H       -9114.01913592       73.25636868     -655.30319755
H       -9117.01151663      -98.63770161      623.68455369
H        9117.87568134       80.23920924      632.34976927
H        9117.13760755      -80.80499239     -646.99611794
6
MD Time 2290.00
C     2014573.65856447       54.66746209       60.59775860
C    -2015071.76486640      -52.68824979      -57.60077640
H       -9156.60468501       73.60026693     -658.36159195
H       -9159.61104879      -99.10020421      626.59519742
H        9160.47925166       80.61573761      635.30090465
H        9159.73772893      -81.18416462     -650.01569421
6
MD Time 2300.00
C     2023943.76868316       54.92172936       60.87960864
C    -2024444.19175859      -52.93331141      -57.86868699
H       -9199.19023410       73.94416517     -661.41998636
H       -9202.21058094      -99.56270682      629.50584115
H        9203.08282197       80.99226599      638.25204004
H        9202.33785031      -81.56333684     -653.03527047
6
MD Time 2310.00
C     2033313.87880186       55.17599662       61.16145868
C    -2033816.61865078      -53.17837304      -58.13659758
H       -9241.77578319       74.28806341     -664.47838075
H       -9244.81011310     -100.02520942      632.41648488
H        9245.68639229       81.36879436      641.20317541
H        9244.93797169      -81.94250906     -656.05484673
6
MD Time 2320.00
C     2042683.98892056       55.43026389       61.44330872
C    -2043189.04554298      -53.42343467      -58.40450817
H       -9284.36133228       74.63196166     -667.53677515
H       -9287.40964526     -100.48771202      635.32712860
H        9288.28996261       81.74532274      644.15431079
H        9287.53809307      -82.32168128     -659.07442299
6
MD Time 2330.00
C     2052054.09903925       55.68453115       61.72515876
C    -2052561.47243517      -53.66849630      -58.67241875
H       -9326.94688136       74.97585990     -670.59516954
H       -9330.00917741     -100.95021462      638.23777232
H        9330.89353293       82.12185111      647.10544616
H        9330.13821445      -82.70085350     -662.09399924
6
MD Time 2340.00
C     2061424.20915795       55.93879842       62.00700880
C    -2061933.89932736      -53.91355792      -58.94032934
H       -9369.53243045       75.31975814     -673.65356393
H       -9372.60870957     -101.41271722      641.14841603
H        9373.49710324       82.49837949      650.05658153
H        9372.73833583      -83.08002572     -665.11357549
6
MD Time 2350.00
C     2070794.31927664       56.19306569       62.28885884
C    -2071306.32621956      -54.15861955      -59.20823993
H       -9412.11797954       75.66365638     -676.71195831
H       -9415.20824173     -101.87521983      644.05905974
H        9416.10067356       82.87490786      653.00771689
H        9415.33845721      -83.45919794     -668.13315173
6
MD Time 2360.00
C     2080164.42939534       56.44733295       62.57070888
C    -2080678.75311175      -54.40368118      -59.47615052
H       -9454.70352863       76.00755462     -679.77035269
H       -9457.80777389     -102.33772243      646.96970345
H        9458.70424388       83.25143623      655.95885225
H        9457.93857859      -83.83837016     -671.15272798
6
MD Time 2370.00
C     2089534.53951404       56.70160022       62.85255892
C    -2090051.18000395      -54.64874280      -59.74406111
H       -9497.28907772       76.35145286     -682.82874707
H       -9500.40730604     -102.80022503      649.88034716
H        9501.30781420       83.62796460      658.90998761
H        9500.53869997      -84.21754238     -674.17230421
6
MD Time 2380.00
C     2098904.64963273       56.95586748       63.13440896
C    -2099423.60689614      -54.89380443      -60.01197169
H       -9539.87462681       76.69535110     -685.88714144
H       -9543.00683820     -103.26272762      652.79099086
H        9543.91138451       84.00449297      661.86112296
H        9543.13882135      -84.59671460     -677.19188045
6
MD Time 2390.00
C     2108274.75975143       57.21013475       63.41625900
C    -2108796.03378833      -55.13886606      -60.27988228
H       -9582.46017590       77.03924934     -688.94553581
H       -9585.60637036     -103.72523022      655.70163455
H        9586.51495483       84.38102135      664.81225831
H        9585.73894272      -84.97588681     -680.21145668
6
MD Time 2400.00
C     2117644.86987013       57.46440201       63.69810904
C    -2118168.46068053      -55.38392768      -60.54779287
H       -9625.04572499       77.38314758     -692.00393017
H       -9628.20590251     -104.18773282      658.61227824
H        9629.11852515       84.75754972      667.76339365
H        9628.33906410      -85.35505903     -683.23103291
6
MD Time 2410.00
C     2127014.97998882       57.71866928       63.97995908
C    -2127540.88757272      -55.62898931      -60.81570346
H       -9667.63127408       77.72704582     -695.06232453
H       -9670.80543467     -104.65023542      661.52292193
H        9671.72209546       85.13407809      670.71452900
H        9670.93918548      -85.73423125     -686.25060913
6
MD Time 2420.00
C     2136385.09010752       57.97293654       64.26180912
C    -2136913.31446491      -55.87405094      -61.08361405
H       -9710.21682317       78.07094406     -698.12071889
H       -9713.40496682     -105.11273802      664.43356562
H        9714.32566578       85.51060646      673.66566433
H        9713.53930686      -86.11340346     -689.27018535
6
MD Time 2430.00
C     2145755.20022621       58.22720381       64.54365916
C    -2146285.74135711      -56.11911256      -61.35152463
H       -9752.80237226       78.41484230     -701.17911325
H       -9756.00449898     -105.57524061      667.34420930
H        9756.92923610       85.88713483      676.61679967
H        9756.13942824      -86.49257568     -692.28976157
6
MD Time 2440.00
C     2155125.31034491       58.48147108       64.82550920
C    -2155658.16824930      -56.36417419      -61.61943522
H       -9795.38792135       78.75874053     -704.23750760
H       -9798.60403114     -106.03774321      670.25485298
H        9799.53280641       86.26366319      679.56793500
H        9798.73954962      -86.87174789     -695.30933778
6
MD Time 2450.00
C     2164495.42046361       58.73573834       65.10735924
C    -2165030.59514149      -56.60923582      -61.88734581
H       -9837.97347044       79.10263877     -707.29590194
H       -9841.20356329     -106.50024581      673.16549666
H        9842.13637673       86.64019156      682.51907033
H        9841.33967100      -87.25092011     -698.32891399
6
MD Time 2460.00
C     2173865.53058230       58.99000561       65.38920928
C    -2174403.02203369      -56.85429745      -62.15525640
H       -9880.55901952       79.44653701     -710.35429629
H       -9883.80309545     -106.96274840      676.07614033
H        9884.73994705       87.01671993      685.47020565
H        9883.93979238      -87.63009232     -701.34849019
6
MD Time 2470.00
C     2183235.64070100       59.24427287       65.67105932
C    -2183775.44892588      -57.09935907      -62.42316699
H       -9923.14456861       79.79043524     -713.41269063
H       -9926.40262761     -107.42525100      678.98678400
H        9927.34351736       87.39324830      688.42134097
H        9926.53991376      -88.00926454     -704.36806640
6
MD Time 2480.00
C     2192605.75081970       59.49854014       65.95290936
C    -2193147.87581807      -57.34442070      -62.69107757
H       -9965.73011770       80.13433348     -716.47108497
H       -9969.00215976     -107.88775359      681.89742766
H        9969.94708768       87.76977667      691.37247629
H        9969.14003513      -88.38843675     -707.38764260
6
MD Time 2490.00
C     2201975.86093839       59.75280740       66.23475940
C    -2202520.30271027      -57.58948233      -62.95898816
H      -10008.31566679       80.47823171     -719.52947930
H      -10011.60169192     -108.35025619      684.80807133
H       10012.55065800       88.14630503      694.32361161
H       10011.74015651      -88.76760897     -710.40721879
6
MD Time 2500.00
C     2211345.97105709       60.00707467       66.51660944
C    -2211892.72960246      -57.83454395      -63.22689875
H      -10050.90121588       80.82212995     -722.58787363
H      -10054.20122407     -108.81275878      687.71871499
H       10055.15422831       88.52283340      697.27474692
H       10054.34027789      -89.14678118     -713.42679499
6
MD Time 2510.00
C     2220716.08117578       60.26134193       66.79845948
C    -2221265.15649465      -58.07960558      -63.49480934
H      -10093.48676497       81.16602818     -725.64626796
H      -10096.80075623     -109.27526138      690.62935864
H       10097.75779863       88.89936176      700.22588223
H       10096.94039927      -89.52595339     -716.44637118
6
MD Time 2520.00
C     2230086.19129448       60.51560920       67.08030952
C    -2230637.58338685      -58.32466721      -63.76271992
H      -10136.07231406       81.50992642     -728.70466229
H      -10139.40028839     -109.73776397      693.54000229
H       10140.36136895       89.27589013      703.17701753
H       10139.54052065      -89.90512560     -719.46594736
6
MD Time 2530.00
C     2239456.30141318       60.76987647       67.36215956
C    -2240010.01027904      -58.56972883      -64.03063051
H      -10178.65786315       81.85382465     -731.76305661
H      -10181.99982054     -110.20026656      696.45064594
H       10182.96493926       89.65241850      706.12815283
H       10182.14064203      -90.28429781     -722.48552355
6
MD Time 2540.00
C     2248826.41153187       61.02414373       67.64400960
C    -2249382.43717124      -58.81479046      -64.29854110
H      -10221.24341224       82.19772288     -734.82145093
H      -10224.59935270     -110.66276915      699.36128959
H       10225.56850958       90.02894686      709.07928813
H       10224.74076341      -90.66347003     -725.50509973
6
MD Time 2550.00
C     2258196.52165057       61.27841100       67.92585964
C    -2258754.86406343      -59.05985209      -64.56645169
H      -10263.82896132       82.54162111     -737.87984524
H      -10267.19888486     -111.12527174      702.27193323
H       10268.17207990       90.40547522      712.03042343
H       10267.34088478      -91.04264224     -728.52467590
6
MD Time 2560.00
C     2267566.63176927       61.53267826       68.20770968
C    -2268127.29095562      -59.30491371      -64.83436228
H      -10306.41451041       82.88551935     -740.93823955
H      -10309.79841701     -111.58777434      705.18257687
H       10310.77565021       90.78200359      714.98155872
H       10309.94100616      -91.42181445     -731.54425208
6
MD Time 2570.00
C     2276936.74188796       61.78694553       68.48955972
C    -2277499.71784782      -59.54997534      -65.10227286
H      -10349.00005950       83.22941758     -743.99663386
H      -10352.39794917     -112.05027693      708.09322051
H       10353.37922053       91.15853195      717.93269401
H       10352.54112754      -91.80098666     -734.56382825
6
MD Time 2580.00
C     2286306.85200666       62.04121279       68.77140976
C    -2286872.14474001      -59.79503697      -65.37018345
H      -10391.58560859       83.57331581     -747.05502817
H      -10394.99748132     -112.51277952      711.00386414
H       10395.98279085       91.53506032      720.88382930
H       10395.14124892      -92.18015887     -737.58340442
6
MD Time 2590.00
C     2295676.96212536       62.29548006       69.05325980
C    -2296244.57163220      -60.04009860      -65.63809404
H      -10434.17115768       83.91721404     -750.11342247
H      -10437.59701348     -112.97528211      713.91450777
H       10438.58636116       91.91158868      723.83496458
H       10437.74137030      -92.55933108     -740.60298058
6
MD Time 2600.00
C     2305047.07224405       62.54974732       69.33510984
C    -2305616.99852440      -60.28516022      -65.90600463
H      -10476.75670677       84.26111227     -753.17181677
H      -10480.19654563     -113.43778470      716.82515140
H       10481.18993148       92.28811704      726.78609986
H       10480.34149168      -92.93850329     -743.62255674
6
MD Time 2610.00
C     2314417.18236275       62.80401459       69.61695988
C    -2314989.42541659      -60.53022185      -66.17391522
H      -10519.34225586       84.60501050     -756.23021107
H      -10522.79607779     -113.90028729      719.73579503
H       10523.79350179       92.66464540      729.73723514
H       10522.94161306      -93.31767549     -746.64213290
6
MD Time 2620.00
C     2323787.29248145       63.05828186       69.89880992
C    -2324361.85230878      -60.77528348      -66.44182580
H      -10561.92780495       84.94890873     -759.28860536
H      -10565.39560995     -114.36278988      722.64643865
H       10566.39707211       93.04117376      732.68837041
H       10565.54173443      -93.69684770     -749.66170906
6
MD Time 2630.00
C     2333157.40260014       63.31254912       70.18065996
C    -2333734.27920098      -61.02034510      -66.70973639
H      -10604.51335403       85.29280696     -762.34699965
H      -10607.99514210     -114.82529246      725.55708227
H       10609.00064243       93.41770213      735.63950568
H       10608.14185581      -94.07601991     -752.68128521
6
MD Time 2640.00
C     2342527.51271884       63.56681639       70.46251000
C    -2343106.70609317      -61.26540673      -66.97764698
H      -10647.09890312       85.63670519     -765.40539394
H      -10650.59467426     -115.28779505      728.46772588
H       10651.60421274       93.79423049      738.59064095
H       10650.74197719      -94.45519212     -755.70086136
6
MD Time 2650.00
C     2351897.62283753       63.82108365       70.74436004
C    -2352479.13298536      -61.51046836      -67.24555757
H      -10689.68445221       85.98060342     -768.46378823
H      -10693.19420641     -115.75029764      731.37836950
H       10694.20778306       94.17075885      741.54177622
H       10693.34209857      -94.83436433     -758.72043751
6
MD Time 2660.00
C     2361267.73295623       64.07535092       71.02621008
C    -2361851.55987756      -61.75552998      -67.51346816
H      -10732.27000130       86.32450164     -771.52218251
H      -10735.79373857     -116.21280023      734.28901311
H       10736.81135338       94.54728721      744.49291148
H       10735.94221995      -95.21353653     -761.74001365
6
MD Time 2670.00
C     2370637.84307493       64.32961818       71.30806012
C    -2371223.98676975      -62.00059161      -67.78137874
H      -10774.85555039       86.66839987     -774.58057679
H      -10778.39327072     -116.67530281      737.19965672
H       10779.41492369       94.92381557      747.44404674
H       10778.54234132      -95.59270874     -764.75958980
6
MD Time 2680.00
C     2380007.95319362       64.58388545       71.58991016
C    -2380596.41366194      -62.24565324      -68.04928933
H      -10817.44109948       87.01229810     -777.63897107
H      -10820.99280288     -117.13780540      740.11030032
H       10822.01849401       95.30034393      750.39518200
H       10821.14246270      -95.97188094     -767.77916593
6
MD Time 2690.00
C     2389378.06331232       64.83815271       71.87176020
C    -2389968.84055414      -62.49071486      -68.31719992
H      -10860.02664857       87.35619633     -780.69736534
H      -10863.59233503     -117.60030799      743.02094392
H       10864.62206432       95.67687229      753.34631725
H       10863.74258408      -96.35105315     -770.79874207
6
MD Time 2700.00
C     2398748.17343102       65.09241998       72.15361024
C    -2399341.26744633      -62.73577649      -68.58511051
H      -10902.61219765       87.70009455     -783.75575961
H      -10906.19186719     -118.06281057      745.93158752
H       10907.22563464       96.05340064      756.29745250
H       10906.34270546      -96.73022536     -773.81831820
6
MD Time 2710.00
C     2408118.28354971       65.34668725       72.43546028
C    -2408713.69433853      -62.98083812      -68.85302110
H      -10945.19774674       88.04399278     -786.81415388
H      -10948.79139934     -118.52531316      748.84223112
H       10949.82920496       96.42992900      759.24858775
H       10948.94282684      -97.10939756     -776.83789433
6
MD Time 2720.00
C     2417488.39366841       65.60095451       72.71731032
C    -2418086.12123072      -63.22589975      -69.12093168
H      -10987.78329583       88.38789100     -789.87254815
H      -10991.39093150     -118.98781574      751.75287471
H       10992.43277527       96.80645736      762.19972300
H       10991.54294822      -97.48856977     -779.85747046
6
MD Time 2730.00
C     2426858.50378711       65.85522178       72.99916036
C    -2427458.54812291      -63.47096137      -69.38884227
H      -11030.36884492       88.73178923     -792.93094241
H      -11033.99046366     -119.45031833      754.66351830
H       11035.03634559       97.18298572      765.15085824
H       11034.14306959      -97.86774197     -782.87704659
6
MD Time 2740.00
C     2436228.61390580       66.10948904       73.28101040
C    -2436830.97501511      -63.71602300      -69.65675286
H      -11072.95439401       89.07568745     -795.98933667
H      -11076.58999581     -119.91282091      757.57416189
H       11077.63991590       97.55951408      768.10199348
H       11076.74319097      -98.24691417     -785.89662271
6
MD Time 2750.00
C     2445598.72402450       66.36375631       73.56286044
C    -2446203.40190730      -63.96108463      -69.92466345
H      -11115.53994310       89.41958568     -799.04773093
H      -11119.18952797     -120.37532350      760.48480548
H       11120.24348622       97.93604243      771.05312872
H       11119.34331235      -98.62608638     -788.91619883
6
MD Time 2760.00
C     2454968.83414320       66.61802357       73.84471048
C    -2455575.82879949      -64.20614625      -70.19257403
H      -11158.12549218       89.76348390     -802.10612519
H      -11161.78906012     -120.83782608      763.39544906
H       11162.84705653       98.31257079      774.00426395
H       11161.94343373      -99.00525858     -791.93577495
6
MD Time 2770.00
C     2464338.94426189       66.87229084       74.12656052
C    -2464948.25569169      -64.45120788      -70.46048462
H      -11200.71104127       90.10738213     -805.16451944
H      -11204.38859228     -121.30032866      766.30609264
H       11205.45062685       98.68909915      776.95539919
H       11204.54355511      -99.38443078     -794.95535106
6
MD Time 2780.00
C     2473709.05438059       67.12655810       74.40841056
C    -2474320.68258388      -64.69626951      -70.72839521
H      -11243.29659036       90.45128035     -808.22291369
H      -11246.98812443     -121.76283125      769.21673622
H       11248.05419717       99.06562750      779.90653442
H       11247.14367648      -99.76360299     -797.97492717
6
MD Time 2790.00
C     2483079.16449928       67.38082537       74.69026060
C    -2483693.10947607      -64.94133113      -70.99630580
H      -11285.88213945       90.79517857     -811.28130794
H      -11289.58765659     -122.22533383      772.12737979
H       11290.65776748       99.44215586      782.85766964
H       11289.74379786     -100.14277519     -800.99450328
6
MD Time 2800.00
C     2492449.27461798       67.63509264       74.97211064
C    -2493065.53636827      -65.18639276      -71.26421639
H      -11328.46768854       91.13907680     -814.33970218
H      -11332.18718874     -122.68783641      775.03802337
H       11333.26133780       99.81868421      785.80880487
H       11332.34391924     -100.52194739     -804.01407939
6
MD Time 2810.00
C     2501819.38473668       67.88935990       75.25396068
C    -2502437.96326046      -65.43145439      -71.53212697
H      -11371.05323763       91.48297502     -817.39809642
H      -11374.78672090     -123.15033899      777.94866694
H       11375.86490811      100.19521257      788.75994009
H       11374.94404062     -100.90111959     -807.03365549
6
MD Time 2820.00
C     2511189.49485537       68.14362717       75.53581072
C    -2511810.39015265      -65.67651601      -71.80003756
H      -11413.63878671       91.82687324     -820.45649066
H      -11417.38625305     -123.61284158      780.85931050
H       11418.46847843      100.57174092      791.71107531
H       11417.54416199     -101.28029179     -810.05323159
6
MD Time 2830.00
C     2520559.60497407       68.39789443       75.81766076
C    -2521182.81704485      -65.92157764      -72.06794815
H      -11456.22433580       92.17077146     -823.51488490
H      -11459.98578521     -124.07534416      783.76995407
H       11461.07204874      100.94826928      794.66221053
H       11460.14428337     -101.65946400     -813.07280769
6
MD Time 2840.00
C     2529929.71509277       68.65216170       76.09951080
C    -2530555.24393704      -66.16663927      -72.33585874
H      -11498.80988489       92.51466968     -826.57327914
H      -11502.58531736     -124.53784674      786.68059763
H       11503.67561906      101.32479763      797.61334574
H       11502.74440475     -102.03863620     -816.09238379
6
MD Time 2850.00
C     2539299.82521146       68.90642896       76.38136084
C    -2539927.67082924      -66.41170090      -72.60376933
H      -11541.39543398       92.85856791     -829.63167337
H      -11545.18484952     -125.00034932      789.59124119
H       11546.27918938      101.70132599      800.56448096
H       11545.34452613     -102.41780840     -819.11195988
6
MD Time 2860.00
C     2548669.93533016       69.16069623       76.66321088
C    -2549300.09772143      -66.65676252      -72.87167991
H      -11583.98098307       93.20246613     -832.69006760
H      -11587.78438167     -125.46285190      792.50188475
H       11588.88275969      102.07785434      803.51561617
H       11587.94464751     -102.79698060     -822.13153598
6
MD Time 2870.00
C     2558040.04544886       69.41496349       76.94506092
C    -2558672.52461362      -66.90182415      -73.13959050
H      -11626.56653216       93.54636435     -835.74846183
H      -11630.38391383     -125.92535448      795.41252831
H       11631.48633001      102.45438269      806.46675137
H       11630.54476888     -103.17615280     -825.15111206
6
MD Time 2880.00
C     2567410.15556755       69.66923076       77.22691096
C    -2568044.95150582      -67.14688578      -73.40750109
H      -11669.15208124       93.89026257     -838.80685605
H      -11672.98344598     -126.38785706      798.32317186
H       11674.08990032      102.83091105      809.41788658
H       11673.14489026     -103.55532500     -828.17068815
6
MD Time 2890.00
C     2576780.26568625       69.92349803       77.50876100
C    -2577417.37839801      -67.39194740      -73.67541168
H      -11711.73763033       94.23416079     -841.86525027
H      -11715.58297814     -126.85035964      801.23381541
H       11716.69347064      103.20743940      812.36902178
H       11715.74501164     -103.93449720     -831.19026424
6
MD Time 2900.00
C     2586150.37580495       70.17776529       77.79061104
C    -2586789.80529020      -67.63700903      -73.94332227
H      -11754.32317942       94.57805901     -844.92364449
H      -11758.18251029     -127.31286222      804.14445896
H       11759.29704095      103.58396775      815.32015698
H       11758.34513302     -104.31366939     -834.20984032
6
MD Time 2910.00
C     2595520.48592364       70.43203256       78.07246108
C    -2596162.23218240      -67.88207066      -74.21123285
H      -11796.90872851       94.92195723     -847.98203871
H      -11800.78204245     -127.77536480      807.05510250
H       11801.90061127      103.96049610      818.27129218
H       11800.94525439     -104.69284159     -837.22941640
6
MD Time 2920.00
C     2604890.59604234       70.68629982       78.35431112
C    -2605534.65907459      -68.12713228      -74.47914344
H      -11839.49427760       95.26585545     -851.04043293
H      -11843.38157460     -128.23786737      809.96574605
H       11844.50418158      104.33702445      821.22242737
H       11843.54537577     -105.07201379     -840.24899247
6
MD Time 2930.00
C     2614260.70616104       70.94056709       78.63616116
C    -2614907.08596678      -68.37219391      -74.74705403
H      -11882.07982668       95.60975366     -854.09882714
H      -11885.98110675     -128.70036995      812.87638959
H       11887.10775190      104.71355281      824.17356257
H       11886.14549715     -105.45118599     -843.26856855
6
MD Time 2940.00
C     2623630.81627973       71.19483435       78.91801120
C    -2624279.51285898      -68.61725554      -75.01496462
H      -11924.66537577       95.95365188     -857.15722135
H      -11928.58063891     -129.16287253      815.78703313
H       11929.71132221      105.09008116      827.12469776
H       11928.74561853     -105.83035819     -846.28814462
6
MD Time 2950.00
C     2633000.92639843       71.44910162       79.19986124
C    -2633651.93975117      -68.86231716      -75.28287521
H      -11967.25092486       96.29755010     -860.21561556
H      -11971.18017106     -129.62537511      818.69767666
H       11972.31489253      105.46660951      830.07583295
H       11971.34573990     -106.20953038     -849.30772069
6
MD Time 2960.00
C     2642371.03651712       71.70336888       79.48171128
C    -2643024.36664336      -69.10737879      -75.55078579
H      -12009.83647395       96.64144832     -863.27400977
H      -12013.77970322     -130.08787768      821.60832020
H       12014.91846284      105.84313786      833.02696813
H       12013.94586128     -106.58870258     -852.32729676
6
MD Time 2970.00
C     2651741.14663582       71.95763615       79.76356132
C    -2652396.79353556      -69.35244042      -75.81869638
H      -12052.42202304       96.98534654     -866.33240397
H      -12056.37923537     -130.55038026      824.51896373
H       12057.52203316      106.21966621      835.97810332
H       12056.54598266     -106.96787478     -855.34687283
6
MD Time 2980.00
C     2661111.25675452       72.21190342       80.04541136
C    -2661769.22042775      -69.59750205      -76.08660697
H      -12095.00757212       97.32924475     -869.39079817
H      -12098.97876753     -131.01288284      827.42960726
H       12100.12560348      106.59619456      838.92923850
H       12099.14610404     -107.34704697     -858.36644889
6
MD Time 2990.00
C     2670481.36687321       72.46617068       80.32726140
C    -2671141.64731994      -69.84256367      -76.35451756
H      -12137.59312121       97.67314297     -872.44919237
H      -12141.57829968     -131.47538541      830.34025079
H       12142.72917379      106.97272291      841.88037368
H       12141.74622541     -107.72621917     -861.38602495
