6
MD Time 0.00
C          -1.00424993        0.00000000        0.00000000
C           1.00424993        0.00000000        0.00000000
H          -1.57974221        0.85087473        0.35244385
H          -1.57974221       -0.85087473       -0.35244385
H           1.57974221        0.85087473       -0.35244385
H           1.57974221       -0.85087473        0.35244385
6
MD Time 10.00
C          -1.00412325        0.00000000       -0.00000000
C           1.00412325       -0.00000000       -0.00000000
H          -1.57959760        0.85104865        0.35240254
H          -1.57959760       -0.85104865       -0.35240254
H           1.57959760        0.85104865       -0.35240254
H           1.57959760       -0.85104865        0.35240254
6
MD Time 20.00
C          -1.00374345        0.00000000       -0.00000000
C           1.00374345       -0.00000000       -0.00000000
H          -1.57916180        0.85156629        0.35227744
H          -1.57916180       -0.85156629       -0.35227744
H           1.57916180        0.85156629       -0.35227744
H           1.57916180       -0.85156629        0.35227744
6
MD Time 30.00
C          -1.00311128        0.00000000       -0.00000000
C           1.00311128       -0.00000000       -0.00000000
H          -1.57842897        0.85241543        0.35206510
H          -1.57842897       -0.85241543       -0.35206510
H           1.57842897        0.85241543       -0.35206510
H           1.57842897       -0.85241543        0.35206510
6
MD Time 40.00
C          -1.00222790        0.00000000       -0.00000000
C           1.00222790       -0.00000000       -0.00000000
H          -1.57738971        0.85357625        0.35176002
H          -1.57738971       -0.85357625       -0.35176002
H           1.57738971        0.85357625       -0.35176002
H           1.57738971       -0.85357625        0.35176002
6
MD Time 50.00
C          -1.00109482        0.00000000       -0.00000000
C           1.00109482       -0.00000000       -0.00000000
H          -1.57603157        0.85502209        0.35135489
H          -1.57603157       -0.85502209       -0.35135489
H           1.57603157        0.85502209       -0.35135489
H           1.57603157       -0.85502209        0.35135489
6
MD Time 60.00
C          -0.99971380        0.00000000       -0.00000000
C           0.99971380       -0.00000000       -0.00000000
H          -1.57433968        0.85672050        0.35084108
H          -1.57433968       -0.85672050       -0.35084108
H           1.57433968        0.85672050       -0.35084108
H           1.57433968       -0.85672050        0.35084108
6
MD Time 70.00
C          -0.99808673        0.00000000       -0.00000000
C           0.99808673       -0.00000000       -0.00000000
H          -1.57229757        0.85863446        0.35020904
H          -1.57229757       -0.85863446       -0.35020904
H           1.57229757        0.85863446       -0.35020904
H           1.57229757       -0.85863446        0.35020904
6
MD Time 80.00
C          -0.99621544        0.00000000       -0.00000000
C           0.99621544       -0.00000000       -0.00000000
H          -1.56988795        0.86072373        0.34944888
H          -1.56988795       -0.86072373       -0.34944888
H           1.56988795        0.86072373       -0.34944888
H           1.56988795       -0.86072373        0.34944888
6
MD Time 90.00
C          -0.99410163        0.00000000       -0.00000000
C           0.99410163       -0.00000000       -0.00000000
H          -1.56709365        0.86294634        0.34855092
H          -1.56709365       -0.86294634       -0.34855092
H           1.56709365        0.86294634       -0.34855092
H           1.56709365       -0.86294634        0.34855092
6
MD Time 100.00
C          -0.99174665        0.00000000       -0.00000000
C           0.99174665       -0.00000000       -0.00000000
H          -1.56389849        0.86525999        0.34750616
H          -1.56389849       -0.86525999       -0.34750616
H           1.56389849        0.86525999       -0.34750616
H           1.56389849       -0.86525999        0.34750616
6
MD Time 110.00
C          -0.98915142        0.00000000       -0.00000000
C           0.98915142       -0.00000000       -0.00000000
H          -1.56028809        0.86762353        0.34630689
H          -1.56028809       -0.86762353       -0.34630689
H           1.56028809        0.86762353       -0.34630689
H           1.56028809       -0.86762353        0.34630689
6
MD Time 120.00
C          -0.98631628        0.00000000       -0.00000000
C           0.98631628       -0.00000000       -0.00000000
H          -1.55625067        0.86999823        0.34494707
H          -1.55625067       -0.86999823       -0.34494707
H           1.55625067        0.86999823       -0.34494707
H           1.55625067       -0.86999823        0.34494707
6
MD Time 130.00
C          -0.98324088        0.00000000       -0.00000000
C           0.98324088       -0.00000000       -0.00000000
H          -1.55177769        0.87234899        0.34342274
H          -1.55177769       -0.87234899       -0.34342274
H           1.55177769        0.87234899       -0.34342274
H           1.55177769       -0.87234899        0.34342274
6
MD Time 140.00
C          -0.97992411        0.00000000       -0.00000000
C           0.97992411       -0.00000000       -0.00000000
H          -1.54686435        0.87464534        0.34173233
H          -1.54686435       -0.87464534       -0.34173233
H           1.54686435        0.87464534       -0.34173233
H           1.54686435       -0.87464534        0.34173233
6
MD Time 150.00
C          -0.97636405        0.00000000       -0.00000000
C           0.97636405       -0.00000000       -0.00000000
H          -1.54151001        0.87686227        0.33987689
H          -1.54151001       -0.87686227       -0.33987689
H           1.54151001        0.87686227       -0.33987689
H           1.54151001       -0.87686227        0.33987689
6
MD Time 160.00
C          -0.97255791        0.00000000       -0.00000000
C           0.97255791       -0.00000000       -0.00000000
H          -1.53571842        0.87898082        0.33786014
H          -1.53571842       -0.87898082       -0.33786014
H           1.53571842        0.87898082       -0.33786014
H           1.53571842       -0.87898082        0.33786014
6
MD Time 170.00
C          -0.96850204        0.00000000       -0.00000000
C           0.96850204       -0.00000000       -0.00000000
H          -1.52949776        0.88098845        0.33568856
H          -1.52949776       -0.88098845       -0.33568856
H           1.52949776        0.88098845       -0.33568856
H           1.52949776       -0.88098845        0.33568856
6
MD Time 180.00
C          -0.96419197        0.00000000       -0.00000000
C           0.96419197       -0.00000000       -0.00000000
H          -1.52286060        0.88287914        0.33337128
H          -1.52286060       -0.88287914       -0.33337128
H           1.52286060        0.88287914       -0.33337128
H           1.52286060       -0.88287914        0.33337128
6
MD Time 190.00
C          -0.95962243        0.00000000       -0.00000000
C           0.95962243       -0.00000000       -0.00000000
H          -1.51582364        0.88465332        0.33091987
H          -1.51582364       -0.88465332       -0.33091987
H           1.51582364        0.88465332       -0.33091987
H           1.51582364       -0.88465332        0.33091987
6
MD Time 200.00
C          -0.95478745        0.00000000       -0.00000000
C           0.95478745       -0.00000000       -0.00000000
H          -1.50840734        0.88631747        0.32834811
H          -1.50840734       -0.88631747       -0.32834811
H           1.50840734        0.88631747       -0.32834811
H           1.50840734       -0.88631747        0.32834811
6
MD Time 210.00
C          -0.94968048        0.00000000       -0.00000000
C           0.94968048       -0.00000000       -0.00000000
H          -1.50063536        0.88788357        0.32567159
H          -1.50063536       -0.88788357       -0.32567159
H           1.50063536        0.88788357       -0.32567159
H           1.50063536       -0.88788357        0.32567159
6
MD Time 220.00
C          -0.94429447        0.00000000       -0.00000000
C           0.94429447       -0.00000000       -0.00000000
H          -1.49253398        0.88936832        0.32290730
H          -1.49253398       -0.88936832       -0.32290730
H           1.49253398        0.88936832       -0.32290730
H           1.49253398       -0.88936832        0.32290730
6
MD Time 230.00
C          -0.93862209        0.00000000       -0.00000000
C           0.93862209       -0.00000000       -0.00000000
H          -1.48413131        0.89079213        0.32007313
H          -1.48413131       -0.89079213       -0.32007313
H           1.48413131        0.89079213       -0.32007313
H           1.48413131       -0.89079213        0.32007313
6
MD Time 240.00
C          -0.93265585        0.00000000       -0.00000000
C           0.93265585       -0.00000000       -0.00000000
H          -1.47545652        0.89217798        0.31718731
H          -1.47545652       -0.89217798       -0.31718731
H           1.47545652        0.89217798       -0.31718731
H           1.47545652       -0.89217798        0.31718731
6
MD Time 250.00
C          -0.92638834        0.00000000       -0.00000000
C           0.92638834       -0.00000000       -0.00000000
H          -1.46653890        0.89355021        0.31426785
H          -1.46653890       -0.89355021       -0.31426785
H           1.46653890        0.89355021       -0.31426785
H           1.46653890       -0.89355021        0.31426785
6
MD Time 260.00
C          -0.91981238        0.00000000       -0.00000000
C           0.91981238       -0.00000000       -0.00000000
H          -1.45740707        0.89493316        0.31133194
H          -1.45740707       -0.89493316       -0.31133194
H           1.45740707        0.89493316       -0.31133194
H           1.45740707       -0.89493316        0.31133194
6
MD Time 270.00
C          -0.91292131        0.00000000       -0.00000000
C           0.91292131       -0.00000000       -0.00000000
H          -1.44808806        0.89634983        0.30839539
H          -1.44808806       -0.89634983       -0.30839539
H           1.44808806        0.89634983       -0.30839539
H           1.44808806       -0.89634983        0.30839539
6
MD Time 280.00
C          -0.90570915        0.00000000       -0.00000000
C           0.90570915       -0.00000000       -0.00000000
H          -1.43860649        0.89782060        0.30547208
H          -1.43860649       -0.89782060       -0.30547208
H           1.43860649        0.89782060       -0.30547208
H           1.43860649       -0.89782060        0.30547208
6
MD Time 290.00
C          -0.89817084        0.00000000       -0.00000000
C           0.89817084       -0.00000000       -0.00000000
H          -1.42898393        0.89936202        0.30257344
H          -1.42898393       -0.89936202       -0.30257344
H           1.42898393        0.89936202       -0.30257344
H           1.42898393       -0.89936202        0.30257344
6
MD Time 300.00
C          -0.89030248        0.00000000       -0.00000000
C           0.89030248       -0.00000000       -0.00000000
H          -1.41923823        0.90098582        0.29970809
H          -1.41923823       -0.90098582       -0.29970809
H           1.41923823        0.90098582       -0.29970809
H           1.41923823       -0.90098582        0.29970809
6
MD Time 310.00
C          -0.88210154        0.00000000       -0.00000000
C           0.88210154       -0.00000000       -0.00000000
H          -1.40938318        0.90269806        0.29688145
H          -1.40938318       -0.90269806       -0.29688145
H           1.40938318        0.90269806       -0.29688145
H           1.40938318       -0.90269806        0.29688145
6
MD Time 320.00
C          -0.87356708        0.00000000       -0.00000000
C           0.87356708       -0.00000000       -0.00000000
H          -1.39942817        0.90449862        0.29409555
H          -1.39942817       -0.90449862       -0.29409555
H           1.39942817        0.90449862       -0.29409555
H           1.39942817       -0.90449862        0.29409555
6
MD Time 330.00
C          -0.86469992        0.00000000       -0.00000000
C           0.86469992       -0.00000000       -0.00000000
H          -1.38937822        0.90638095        0.29134888
H          -1.38937822       -0.90638095       -0.29134888
H           1.38937822        0.90638095       -0.29134888
H           1.38937822       -0.90638095        0.29134888
6
MD Time 340.00
C          -0.85550287        0.00000000       -0.00000000
C           0.85550287       -0.00000000       -0.00000000
H          -1.37923409        0.90833211        0.28863636
H          -1.37923409       -0.90833211       -0.28863636
H           1.37923409        0.90833211       -0.28863636
H           1.37923409       -0.90833211        0.28863636
6
MD Time 350.00
C          -0.84598087        0.00000000       -0.00000000
C           0.84598087       -0.00000000       -0.00000000
H          -1.36899263        0.91033316        0.28594942
H          -1.36899263       -0.91033316       -0.28594942
H           1.36899263        0.91033316       -0.28594942
H           1.36899263       -0.91033316        0.28594942
6
MD Time 360.00
C          -0.83614116        0.00000000       -0.00000000
C           0.83614116       -0.00000000       -0.00000000
H          -1.35864734        0.91235979        0.28327610
H          -1.35864734       -0.91235979       -0.28327610
H           1.35864734        0.91235979       -0.28327610
H           1.35864734       -0.91235979        0.28327610
6
MD Time 370.00
C          -0.82599344        0.00000000       -0.00000000
C           0.82599344       -0.00000000       -0.00000000
H          -1.34818904        0.91438323        0.28060129
H          -1.34818904       -0.91438323       -0.28060129
H           1.34818904        0.91438323       -0.28060129
H           1.34818904       -0.91438323        0.28060129
6
MD Time 380.00
C          -0.81554990        0.00000000       -0.00000000
C           0.81554990       -0.00000000       -0.00000000
H          -1.33760672        0.91637133        0.27790696
H          -1.33760672       -0.91637133       -0.27790696
H           1.33760672        0.91637133       -0.27790696
H           1.33760672       -0.91637133        0.27790696
6
MD Time 390.00
C          -0.80482538        0.00000000       -0.00000000
C           0.80482538       -0.00000000       -0.00000000
H          -1.32688848        0.91828982        0.27517237
H          -1.32688848       -0.91828982       -0.27517237
H           1.32688848        0.91828982       -0.27517237
H           1.32688848       -0.91828982        0.27517237
6
MD Time 400.00
C          -0.79383729        0.00000000       -0.00000000
C           0.79383729       -0.00000000       -0.00000000
H          -1.31602256        0.92010362        0.27237433
H          -1.31602256       -0.92010362       -0.27237433
H           1.31602256        0.92010362       -0.27237433
H           1.31602256       -0.92010362        0.27237433
6
MD Time 410.00
C          -0.78260565        0.00000000       -0.00000000
C           0.78260565       -0.00000000       -0.00000000
H          -1.30499836        0.92177827        0.26948741
H          -1.30499836       -0.92177827       -0.26948741
H           1.30499836        0.92177827       -0.26948741
H           1.30499836       -0.92177827        0.26948741
6
MD Time 420.00
C          -0.77115287        0.00000000       -0.00000000
C           0.77115287       -0.00000000       -0.00000000
H          -1.29380751        0.92328118        0.26648405
H          -1.29380751       -0.92328118       -0.26648405
H           1.29380751        0.92328118       -0.26648405
H           1.29380751       -0.92328118        0.26648405
6
MD Time 430.00
C          -0.75950361        0.00000000       -0.00000000
C           0.75950361       -0.00000000       -0.00000000
H          -1.28244492        0.92458297        0.26333468
H          -1.28244492       -0.92458297       -0.26333468
H           1.28244492        0.92458297       -0.26333468
H           1.28244492       -0.92458297        0.26333468
6
MD Time 440.00
C          -0.74768437        0.00000000       -0.00000000
C           0.74768437       -0.00000000       -0.00000000
H          -1.27090973        0.92565863        0.26000769
H          -1.27090973       -0.92565863       -0.26000769
H           1.27090973        0.92565863       -0.26000769
H           1.27090973       -0.92565863        0.26000769
6
MD Time 450.00
C          -0.73572313        0.00000000       -0.00000000
C           0.73572313       -0.00000000       -0.00000000
H          -1.25920621        0.92648854        0.25646943
H          -1.25920621       -0.92648854       -0.25646943
H           1.25920621        0.92648854       -0.25646943
H           1.25920621       -0.92648854        0.25646943
6
MD Time 460.00
C          -0.72364876        0.00000000       -0.00000000
C           0.72364876       -0.00000000       -0.00000000
H          -1.24734457        0.92705935        0.25268404
H          -1.24734457       -0.92705935       -0.25268404
H           1.24734457        0.92705935       -0.25268404
H           1.24734457       -0.92705935        0.25268404
6
MD Time 470.00
C          -0.71149045        0.00000000       -0.00000000
C           0.71149045       -0.00000000       -0.00000000
H          -1.23534155        0.92736466        0.24861339
H          -1.23534155       -0.92736466       -0.24861339
H           1.23534155        0.92736466       -0.24861339
H           1.23534155       -0.92736466        0.24861339
6
MD Time 480.00
C          -0.69927712        0.00000000       -0.00000000
C           0.69927712       -0.00000000       -0.00000000
H          -1.22322099        0.92740554        0.24421691
H          -1.22322099       -0.92740554       -0.24421691
H           1.22322099        0.92740554       -0.24421691
H           1.22322099       -0.92740554        0.24421691
6
MD Time 490.00
C          -0.68703687        0.00000000       -0.00000000
C           0.68703687       -0.00000000       -0.00000000
H          -1.21101410        0.92719088        0.23945159
H          -1.21101410       -0.92719088       -0.23945159
H           1.21101410        0.92719088       -0.23945159
H           1.21101410       -0.92719088        0.23945159
6
MD Time 500.00
C          -0.67479668        0.00000000       -0.00000000
C           0.67479668       -0.00000000       -0.00000000
H          -1.19875960        0.92673746        0.23427206
H          -1.19875960       -0.92673746       -0.23427206
H           1.19875960        0.92673746       -0.23427206
H           1.19875960       -0.92673746        0.23427206
6
MD Time 510.00
C          -0.66258249        0.00000000       -0.00000000
C           0.66258249       -0.00000000       -0.00000000
H          -1.18650361        0.92606994        0.22863090
H          -1.18650361       -0.92606994       -0.22863090
H           1.18650361        0.92606994       -0.22863090
H           1.18650361       -0.92606994        0.22863090
6
MD Time 520.00
C          -0.65041976        0.00000000       -0.00000000
C           0.65041976       -0.00000000       -0.00000000
H          -1.17429929        0.92522051        0.22247918
H          -1.17429929       -0.92522051       -0.22247918
H           1.17429929        0.92522051       -0.22247918
H           1.17429929       -0.92522051        0.22247918
6
MD Time 530.00
C          -0.63833480        0.00000000       -0.00000000
C           0.63833480       -0.00000000       -0.00000000
H          -1.16220630        0.92422842        0.21576736
H          -1.16220630       -0.92422842       -0.21576736
H           1.16220630        0.92422842       -0.21576736
H           1.16220630       -0.92422842        0.21576736
6
MD Time 540.00
C          -0.62635691        0.00000000       -0.00000000
C           0.62635691       -0.00000000       -0.00000000
H          -1.15028989        0.92313918        0.20844643
H          -1.15028989       -0.92313918       -0.20844643
H           1.15028989        0.92313918       -0.20844643
H           1.15028989       -0.92313918        0.20844643
6
MD Time 550.00
C          -0.61452149       -0.00000000       -0.00000000
C           0.61452149       -0.00000000       -0.00000000
H          -1.13861986        0.92200351        0.20046944
H          -1.13861986       -0.92200351       -0.20046944
H           1.13861986        0.92200351       -0.20046944
H           1.13861986       -0.92200351        0.20046944
6
MD Time 560.00
C          -0.60287380       -0.00000000       -0.00000000
C           0.60287380        0.00000000       -0.00000000
H          -1.12726921        0.92087602        0.19179318
H          -1.12726921       -0.92087602       -0.19179318
H           1.12726921        0.92087602       -0.19179318
H           1.12726921       -0.92087602        0.19179318
6
MD Time 570.00
C          -0.59147346       -0.00000000       -0.00000000
C           0.59147346        0.00000000       -0.00000000
H          -1.11631265        0.91981356        0.18237997
H          -1.11631265       -0.91981356       -0.18237997
H           1.11631265        0.91981356       -0.18237997
H           1.11631265       -0.91981356        0.18237997
6
MD Time 580.00
C          -0.58039881       -0.00000000       -0.00000000
C           0.58039881        0.00000000       -0.00000000
H          -1.10582504        0.91887337        0.17219947
H          -1.10582504       -0.91887337       -0.17219947
H           1.10582504        0.91887337       -0.17219947
H           1.10582504       -0.91887337        0.17219947
6
MD Time 590.00
C          -0.56975072       -0.00000000       -0.00000000
C           0.56975072        0.00000000       -0.00000000
H          -1.09587974        0.91811104        0.16123029
H          -1.09587974       -0.91811104       -0.16123029
H           1.09587974        0.91811104       -0.16123029
H           1.09587974       -0.91811104        0.16123029
6
MD Time 600.00
C          -0.55965492       -0.00000000       -0.00000000
C           0.55965492        0.00000000       -0.00000000
H          -1.08654711        0.91757845        0.14946138
H          -1.08654711       -0.91757845       -0.14946138
H           1.08654711        0.91757845       -0.14946138
H           1.08654711       -0.91757845        0.14946138
6
MD Time 610.00
C          -0.55026179       -0.00000000       -0.00000000
C           0.55026179        0.00000000       -0.00000000
H          -1.07789314        0.91732187        0.13689317
H          -1.07789314       -0.91732187       -0.13689317
H           1.07789314        0.91732187       -0.13689317
H           1.07789314       -0.91732187        0.13689317
6
MD Time 620.00
C          -0.54174290       -0.00000000       -0.00000000
C           0.54174290        0.00000000       -0.00000000
H          -1.06997835        0.91738026        0.12353835
H          -1.06997835       -0.91738026       -0.12353835
H           1.06997835        0.91738026       -0.12353835
H           1.06997835       -0.91738026        0.12353835
6
MD Time 630.00
C          -0.53428350       -0.00000000       -0.00000000
C           0.53428350        0.00000000       -0.00000000
H          -1.06285694        0.91778403        0.10942247
H          -1.06285694       -0.91778403       -0.10942247
H           1.06285694        0.91778403       -0.10942247
H           1.06285694       -0.91778403        0.10942247
6
MD Time 640.00
C          -0.52807101       -0.00000000        0.00000000
C           0.52807101        0.00000000       -0.00000000
H          -1.05657635        0.91855429        0.09458425
H          -1.05657635       -0.91855429       -0.09458425
H           1.05657635        0.91855429       -0.09458425
H           1.05657635       -0.91855429        0.09458425
6
MD Time 650.00
C          -0.52328013       -0.00000000        0.00000000
C           0.52328013        0.00000000       -0.00000000
H          -1.05117696        0.91970250        0.07907587
H          -1.05117696       -0.91970250       -0.07907587
H           1.05117696        0.91970250       -0.07907587
H           1.05117696       -0.91970250        0.07907587
6
MD Time 660.00
C          -0.52005625       -0.00000000        0.00000000
C           0.52005625        0.00000000       -0.00000000
H          -1.04669210        0.92123055        0.06296302
H          -1.04669210       -0.92123055       -0.06296302
H           1.04669210        0.92123055       -0.06296302
H           1.04669210       -0.92123055        0.06296302
6
MD Time 670.00
C          -0.51849956       -0.00000000        0.00000000
C           0.51849956        0.00000000       -0.00000000
H          -1.04314815        0.92313110        0.04632495
H          -1.04314815       -0.92313110       -0.04632495
H           1.04314815        0.92313110       -0.04632495
H           1.04314815       -0.92313110        0.04632495
6
MD Time 680.00
C          -0.51865269       -0.00000000        0.00000000
C           0.51865269        0.00000000       -0.00000000
H          -1.04056473        0.92538803        0.02925422
H          -1.04056473       -0.92538803       -0.02925422
H           1.04056473        0.92538803       -0.02925422
H           1.04056473       -0.92538803        0.02925422
6
MD Time 690.00
C          -0.52049425       -0.00000000        0.00000000
C           0.52049425        0.00000000       -0.00000000
H          -1.03895494        0.92797698        0.01185641
H          -1.03895494       -0.92797698       -0.01185641
H           1.03895494        0.92797698       -0.01185641
H           1.03895494       -0.92797698        0.01185641
6
MD Time 700.00
C          -0.52393957       -0.00000000        0.00000000
C           0.52393957        0.00000000       -0.00000000
H          -1.03832558        0.93086575       -0.00575060
H          -1.03832558       -0.93086575        0.00575060
H           1.03832558        0.93086575        0.00575060
H           1.03832558       -0.93086575       -0.00575060
6
MD Time 710.00
C          -0.52884841       -0.00000000        0.00000000
C           0.52884841        0.00000000       -0.00000000
H          -1.03867737        0.93401478       -0.02343766
H          -1.03867737       -0.93401478        0.02343766
H           1.03867737        0.93401478        0.02343766
H           1.03867737       -0.93401478       -0.02343766
6
MD Time 720.00
C          -0.53503791       -0.00000000        0.00000000
C           0.53503791        0.00000000       -0.00000000
H          -1.04000510        0.93737757       -0.04106578
H          -1.04000510       -0.93737757        0.04106578
H           1.04000510        0.93737757        0.04106578
H           1.04000510       -0.93737757       -0.04106578
6
MD Time 730.00
C          -0.54229831       -0.00000000        0.00000000
C           0.54229831        0.00000000       -0.00000000
H          -1.04229783        0.94090125       -0.05848793
H          -1.04229783       -0.94090125        0.05848793
H           1.04229783        0.94090125        0.05848793
H           1.04229783       -0.94090125       -0.05848793
6
MD Time 740.00
C          -0.55040873       -0.00000000        0.00000000
C           0.55040873        0.00000000       -0.00000000
H          -1.04553905        0.94452726       -0.07555119
H          -1.04553905       -0.94452726        0.07555119
H           1.04553905        0.94452726        0.07555119
H           1.04553905       -0.94452726       -0.07555119
6
MD Time 750.00
C          -0.55915093       -0.00000000        0.00000000
C           0.55915093        0.00000000       -0.00000000
H          -1.04970686        0.94819230       -0.09209904
H          -1.04970686       -0.94819230        0.09209904
H           1.04970686        0.94819230        0.09209904
H           1.04970686       -0.94819230       -0.09209904
6
MD Time 760.00
C          -0.56831989       -0.00000000        0.00000000
C           0.56831989        0.00000000       -0.00000000
H          -1.05477425        0.95182948       -0.10797386
H          -1.05477425       -0.95182948        0.10797386
H           1.05477425        0.95182948        0.10797386
H           1.05477425       -0.95182948       -0.10797386
6
MD Time 770.00
C          -0.57773074       -0.00000000        0.00000000
C           0.57773074        0.00000000       -0.00000000
H          -1.06070944        0.95536970       -0.12301931
H          -1.06070944       -0.95536970        0.12301931
H           1.06070944        0.95536970        0.12301931
H           1.06070944       -0.95536970       -0.12301931
6
MD Time 780.00
C          -0.58722245       -0.00000000        0.00000000
C           0.58722245        0.00000000       -0.00000000
H          -1.06747626        0.95874311       -0.13708271
H          -1.06747626       -0.95874311        0.13708271
H           1.06747626        0.95874311        0.13708271
H           1.06747626       -0.95874311       -0.13708271
6
MD Time 790.00
C          -0.59665880       -0.00000000        0.00000000
C           0.59665880        0.00000000       -0.00000000
H          -1.07503466        0.96188065       -0.15001724
H          -1.07503466       -0.96188065        0.15001724
H           1.07503466        0.96188065        0.15001724
H           1.07503466       -0.96188065       -0.15001724
6
MD Time 800.00
C          -0.60592754       -0.00000000        0.00000000
C           0.60592754        0.00000000       -0.00000000
H          -1.08334120        0.96471550       -0.16168385
H          -1.08334120       -0.96471550        0.16168385
H           1.08334120        0.96471550        0.16168385
H           1.08334120       -0.96471550       -0.16168385
6
MD Time 810.00
C          -0.61493834       -0.00000000        0.00000000
C           0.61493834        0.00000000       -0.00000000
H          -1.09234956        0.96718445       -0.17195305
H          -1.09234956       -0.96718445        0.17195305
H           1.09234956        0.96718445        0.17195305
H           1.09234956       -0.96718445       -0.17195305
6
MD Time 820.00
C          -0.62362014       -0.00000000        0.00000000
C           0.62362014        0.00000000       -0.00000000
H          -1.10201105        0.96922903       -0.18070632
H          -1.10201105       -0.96922903        0.18070632
H           1.10201105        0.96922903        0.18070632
H           1.10201105       -0.96922903       -0.18070632
6
MD Time 830.00
C          -0.63191841       -0.00000000        0.00000000
C           0.63191841        0.00000000       -0.00000000
H          -1.11227493        0.97079652       -0.18783728
H          -1.11227493       -0.97079652        0.18783728
H           1.11227493        0.97079652        0.18783728
H           1.11227493       -0.97079652       -0.18783728
6
MD Time 840.00
C          -0.63979242       -0.00000000        0.00000000
C           0.63979242        0.00000000       -0.00000000
H          -1.12308884        0.97184069       -0.19325261
H          -1.12308884       -0.97184069        0.19325261
H           1.12308884        0.97184069        0.19325261
H           1.12308884       -0.97184069       -0.19325261
6
MD Time 850.00
C          -0.64721287       -0.00000000        0.00000000
C           0.64721287        0.00000000       -0.00000000
H          -1.13439892        0.97232236       -0.19687270
H          -1.13439892       -0.97232236        0.19687270
H           1.13439892        0.97232236        0.19687270
H           1.13439892       -0.97232236       -0.19687270
6
MD Time 860.00
C          -0.65415983       -0.00000000        0.00000000
C           0.65415983        0.00000000       -0.00000000
H          -1.14615002        0.97220987       -0.19863205
H          -1.14615002       -0.97220987        0.19863205
H           1.14615002        0.97220987        0.19863205
H           1.14615002       -0.97220987       -0.19863205
6
MD Time 870.00
C          -0.66062103       -0.00000000        0.00000000
C           0.66062103        0.00000000       -0.00000000
H          -1.15828574        0.97147934       -0.19847950
H          -1.15828574       -0.97147934        0.19847950
H           1.15828574        0.97147934        0.19847950
H           1.15828574       -0.97147934       -0.19847950
6
MD Time 880.00
C          -0.66659051       -0.00000000        0.00000000
C           0.66659051        0.00000000       -0.00000000
H          -1.17074835        0.97011489       -0.19637833
H          -1.17074835       -0.97011489        0.19637833
H           1.17074835        0.97011489        0.19637833
H           1.17074835       -0.97011489       -0.19637833
6
MD Time 890.00
C          -0.67206756       -0.00000000        0.00000000
C           0.67206756        0.00000000       -0.00000000
H          -1.18347875        0.96810874       -0.19230620
H          -1.18347875       -0.96810874        0.19230620
H           1.18347875        0.96810874        0.19230620
H           1.18347875       -0.96810874       -0.19230620
6
MD Time 900.00
C          -0.67705590       -0.00000000        0.00000000
C           0.67705590        0.00000000       -0.00000000
H          -1.19641629        0.96546129       -0.18625502
H          -1.19641629       -0.96546129        0.18625502
H           1.19641629        0.96546129        0.18625502
H           1.19641629       -0.96546129       -0.18625502
6
MD Time 910.00
C          -0.68156310       -0.00000000        0.00000000
C           0.68156310        0.00000000       -0.00000000
H          -1.20949862        0.96218100       -0.17823078
H          -1.20949862       -0.96218100        0.17823078
H           1.20949862        0.96218100        0.17823078
H           1.20949862       -0.96218100       -0.17823078
6
MD Time 920.00
C          -0.68560013       -0.00000000        0.00000000
C           0.68560013        0.00000000       -0.00000000
H          -1.22266146        0.95828437       -0.16825329
H          -1.22266146       -0.95828437        0.16825329
H           1.22266146        0.95828437        0.16825329
H           1.22266146       -0.95828437       -0.16825329
6
MD Time 930.00
C          -0.68918106       -0.00000000        0.00000000
C           0.68918106        0.00000000       -0.00000000
H          -1.23583844        0.95379563       -0.15635592
H          -1.23583844       -0.95379563        0.15635592
H           1.23583844        0.95379563        0.15635592
H           1.23583844       -0.95379563       -0.15635592
6
MD Time 940.00
C          -0.69232281       -0.00000000        0.00000000
C           0.69232281        0.00000000       -0.00000000
H          -1.24896092        0.94874639       -0.14258531
H          -1.24896092       -0.94874639        0.14258531
H           1.24896092        0.94874639        0.14258531
H           1.24896092       -0.94874639       -0.14258531
6
MD Time 950.00
C          -0.69504500       -0.00000000        0.00000000
C           0.69504500        0.00000000       -0.00000000
H          -1.26195791        0.94317511       -0.12700109
H          -1.26195791       -0.94317511        0.12700109
H           1.26195791        0.94317511        0.12700109
H           1.26195791       -0.94317511       -0.12700109
6
MD Time 960.00
C          -0.69736981       -0.00000000        0.00000000
C           0.69736981        0.00000000       -0.00000000
H          -1.27475595        0.93712639       -0.10967551
H          -1.27475595       -0.93712639        0.10967551
H           1.27475595        0.93712639        0.10967551
H           1.27475595       -0.93712639       -0.10967551
6
MD Time 970.00
C          -0.69932192       -0.00000000        0.00000000
C           0.69932192        0.00000000       -0.00000000
H          -1.28727926        0.93065002       -0.09069309
H          -1.28727926       -0.93065002        0.09069309
H           1.28727926        0.93065002        0.09069309
H           1.28727926       -0.93065002       -0.09069309
6
MD Time 980.00
C          -0.70092833       -0.00000000        0.00000000
C           0.70092833        0.00000000       -0.00000000
H          -1.29944981        0.92379993       -0.07015022
H          -1.29944981       -0.92379993        0.07015022
H           1.29944981        0.92379993        0.07015022
H           1.29944981       -0.92379993       -0.07015022
6
MD Time 990.00
C          -0.70221829       -0.00000000        0.00000000
C           0.70221829        0.00000000       -0.00000000
H          -1.31118767        0.91663293       -0.04815471
H          -1.31118767       -0.91663293        0.04815471
H           1.31118767        0.91663293        0.04815471
H           1.31118767       -0.91663293       -0.04815471
6
MD Time 1000.00
C          -0.70322314       -0.00000000        0.00000000
C           0.70322314        0.00000000       -0.00000000
H          -1.32241141        0.90920739       -0.02482526
H          -1.32241141       -0.90920739        0.02482526
H           1.32241141        0.90920739        0.02482526
H           1.32241141       -0.90920739       -0.02482526
6
MD Time 1010.00
C          -0.70397613       -0.00000000        0.00000000
C           0.70397613        0.00000000       -0.00000000
H          -1.33303869        0.90158188       -0.00029084
H          -1.33303869       -0.90158188        0.00029084
H           1.33303869        0.90158188        0.00029084
H           1.33303869       -0.90158188       -0.00029084
6
MD Time 1020.00
C          -0.70451218       -0.00000000        0.00000000
C           0.70451218        0.00000000       -0.00000000
H          -1.34298704        0.89381390        0.02531004
H          -1.34298704       -0.89381390       -0.02531004
H           1.34298704        0.89381390       -0.02531004
H           1.34298704       -0.89381390        0.02531004
6
MD Time 1030.00
C          -0.70486758       -0.00000000        0.00000000
C           0.70486758        0.00000000       -0.00000000
H          -1.35217473        0.88595881        0.05183024
H          -1.35217473       -0.88595881       -0.05183024
H           1.35217473        0.88595881       -0.05183024
H           1.35217473       -0.88595881        0.05183024
6
MD Time 1040.00
C          -0.70507966       -0.00000000        0.00000000
C           0.70507966        0.00000000       -0.00000000
H          -1.36052189        0.87806891        0.07911502
H          -1.36052189       -0.87806891       -0.07911502
H           1.36052189        0.87806891       -0.07911502
H           1.36052189       -0.87806891        0.07911502
6
MD Time 1050.00
C          -0.70518637       -0.00000000        0.00000000
C           0.70518637        0.00000000       -0.00000000
H          -1.36795174        0.87019285        0.10700326
H          -1.36795174       -0.87019285       -0.10700326
H           1.36795174        0.87019285       -0.10700326
H           1.36795174       -0.87019285        0.10700326
6
MD Time 1060.00
C          -0.70522579       -0.00000000        0.00000000
C           0.70522579        0.00000000       -0.00000000
H          -1.37439195        0.86237544        0.13532889
H          -1.37439195       -0.86237544       -0.13532889
H           1.37439195        0.86237544       -0.13532889
H           1.37439195       -0.86237544        0.13532889
6
MD Time 1070.00
C          -0.70523567       -0.00000000        0.00000000
C           0.70523567        0.00000000       -0.00000000
H          -1.37977613        0.85465766        0.16392233
H          -1.37977613       -0.85465766       -0.16392233
H           1.37977613        0.85465766       -0.16392233
H           1.37977613       -0.85465766        0.16392233
6
MD Time 1080.00
C          -0.70525283       -0.00000000        0.00000000
C           0.70525283        0.00000000       -0.00000000
H          -1.38404538        0.84707700        0.19261214
H          -1.38404538       -0.84707700       -0.19261214
H           1.38404538        0.84707700       -0.19261214
H           1.38404538       -0.84707700        0.19261214
6
MD Time 1090.00
C          -0.70531266       -0.00000000        0.00000000
C           0.70531266        0.00000000       -0.00000000
H          -1.38714979        0.83966815        0.22122662
H          -1.38714979       -0.83966815       -0.22122662
H           1.38714979        0.83966815       -0.22122662
H           1.38714979       -0.83966815        0.22122662
6
MD Time 1100.00
C          -0.70544851       -0.00000000        0.00000000
C           0.70544851        0.00000000       -0.00000000
H          -1.38905000        0.83246377        0.24959545
H          -1.38905000       -0.83246377       -0.24959545
H           1.38905000        0.83246377       -0.24959545
H           1.38905000       -0.83246377        0.24959545
6
MD Time 1110.00
C          -0.70569125       -0.00000000        0.00000000
C           0.70569125        0.00000000       -0.00000000
H          -1.38971856        0.82549550        0.27755124
H          -1.38971856       -0.82549550       -0.27755124
H           1.38971856        0.82549550       -0.27755124
H           1.38971856       -0.82549550        0.27755124
6
MD Time 1120.00
C          -0.70606872       -0.00000000        0.00000000
C           0.70606872        0.00000000       -0.00000000
H          -1.38914117        0.81879498        0.30493108
H          -1.38914117       -0.81879498       -0.30493108
H           1.38914117        0.81879498       -0.30493108
H           1.38914117       -0.81879498        0.30493108
6
MD Time 1130.00
C          -0.70660533       -0.00000000       -0.00000000
C           0.70660533        0.00000000       -0.00000000
H          -1.38731774        0.81239496        0.33157801
H          -1.38731774       -0.81239496       -0.33157801
H           1.38731774        0.81239496       -0.33157801
H           1.38731774       -0.81239496        0.33157801
6
MD Time 1140.00
C          -0.70732171       -0.00000000       -0.00000000
C           0.70732171        0.00000000       -0.00000000
H          -1.38426309        0.80633030        0.35734231
H          -1.38426309       -0.80633030       -0.35734231
H           1.38426309        0.80633030       -0.35734231
H           1.38426309       -0.80633030        0.35734231
6
MD Time 1150.00
C          -0.70823442       -0.00000000       -0.00000000
C           0.70823442        0.00000000       -0.00000000
H          -1.38000743        0.80063884        0.38208285
H          -1.38000743       -0.80063884       -0.38208285
H           1.38000743        0.80063884       -0.38208285
H           1.38000743       -0.80063884        0.38208285
6
MD Time 1160.00
C          -0.70935575       -0.00000000       -0.00000000
C           0.70935575        0.00000000       -0.00000000
H          -1.37459650        0.79536216        0.40566820
H          -1.37459650       -0.79536216       -0.40566820
H           1.37459650        0.79536216       -0.40566820
H           1.37459650       -0.79536216        0.40566820
6
MD Time 1170.00
C          -0.71069356       -0.00000000       -0.00000000
C           0.71069356        0.00000000       -0.00000000
H          -1.36809135        0.79054606        0.42797769
H          -1.36809135       -0.79054606       -0.42797769
H           1.36809135        0.79054606       -0.42797769
H           1.36809135       -0.79054606        0.42797769
6
MD Time 1180.00
C          -0.71225130       -0.00000000       -0.00000000
C           0.71225130        0.00000000       -0.00000000
H          -1.36056781        0.78624087        0.44890226
H          -1.36056781       -0.78624087       -0.44890226
H           1.36056781        0.78624087       -0.44890226
H           1.36056781       -0.78624087        0.44890226
6
MD Time 1190.00
C          -0.71402801       -0.00000000       -0.00000000
C           0.71402801        0.00000000       -0.00000000
H          -1.35211558        0.78250139        0.46834515
H          -1.35211558       -0.78250139       -0.46834515
H           1.35211558        0.78250139       -0.46834515
H           1.35211558       -0.78250139        0.46834515
6
MD Time 1200.00
C          -0.71601847        0.00000000       -0.00000000
C           0.71601847        0.00000000       -0.00000000
H          -1.34283702        0.77938662        0.48622245
H          -1.34283702       -0.77938662       -0.48622245
H           1.34283702        0.77938662       -0.48622245
H           1.34283702       -0.77938662        0.48622245
6
MD Time 1210.00
C          -0.71821342        0.00000000       -0.00000000
C           0.71821342       -0.00000000       -0.00000000
H          -1.33284560        0.77695913        0.50246325
H          -1.33284560       -0.77695913       -0.50246325
H           1.33284560        0.77695913       -0.50246325
H           1.33284560       -0.77695913        0.50246325
6
MD Time 1220.00
C          -0.72059983        0.00000000       -0.00000000
C           0.72059983       -0.00000000        0.00000000
H          -1.32226410        0.77528411        0.51700969
H          -1.32226410       -0.77528411       -0.51700969
H           1.32226410        0.77528411       -0.51700969
H           1.32226410       -0.77528411        0.51700969
6
MD Time 1230.00
C          -0.72316130        0.00000000       -0.00000000
C           0.72316130       -0.00000000        0.00000000
H          -1.31122245        0.77442813        0.52981666
H          -1.31122245       -0.77442813       -0.52981666
H           1.31122245        0.77442813       -0.52981666
H           1.31122245       -0.77442813        0.52981666
6
MD Time 1240.00
C          -0.72587848        0.00000000       -0.00000000
C           0.72587848       -0.00000000        0.00000000
H          -1.29985542        0.77445751        0.54085115
H          -1.29985542       -0.77445751       -0.54085115
H           1.29985542        0.77445751       -0.54085115
H           1.29985542       -0.77445751        0.54085115
6
MD Time 1250.00
C          -0.72872956        0.00000000       -0.00000000
C           0.72872956       -0.00000000        0.00000000
H          -1.28830010        0.77543641        0.55009145
H          -1.28830010       -0.77543641       -0.55009145
H           1.28830010        0.77543641       -0.55009145
H           1.28830010       -0.77543641        0.55009145
6
MD Time 1260.00
C          -0.73169081        0.00000000       -0.00000000
C           0.73169081       -0.00000000        0.00000000
H          -1.27669318        0.77742466        0.55752594
H          -1.27669318       -0.77742466       -0.55752594
H           1.27669318        0.77742466       -0.55752594
H           1.27669318       -0.77742466        0.55752594
6
MD Time 1270.00
C          -0.73473715        0.00000000       -0.00000000
C           0.73473715       -0.00000000        0.00000000
H          -1.26516827        0.78047521        0.56315174
H          -1.26516827       -0.78047521       -0.56315174
H           1.26516827        0.78047521       -0.56315174
H           1.26516827       -0.78047521        0.56315174
6
MD Time 1280.00
C          -0.73784273        0.00000000       -0.00000000
C           0.73784273       -0.00000000        0.00000000
H          -1.25385318        0.78463155        0.56697320
H          -1.25385318       -0.78463155       -0.56697320
H           1.25385318        0.78463155       -0.56697320
H           1.25385318       -0.78463155        0.56697320
6
MD Time 1290.00
C          -0.74098141        0.00000000       -0.00000000
C           0.74098141       -0.00000000        0.00000000
H          -1.24286732        0.78992494        0.56900032
H          -1.24286732       -0.78992494       -0.56900032
H           1.24286732        0.78992494       -0.56900032
H           1.24286732       -0.78992494        0.56900032
6
MD Time 1300.00
C          -0.74412740        0.00000000       -0.00000000
C           0.74412740       -0.00000000        0.00000000
H          -1.23231938        0.79637162        0.56924722
H          -1.23231938       -0.79637162       -0.56924722
H           1.23231938        0.79637162       -0.56924722
H           1.23231938       -0.79637162        0.56924722
6
MD Time 1310.00
C          -0.74725559        0.00000000       -0.00000000
C           0.74725559       -0.00000000        0.00000000
H          -1.22230529        0.80397028        0.56773076
H          -1.22230529       -0.80397028       -0.56773076
H           1.22230529        0.80397028       -0.56773076
H           1.22230529       -0.80397028        0.56773076
6
MD Time 1320.00
C          -0.75034206        0.00000000       -0.00000000
C           0.75034206       -0.00000000        0.00000000
H          -1.21290664        0.81269969        0.56446950
H          -1.21290664       -0.81269969       -0.56446950
H           1.21290664        0.81269969       -0.56446950
H           1.21290664       -0.81269969        0.56446950
6
MD Time 1330.00
C          -0.75336428        0.00000000       -0.00000000
C           0.75336428       -0.00000000        0.00000000
H          -1.20418964        0.82251692        0.55948302
H          -1.20418964       -0.82251692       -0.55948302
H           1.20418964        0.82251692       -0.55948302
H           1.20418964       -0.82251692        0.55948302
6
MD Time 1340.00
C          -0.75630139        0.00000000       -0.00000000
C           0.75630139       -0.00000000        0.00000000
H          -1.19620455        0.83335607        0.55279174
H          -1.19620455       -0.83335607       -0.55279174
H           1.19620455        0.83335607       -0.55279174
H           1.19620455       -0.83335607        0.55279174
6
MD Time 1350.00
C          -0.75913425        0.00000000       -0.00000000
C           0.75913425       -0.00000000        0.00000000
H          -1.18898580        0.84512781        0.54441726
H          -1.18898580       -0.84512781       -0.54441726
H           1.18898580        0.84512781       -0.54441726
H           1.18898580       -0.84512781        0.54441726
6
MD Time 1360.00
C          -0.76184551        0.00000000       -0.00000000
C           0.76184551       -0.00000000        0.00000000
H          -1.18255261        0.85771974        0.53438321
H          -1.18255261       -0.85771974       -0.53438321
H           1.18255261        0.85771974       -0.53438321
H           1.18255261       -0.85771974        0.53438321
6
MD Time 1370.00
C          -0.76441949        0.00000000       -0.00000000
C           0.76441949       -0.00000000        0.00000000
H          -1.17691013        0.87099769        0.52271651
H          -1.17691013       -0.87099769       -0.52271651
H           1.17691013        0.87099769       -0.52271651
H           1.17691013       -0.87099769        0.52271651
6
MD Time 1380.00
C          -0.76684207        0.00000000       -0.00000000
C           0.76684207       -0.00000000        0.00000000
H          -1.17205094        0.88480780        0.50944907
H          -1.17205094       -0.88480780       -0.50944907
H           1.17205094        0.88480780       -0.50944907
H           1.17205094       -0.88480780        0.50944907
6
MD Time 1390.00
C          -0.76910046        0.00000000       -0.00000000
C           0.76910046       -0.00000000        0.00000000
H          -1.16795692        0.89897955        0.49461958
H          -1.16795692       -0.89897955       -0.49461958
H           1.16795692        0.89897955       -0.49461958
H           1.16795692       -0.89897955        0.49461958
6
MD Time 1400.00
C          -0.77118304        0.00000000       -0.00000000
C           0.77118304       -0.00000000        0.00000000
H          -1.16460116        0.91332943        0.47827550
H          -1.16460116       -0.91332943       -0.47827550
H           1.16460116        0.91332943       -0.47827550
H           1.16460116       -0.91332943        0.47827550
6
MD Time 1410.00
C          -0.77307906        0.00000000       -0.00000000
C           0.77307906       -0.00000000        0.00000000
H          -1.16195007        0.92766515        0.46047479
H          -1.16195007       -0.92766515       -0.46047479
H           1.16195007        0.92766515       -0.46047479
H           1.16195007       -0.92766515        0.46047479
6
MD Time 1420.00
C          -0.77477841        0.00000000       -0.00000000
C           0.77477841       -0.00000000        0.00000000
H          -1.15996527        0.94179021        0.44128759
H          -1.15996527       -0.94179021       -0.44128759
H           1.15996527        0.94179021       -0.44128759
H           1.15996527       -0.94179021        0.44128759
6
MD Time 1430.00
C          -0.77627142        0.00000000       -0.00000000
C           0.77627142       -0.00000000        0.00000000
H          -1.15860549        0.95550860        0.42079741
H          -1.15860549       -0.95550860       -0.42079741
H           1.15860549        0.95550860       -0.42079741
H           1.15860549       -0.95550860        0.42079741
6
MD Time 1440.00
C          -0.77754859        0.00000000       -0.00000000
C           0.77754859       -0.00000000        0.00000000
H          -1.15782821        0.96862953        0.39910200
H          -1.15782821       -0.96862953       -0.39910200
H           1.15782821        0.96862953       -0.39910200
H           1.15782821       -0.96862953        0.39910200
6
MD Time 1450.00
C          -0.77860043        0.00000000       -0.00000000
C           0.77860043       -0.00000000        0.00000000
H          -1.15759114        0.98097187        0.37631372
H          -1.15759114       -0.98097187       -0.37631372
H           1.15759114        0.98097187       -0.37631372
H           1.15759114       -0.98097187        0.37631372
6
MD Time 1460.00
C          -0.77941727        0.00000000       -0.00000000
C           0.77941727       -0.00000000        0.00000000
H          -1.15785348        0.99236830        0.35255940
H          -1.15785348       -0.99236830       -0.35255940
H           1.15785348        0.99236830       -0.35255940
H           1.15785348       -0.99236830        0.35255940
6
MD Time 1470.00
C          -0.77998913        0.00000000       -0.00000000
C           0.77998913       -0.00000000        0.00000000
H          -1.15857703        1.00266903        0.32797980
H          -1.15857703       -1.00266903       -0.32797980
H           1.15857703        1.00266903       -0.32797980
H           1.15857703       -1.00266903        0.32797980
6
MD Time 1480.00
C          -0.78030555        0.00000000       -0.00000000
C           0.78030555       -0.00000000        0.00000000
H          -1.15972706        1.01174495        0.30272846
H          -1.15972706       -1.01174495       -0.30272846
H           1.15972706        1.01174495       -0.30272846
H           1.15972706       -1.01174495        0.30272846
6
MD Time 1490.00
C          -0.78035554        0.00000000       -0.00000000
C           0.78035554       -0.00000000        0.00000000
H          -1.16127310        1.01949024        0.27697025
H          -1.16127310       -1.01949024       -0.27697025
H           1.16127310        1.01949024       -0.27697025
H           1.16127310       -1.01949024        0.27697025
6
MD Time 1500.00
C          -0.78012742        0.00000000       -0.00000000
C           0.78012742       -0.00000000        0.00000000
H          -1.16318955        1.02582431        0.25087946
H          -1.16318955       -1.02582431       -0.25087946
H           1.16318955        1.02582431       -0.25087946
H           1.16318955       -1.02582431        0.25087946
6
MD Time 1510.00
C          -0.77960881        0.00000000       -0.00000000
C           0.77960881       -0.00000000        0.00000000
H          -1.16545616        1.03069313        0.22463747
H          -1.16545616       -1.03069313       -0.22463747
H           1.16545616        1.03069313       -0.22463747
H           1.16545616       -1.03069313        0.22463747
6
MD Time 1520.00
C          -0.77878656        0.00000000       -0.00000000
C           0.77878656       -0.00000000        0.00000000
H          -1.16805838        1.03406984        0.19843016
H          -1.16805838       -1.03406984       -0.19843016
H           1.16805838        1.03406984       -0.19843016
H           1.16805838       -1.03406984        0.19843016
6
MD Time 1530.00
C          -0.77764676        0.00000000       -0.00000000
C           0.77764676       -0.00000000        0.00000000
H          -1.17098746        1.03595465        0.17244511
H          -1.17098746       -1.03595465       -0.17244511
H           1.17098746        1.03595465       -0.17244511
H           1.17098746       -1.03595465        0.17244511
6
MD Time 1540.00
C          -0.77617479        0.00000000       -0.00000000
C           0.77617479       -0.00000000        0.00000000
H          -1.17424046        1.03637395        0.14686852
H          -1.17424046       -1.03637395       -0.14686852
H           1.17424046        1.03637395       -0.14686852
H           1.17424046       -1.03637395        0.14686852
6
MD Time 1550.00
C          -0.77435536        0.00000000       -0.00000000
C           0.77435536       -0.00000000        0.00000000
H          -1.17781996        1.03537880        0.12188217
H          -1.17781996       -1.03537880       -0.12188217
H           1.17781996        1.03537880       -0.12188217
H           1.17781996       -1.03537880        0.12188217
6
MD Time 1560.00
C          -0.77217268        0.00000000       -0.00000000
C           0.77217268       -0.00000000        0.00000000
H          -1.18173345        1.03304251        0.09766040
H          -1.18173345       -1.03304251       -0.09766040
H           1.18173345        1.03304251       -0.09766040
H           1.18173345       -1.03304251        0.09766040
6
MD Time 1570.00
C          -0.76961068        0.00000000       -0.00000000
C           0.76961068       -0.00000000        0.00000000
H          -1.18599252        1.02945768        0.07436735
H          -1.18599252       -1.02945768       -0.07436735
H           1.18599252        1.02945768       -0.07436735
H           1.18599252       -1.02945768        0.07436735
6
MD Time 1580.00
C          -0.76665325        0.00000000       -0.00000000
C           0.76665325       -0.00000000        0.00000000
H          -1.19061158        1.02473256        0.05215443
H          -1.19061158       -1.02473256       -0.05215443
H           1.19061158        1.02473256       -0.05215443
H           1.19061158       -1.02473256        0.05215443
6
MD Time 1590.00
C          -0.76328461        0.00000000       -0.00000000
C           0.76328461       -0.00000000        0.00000000
H          -1.19560636        1.01898699        0.03115828
H          -1.19560636       -1.01898699       -0.03115828
H           1.19560636        1.01898699       -0.03115828
H           1.19560636       -1.01898699        0.03115828
6
MD Time 1600.00
C          -0.75948972        0.00000000       -0.00000000
C           0.75948972       -0.00000000        0.00000000
H          -1.20099199        1.01234794        0.01149927
H          -1.20099199       -1.01234794       -0.01149927
H           1.20099199        1.01234794       -0.01149927
H           1.20099199       -1.01234794        0.01149927
6
MD Time 1610.00
C          -0.75525478        0.00000000       -0.00000000
C           0.75525478       -0.00000000        0.00000000
H          -1.20678087        1.00494507       -0.00671953
H          -1.20678087       -1.00494507        0.00671953
H           1.20678087        1.00494507        0.00671953
H           1.20678087       -1.00494507       -0.00671953
6
MD Time 1620.00
C          -0.75056775        0.00000000       -0.00000000
C           0.75056775       -0.00000000        0.00000000
H          -1.21298022        0.99690625       -0.02341282
H          -1.21298022       -0.99690625        0.02341282
H           1.21298022        0.99690625        0.02341282
H           1.21298022       -0.99690625       -0.02341282
6
MD Time 1630.00
C          -0.74541889        0.00000000       -0.00000000
C           0.74541889       -0.00000000        0.00000000
H          -1.21958964        0.98835349       -0.03851303
H          -1.21958964       -0.98835349        0.03851303
H           1.21958964        0.98835349        0.03851303
H           1.21958964       -0.98835349       -0.03851303
6
MD Time 1640.00
C          -0.73980137        0.00000000       -0.00000000
C           0.73980137       -0.00000000        0.00000000
H          -1.22659855        0.97939935       -0.05196992
H          -1.22659855       -0.97939935        0.05196992
H           1.22659855        0.97939935        0.05196992
H           1.22659855       -0.97939935       -0.05196992
6
MD Time 1650.00
C          -0.73371177        0.00000000       -0.00000000
C           0.73371177       -0.00000000        0.00000000
H          -1.23398390        0.97014400       -0.06374987
H          -1.23398390       -0.97014400        0.06374987
H           1.23398390        0.97014400        0.06374987
H           1.23398390       -0.97014400       -0.06374987
6
MD Time 1660.00
C          -0.72715058        0.00000000       -0.00000000
C           0.72715058       -0.00000000        0.00000000
H          -1.24170811        0.96067313       -0.07383501
H          -1.24170811       -0.96067313        0.07383501
H           1.24170811        0.96067313        0.07383501
H           1.24170811       -0.96067313       -0.07383501
6
MD Time 1670.00
C          -0.72012256        0.00000000       -0.00000000
C           0.72012256       -0.00000000        0.00000000
H          -1.24971764        0.95105674       -0.08222217
H          -1.24971764       -0.95105674        0.08222217
H           1.24971764        0.95105674        0.08222217
H           1.24971764       -0.95105674       -0.08222217
6
MD Time 1680.00
C          -0.71263710        0.00000000       -0.00000000
C           0.71263710       -0.00000000        0.00000000
H          -1.25794204        0.94134890       -0.08892201
H          -1.25794204       -0.94134890        0.08892201
H           1.25794204        0.94134890        0.08892201
H           1.25794204       -0.94134890       -0.08892201
6
MD Time 1690.00
C          -0.70470833        0.00000000       -0.00000000
C           0.70470833       -0.00000000        0.00000000
H          -1.26629390        0.93158836       -0.09395802
H          -1.26629390       -0.93158836        0.09395802
H           1.26629390        0.93158836        0.09395802
H           1.26629390       -0.93158836       -0.09395802
6
MD Time 1700.00
C          -0.69635522        0.00000000       -0.00000000
C           0.69635522       -0.00000000        0.00000000
H          -1.27466952        0.92180007       -0.09736585
H          -1.27466952       -0.92180007        0.09736585
H           1.27466952        0.92180007        0.09736585
H           1.27466952       -0.92180007       -0.09736585
6
MD Time 1710.00
C          -0.68760155        0.00000000       -0.00000000
C           0.68760155       -0.00000000        0.00000000
H          -1.28295048        0.91199741       -0.09919258
H          -1.28295048       -0.91199741        0.09919258
H           1.28295048        0.91199741        0.09919258
H           1.28295048       -0.91199741       -0.09919258
6
MD Time 1720.00
C          -0.67847589        0.00000000       -0.00000000
C           0.67847589       -0.00000000        0.00000000
H          -1.29100594        0.90218504       -0.09949624
H          -1.29100594       -0.90218504        0.09949624
H           1.29100594        0.90218504        0.09949624
H           1.29100594       -0.90218504       -0.09949624
6
MD Time 1730.00
C          -0.66901158        0.00000000       -0.00000000
C           0.66901158       -0.00000000       -0.00000000
H          -1.29869573        0.89236215       -0.09834529
H          -1.29869573       -0.89236215        0.09834529
H           1.29869573        0.89236215        0.09834529
H           1.29869573       -0.89236215       -0.09834529
6
MD Time 1740.00
C          -0.65924684        0.00000000       -0.00000000
C           0.65924684       -0.00000000       -0.00000000
H          -1.30587392        0.88252607       -0.09581820
H          -1.30587392       -0.88252607        0.09581820
H           1.30587392        0.88252607        0.09581820
H           1.30587392       -0.88252607       -0.09581820
6
MD Time 1750.00
C          -0.64922511        0.00000000       -0.00000000
C           0.64922511       -0.00000000       -0.00000000
H          -1.31239288        0.87267598       -0.09200284
H          -1.31239288       -0.87267598        0.09200284
H           1.31239288        0.87267598        0.09200284
H           1.31239288       -0.87267598       -0.09200284
6
MD Time 1760.00
C          -0.63899573        0.00000000       -0.00000000
C           0.63899573       -0.00000000       -0.00000000
H          -1.31810755        0.86281646       -0.08699584
H          -1.31810755       -0.86281646        0.08699584
H           1.31810755        0.86281646        0.08699584
H           1.31810755       -0.86281646       -0.08699584
6
MD Time 1770.00
C          -0.62861497        0.00000000       -0.00000000
C           0.62861497       -0.00000000       -0.00000000
H          -1.32287979        0.85296107       -0.08090170
H          -1.32287979       -0.85296107        0.08090170
H           1.32287979        0.85296107        0.08090170
H           1.32287979       -0.85296107       -0.08090170
6
MD Time 1780.00
C          -0.61814758        0.00000000       -0.00000000
C           0.61814758       -0.00000000       -0.00000000
H          -1.32658267        0.84313541       -0.07383167
H          -1.32658267       -0.84313541        0.07383167
H           1.32658267        0.84313541        0.07383167
H           1.32658267       -0.84313541       -0.07383167
6
MD Time 1790.00
C          -0.60766867        0.00000000       -0.00000000
C           0.60766867       -0.00000000       -0.00000000
H          -1.32910442        0.83337987       -0.06590243
H          -1.32910442       -0.83337987        0.06590243
H           1.32910442        0.83337987        0.06590243
H           1.32910442       -0.83337987       -0.06590243
6
MD Time 1800.00
C          -0.59726581        0.00000000       -0.00000000
C           0.59726581       -0.00000000       -0.00000000
H          -1.33035207        0.82375183       -0.05723448
H          -1.33035207       -0.82375183        0.05723448
H           1.33035207        0.82375183        0.05723448
H           1.33035207       -0.82375183       -0.05723448
6
MD Time 1810.00
C          -0.58704121        0.00000000        0.00000000
C           0.58704121       -0.00000000       -0.00000000
H          -1.33025470        0.81432719       -0.04795050
H          -1.33025470       -0.81432719        0.04795050
H           1.33025470        0.81432719        0.04795050
H           1.33025470       -0.81432719       -0.04795050
6
MD Time 1820.00
C          -0.57711328        0.00000000        0.00000000
C           0.57711328       -0.00000000       -0.00000000
H          -1.32876611        0.80520128       -0.03817344
H          -1.32876611       -0.80520128        0.03817344
H           1.32876611        0.80520128        0.03817344
H           1.32876611       -0.80520128       -0.03817344
6
MD Time 1830.00
C          -0.56761724        0.00000000        0.00000000
C           0.56761724        0.00000000       -0.00000000
H          -1.32586713        0.79648897       -0.02802475
H          -1.32586713       -0.79648897        0.02802475
H           1.32586713        0.79648897        0.02802475
H           1.32586713       -0.79648897       -0.02802475
6
MD Time 1840.00
C          -0.55870412        0.00000000        0.00000000
C           0.55870412        0.00000000       -0.00000000
H          -1.32156742        0.78832405       -0.01762258
H          -1.32156742       -0.78832405        0.01762258
H           1.32156742        0.78832405        0.01762258
H           1.32156742       -0.78832405       -0.01762258
6
MD Time 1850.00
C          -0.55053743       -0.00000000        0.00000000
C           0.55053743        0.00000000       -0.00000000
H          -1.31590686        0.78085772       -0.00708008
H          -1.31590686       -0.78085772        0.00708008
H           1.31590686        0.78085772        0.00708008
H           1.31590686       -0.78085772       -0.00708008
6
MD Time 1860.00
C          -0.54328721       -0.00000000        0.00000000
C           0.54328721        0.00000000       -0.00000000
H          -1.30895644        0.77425639        0.00349613
H          -1.30895644       -0.77425639       -0.00349613
H           1.30895644        0.77425639       -0.00349613
H           1.30895644       -0.77425639        0.00349613
6
MD Time 1870.00
C          -0.53712137       -0.00000000        0.00000000
C           0.53712137        0.00000000       -0.00000000
H          -1.30081848        0.76869860        0.01400729
H          -1.30081848       -0.76869860       -0.01400729
H           1.30081848        0.76869860       -0.01400729
H           1.30081848       -0.76869860        0.01400729
6
MD Time 1880.00
C          -0.53219479       -0.00000000        0.00000000
C           0.53219479        0.00000000       -0.00000000
H          -1.29162598        0.76437116        0.02436372
H          -1.29162598       -0.76437116       -0.02436372
H           1.29162598        0.76437116       -0.02436372
H           1.29162598       -0.76437116        0.02436372
6
MD Time 1890.00
C          -0.52863721       -0.00000000        0.00000000
C           0.52863721        0.00000000       -0.00000000
H          -1.28154070        0.76146445        0.03448578
H          -1.28154070       -0.76146445       -0.03448578
H           1.28154070        0.76146445       -0.03448578
H           1.28154070       -0.76146445        0.03448578
6
MD Time 1900.00
C          -0.52654174       -0.00000000        0.00000000
C           0.52654174        0.00000000       -0.00000000
H          -1.27074957        0.76016674        0.04430462
H          -1.27074957       -0.76016674       -0.04430462
H           1.27074957        0.76016674       -0.04430462
H           1.27074957       -0.76016674        0.04430462
6
MD Time 1910.00
C          -0.52595578       -0.00000000        0.00000000
C           0.52595578        0.00000000       -0.00000000
H          -1.25945897        0.76065744        0.05376272
H          -1.25945897       -0.76065744       -0.05376272
H           1.25945897        0.76065744       -0.05376272
H           1.25945897       -0.76065744        0.05376272
6
MD Time 1920.00
C          -0.52687620       -0.00000000        0.00000000
C           0.52687620        0.00000000       -0.00000000
H          -1.24788664        0.76309929        0.06281408
H          -1.24788664       -0.76309929       -0.06281408
H           1.24788664        0.76309929       -0.06281408
H           1.24788664       -0.76309929        0.06281408
6
MD Time 1930.00
C          -0.52924987       -0.00000000        0.00000000
C           0.52924987        0.00000000       -0.00000000
H          -1.23625131        0.76762919        0.07142398
H          -1.23625131       -0.76762919       -0.07142398
H           1.23625131        0.76762919       -0.07142398
H           1.23625131       -0.76762919        0.07142398
6
MD Time 1940.00
C          -0.53297949       -0.00000000        0.00000000
C           0.53297949        0.00000000       -0.00000000
H          -1.22476056        0.77434806        0.07956840
H          -1.22476056       -0.77434806       -0.07956840
H           1.22476056        0.77434806       -0.07956840
H           1.22476056       -0.77434806        0.07956840
6
MD Time 1950.00
C          -0.53793377       -0.00000000        0.00000000
C           0.53793377        0.00000000       -0.00000000
H          -1.21359804        0.78331018        0.08723291
H          -1.21359804       -0.78331018       -0.08723291
H           1.21359804        0.78331018       -0.08723291
H           1.21359804       -0.78331018        0.08723291
6
MD Time 1960.00
C          -0.54396014       -0.00000000        0.00000000
C           0.54396014        0.00000000       -0.00000000
H          -1.20291179        0.79451282        0.09441124
H          -1.20291179       -0.79451282       -0.09441124
H           1.20291179        0.79451282       -0.09441124
H           1.20291179       -0.79451282        0.09441124
6
MD Time 1970.00
C          -0.55089780       -0.00000000        0.00000000
C           0.55089780        0.00000000       -0.00000000
H          -1.19280528        0.80788774        0.10110367
H          -1.19280528       -0.80788774       -0.10110367
H           1.19280528        0.80788774       -0.10110367
H           1.19280528       -0.80788774        0.10110367
6
MD Time 1980.00
C          -0.55858933       -0.00000000        0.00000000
C           0.55858933        0.00000000       -0.00000000
H          -1.18333292        0.82329582        0.10731546
H          -1.18333292       -0.82329582       -0.10731546
H           1.18333292        0.82329582       -0.10731546
H           1.18333292       -0.82329582        0.10731546
6
MD Time 1990.00
C          -0.56688961       -0.00000000        0.00000000
C           0.56688961        0.00000000       -0.00000000
H          -1.17450075        0.84052634        0.11305567
H          -1.17450075       -0.84052634       -0.11305567
H           1.17450075        0.84052634       -0.11305567
H           1.17450075       -0.84052634        0.11305567
6
MD Time 2000.00
C          -0.57567147       -0.00000000        0.00000000
C           0.57567147        0.00000000       -0.00000000
H          -1.16627233        0.85930161        0.11833649
H          -1.16627233       -0.85930161       -0.11833649
H           1.16627233        0.85930161       -0.11833649
H           1.16627233       -0.85930161        0.11833649
6
MD Time 2010.00
C          -0.58482824       -0.00000000        0.00000000
C           0.58482824        0.00000000       -0.00000000
H          -1.15857843        0.87928657        0.12317303
H          -1.15857843       -0.87928657       -0.12317303
H           1.15857843        0.87928657       -0.12317303
H           1.15857843       -0.87928657        0.12317303
6
MD Time 2020.00
C          -0.59427374       -0.00000000        0.00000000
C           0.59427374        0.00000000       -0.00000000
H          -1.15132906        0.90010265        0.12758364
H          -1.15132906       -0.90010265       -0.12758364
H           1.15132906        0.90010265       -0.12758364
H           1.15132906       -0.90010265        0.12758364
6
MD Time 2030.00
C          -0.60394045       -0.00000000        0.00000000
C           0.60394045        0.00000000       -0.00000000
H          -1.14442579        0.92134407        0.13159032
H          -1.14442579       -0.92134407       -0.13159032
H           1.14442579        0.92134407       -0.13159032
H           1.14442579       -0.92134407        0.13159032
6
MD Time 2040.00
C          -0.61377651       -0.00000000        0.00000000
C           0.61377651        0.00000000       -0.00000000
H          -1.13777282        0.94259475        0.13521915
H          -1.13777282       -0.94259475       -0.13521915
H           1.13777282        0.94259475       -0.13521915
H           1.13777282       -0.94259475        0.13521915
6
MD Time 2050.00
C          -0.62374235       -0.00000000        0.00000000
C           0.62374235        0.00000000       -0.00000000
H          -1.13128573        0.96344440        0.13850042
H          -1.13128573       -0.96344440       -0.13850042
H           1.13128573        0.96344440       -0.13850042
H           1.13128573       -0.96344440        0.13850042
6
MD Time 2060.00
C          -0.63380717       -0.00000000        0.00000000
C           0.63380717        0.00000000       -0.00000000
H          -1.12489758        0.98350237        0.14146850
H          -1.12489758       -0.98350237       -0.14146850
H           1.12489758        0.98350237       -0.14146850
H           1.12489758       -0.98350237        0.14146850
6
MD Time 2070.00
C          -0.64394569       -0.00000000        0.00000000
C           0.64394569        0.00000000       -0.00000000
H          -1.11856252        1.00240877        0.14416139
H          -1.11856252       -1.00240877       -0.14416139
H           1.11856252        1.00240877       -0.14416139
H           1.11856252       -1.00240877        0.14416139
6
MD Time 2080.00
C          -0.65413532       -0.00000000        0.00000000
C           0.65413532        0.00000000       -0.00000000
H          -1.11225724        1.01984269        0.14662011
H          -1.11225724       -1.01984269       -0.14662011
H           1.11225724        1.01984269       -0.14662011
H           1.11225724       -1.01984269        0.14662011
6
MD Time 2090.00
C          -0.66435389       -0.00000000        0.00000000
C           0.66435389        0.00000000       -0.00000000
H          -1.10598082        1.03552765        0.14888804
H          -1.10598082       -1.03552765       -0.14888804
H           1.10598082        1.03552765       -0.14888804
H           1.10598082       -1.03552765        0.14888804
6
MD Time 2100.00
C          -0.67457787       -0.00000000        0.00000000
C           0.67457787        0.00000000       -0.00000000
H          -1.09975370        1.04923497        0.15101027
H          -1.09975370       -1.04923497       -0.15101027
H           1.09975370        1.04923497       -0.15101027
H           1.09975370       -1.04923497        0.15101027
6
MD Time 2110.00
C          -0.68478118       -0.00000000        0.00000000
C           0.68478118        0.00000000       -0.00000000
H          -1.09361591        1.06078535        0.15303312
H          -1.09361591       -1.06078535       -0.15303312
H           1.09361591        1.06078535       -0.15303312
H           1.09361591       -1.06078535        0.15303312
6
MD Time 2120.00
C          -0.69493457       -0.00000000        0.00000000
C           0.69493457        0.00000000       -0.00000000
H          -1.08762516        1.07004948        0.15500386
H          -1.08762516       -1.07004948       -0.15500386
H           1.08762516        1.07004948       -0.15500386
H           1.08762516       -1.07004948        0.15500386
6
MD Time 2130.00
C          -0.70500535       -0.00000000        0.00000000
C           0.70500535        0.00000000       -0.00000000
H          -1.08185483        1.07694797        0.15697058
H          -1.08185483       -1.07694797       -0.15697058
H           1.08185483        1.07694797       -0.15697058
H           1.08185483       -1.07694797        0.15697058
6
MD Time 2140.00
C          -0.71495753       -0.00000000        0.00000000
C           0.71495753        0.00000000       -0.00000000
H          -1.07639202        1.08145110        0.15898227
H          -1.07639202       -1.08145110       -0.15898227
H           1.07639202        1.08145110       -0.15898227
H           1.07639202       -1.08145110        0.15898227
6
MD Time 2150.00
C          -0.72475228       -0.00000000        0.00000000
C           0.72475228        0.00000000       -0.00000000
H          -1.07133566        1.08357843        0.16108900
H          -1.07133566       -1.08357843       -0.16108900
H           1.07133566        1.08357843       -0.16108900
H           1.07133566       -1.08357843        0.16108900
6
MD Time 2160.00
C          -0.73434843       -0.00000000        0.00000000
C           0.73434843        0.00000000       -0.00000000
H          -1.06679485        1.08339844        0.16334221
H          -1.06679485       -1.08339844       -0.16334221
H           1.06679485        1.08339844       -0.16334221
H           1.06679485       -1.08339844        0.16334221
6
MD Time 2170.00
C          -0.74370318       -0.00000000        0.00000000
C           0.74370318        0.00000000       -0.00000000
H          -1.06288714        1.08102822        0.16579505
H          -1.06288714       -1.08102822       -0.16579505
H           1.06288714        1.08102822       -0.16579505
H           1.06288714       -1.08102822        0.16579505
6
MD Time 2180.00
C          -0.75277281       -0.00000000        0.00000000
C           0.75277281        0.00000000       -0.00000000
H          -1.05973687        1.07663276        0.16850266
H          -1.05973687       -1.07663276       -0.16850266
H           1.05973687        1.07663276       -0.16850266
H           1.05973687       -1.07663276        0.16850266
6
MD Time 2190.00
C          -0.76151339       -0.00000000        0.00000000
C           0.76151339        0.00000000       -0.00000000
H          -1.05747345        1.07042381        0.17152238
H          -1.05747345       -1.07042381       -0.17152238
H           1.05747345        1.07042381       -0.17152238
H           1.05747345       -1.07042381        0.17152238
6
MD Time 2200.00
C          -0.76988144       -0.00000000        0.00000000
C           0.76988144        0.00000000       -0.00000000
H          -1.05622949        1.06265752        0.17491375
H          -1.05622949       -1.06265752       -0.17491375
H           1.05622949        1.06265752       -0.17491375
H           1.05622949       -1.06265752        0.17491375
6
MD Time 2210.00
C          -0.77783465       -0.00000000        0.00000000
C           0.77783465        0.00000000       -0.00000000
H          -1.05613864        1.05363066        0.17873824
H          -1.05613864       -1.05363066       -0.17873824
H           1.05613864        1.05363066       -0.17873824
H           1.05613864       -1.05363066        0.17873824
6
MD Time 2220.00
C          -0.78533252       -0.00000000        0.00000000
C           0.78533252        0.00000000       -0.00000000
H          -1.05733312        1.04367450        0.18305853
H          -1.05733312       -1.04367450       -0.18305853
H           1.05733312        1.04367450       -0.18305853
H           1.05733312       -1.04367450        0.18305853
6
MD Time 2230.00
C          -0.79233707       -0.00000000        0.00000000
C           0.79233707        0.00000000       -0.00000000
H          -1.05994073        1.03314594        0.18793729
H          -1.05994073       -1.03314594       -0.18793729
H           1.05994073        1.03314594       -0.18793729
H           1.05994073       -1.03314594        0.18793729
6
MD Time 2240.00
C          -0.79881351       -0.00000000        0.00000000
C           0.79881351        0.00000000       -0.00000000
H          -1.06408138        1.02241541        0.19343521
H          -1.06408138       -1.02241541       -0.19343521
H           1.06408138        1.02241541       -0.19343521
H           1.06408138       -1.02241541        0.19343521
6
MD Time 2250.00
C          -0.80473108       -0.00000000        0.00000000
C           0.80473108        0.00000000       -0.00000000
H          -1.06986290        1.01185146        0.19960832
H          -1.06986290       -1.01185146       -0.19960832
H           1.06986290        1.01185146       -0.19960832
H           1.06986290       -1.01185146        0.19960832
6
MD Time 2260.00
C          -0.81006382       -0.00000000        0.00000000
C           0.81006382        0.00000000       -0.00000000
H          -1.07737629        1.00180244        0.20650436
H          -1.07737629       -1.00180244       -0.20650436
H           1.07737629        1.00180244       -0.20650436
H           1.07737629       -1.00180244        0.20650436
6
MD Time 2270.00
C          -0.81479149       -0.00000000        0.00000000
C           0.81479149        0.00000000       -0.00000000
H          -1.08669036        0.99257638        0.21415857
H          -1.08669036       -0.99257638       -0.21415857
H           1.08669036        0.99257638       -0.21415857
H           1.08669036       -0.99257638        0.21415857
6
MD Time 2280.00
C          -0.81890045       -0.00000000        0.00000000
C           0.81890045        0.00000000       -0.00000000
H          -1.09784605        0.98442088        0.22258890
H          -1.09784605       -0.98442088       -0.22258890
H           1.09784605        0.98442088       -0.22258890
H           1.09784605       -0.98442088        0.22258890
6
MD Time 2290.00
C          -0.82238454       -0.00000000        0.00000000
C           0.82238454        0.00000000       -0.00000000
H          -1.11085088        0.97750530        0.23179125
H          -1.11085088       -0.97750530       -0.23179125
H           1.11085088        0.97750530       -0.23179125
H           1.11085088       -0.97750530        0.23179125
6
MD Time 2300.00
C          -0.82524579       -0.00000000        0.00000000
C           0.82524579        0.00000000       -0.00000000
H          -1.12567388        0.97190790        0.24173535
H          -1.12567388       -0.97190790       -0.24173535
H           1.12567388        0.97190790       -0.24173535
H           1.12567388       -0.97190790        0.24173535
6
MD Time 2310.00
C          -0.82749486       -0.00000000        0.00000000
C           0.82749486        0.00000000       -0.00000000
H          -1.14224186        0.96760987        0.25236192
H          -1.14224186       -0.96760987       -0.25236192
H           1.14224186        0.96760987       -0.25236192
H           1.14224186       -0.96760987        0.25236192
6
MD Time 2320.00
C          -0.82915124       -0.00000000        0.00000000
C           0.82915124        0.00000000       -0.00000000
H          -1.16043755        0.96449758        0.26358169
H          -1.16043755       -0.96449758       -0.26358169
H           1.16043755        0.96449758       -0.26358169
H           1.16043755       -0.96449758        0.26358169
6
MD Time 2330.00
C          -0.83024293       -0.00000000        0.00000000
C           0.83024293        0.00000000       -0.00000000
H          -1.18010008        0.96237290        0.27527668
H          -1.18010008       -0.96237290       -0.27527668
H           1.18010008        0.96237290       -0.27527668
H           1.18010008       -0.96237290        0.27527668
6
MD Time 2340.00
C          -0.83080575       -0.00000000        0.00000000
C           0.83080575        0.00000000       -0.00000000
H          -1.20102808        0.96097000        0.28730361
H          -1.20102808       -0.96097000       -0.28730361
H           1.20102808        0.96097000       -0.28730361
H           1.20102808       -0.96097000        0.28730361
6
MD Time 2350.00
C          -0.83088225       -0.00000000        0.00000000
C           0.83088225        0.00000000       -0.00000000
H          -1.22298507        0.95997643        0.29949927
H          -1.22298507       -0.95997643       -0.29949927
H           1.22298507        0.95997643       -0.29949927
H           1.22298507       -0.95997643        0.29949927
6
MD Time 2360.00
C          -0.83052029       -0.00000000        0.00000000
C           0.83052029        0.00000000       -0.00000000
H          -1.24570684        0.95905563        0.31168697
H          -1.24570684       -0.95905563       -0.31168697
H           1.24570684        0.95905563       -0.31168697
H           1.24570684       -0.95905563        0.31168697
6
MD Time 2370.00
C          -0.82977149       -0.00000000        0.00000000
C           0.82977149        0.00000000       -0.00000000
H          -1.26891000        0.95786829        0.32368351
H          -1.26891000       -0.95786829       -0.32368351
H           1.26891000        0.95786829       -0.32368351
H           1.26891000       -0.95786829        0.32368351
6
MD Time 2380.00
C          -0.82868963       -0.00000000        0.00000000
C           0.82868963        0.00000000       -0.00000000
H          -1.29230091        0.95609093        0.33530605
H          -1.29230091       -0.95609093       -0.33530605
H           1.29230091        0.95609093       -0.33530605
H           1.29230091       -0.95609093        0.33530605
6
MD Time 2390.00
C          -0.82732907       -0.00000000        0.00000000
C           0.82732907        0.00000000       -0.00000000
H          -1.31558437        0.95343051        0.34637807
H          -1.31558437       -0.95343051       -0.34637807
H           1.31558437        0.95343051       -0.34637807
H           1.31558437       -0.95343051        0.34637807
6
MD Time 2400.00
C          -0.82574337       -0.00000000        0.00000000
C           0.82574337        0.00000000       -0.00000000
H          -1.33847148        0.94963494        0.35673446
H          -1.33847148       -0.94963494       -0.35673446
H           1.33847148        0.94963494       -0.35673446
H           1.33847148       -0.94963494        0.35673446
6
MD Time 2410.00
C          -0.82398414       -0.00000000        0.00000000
C           0.82398414        0.00000000       -0.00000000
H          -1.36068638        0.94449985        0.36622541
H          -1.36068638       -0.94449985       -0.36622541
H           1.36068638        0.94449985       -0.36622541
H           1.36068638       -0.94449985        0.36622541
6
MD Time 2420.00
C          -0.82209998       -0.00000000       -0.00000000
C           0.82209998        0.00000000       -0.00000000
H          -1.38197186        0.93787223        0.37471919
H          -1.38197186       -0.93787223       -0.37471919
H           1.38197186        0.93787223       -0.37471919
H           1.38197186       -0.93787223        0.37471919
6
MD Time 2430.00
C          -0.82013576       -0.00000000       -0.00000000
C           0.82013576        0.00000000       -0.00000000
H          -1.40209375        0.92965181        0.38210414
H          -1.40209375       -0.92965181       -0.38210414
H           1.40209375        0.92965181       -0.38210414
H           1.40209375       -0.92965181        0.38210414
6
MD Time 2440.00
C          -0.81813193       -0.00000000       -0.00000000
C           0.81813193        0.00000000       -0.00000000
H          -1.42084446        0.91979088        0.38828986
H          -1.42084446       -0.91979088       -0.38828986
H           1.42084446        0.91979088       -0.38828986
H           1.42084446       -0.91979088        0.38828986
6
MD Time 2450.00
C          -0.81612406       -0.00000000       -0.00000000
C           0.81612406        0.00000000       -0.00000000
H          -1.43804574        0.90829339        0.39320800
H          -1.43804574       -0.90829339       -0.39320800
H           1.43804574        0.90829339       -0.39320800
H           1.43804574       -0.90829339        0.39320800
6
MD Time 2460.00
C          -0.81414232       -0.00000000       -0.00000000
C           0.81414232        0.00000000       -0.00000000
H          -1.45355108        0.89521359        0.39681281
H          -1.45355108       -0.89521359       -0.39681281
H           1.45355108        0.89521359       -0.39681281
H           1.45355108       -0.89521359        0.39681281
6
MD Time 2470.00
C          -0.81221112       -0.00000000       -0.00000000
C           0.81221112        0.00000000        0.00000000
H          -1.46724776        0.88065480        0.39908152
H          -1.46724776       -0.88065480       -0.39908152
H           1.46724776        0.88065480       -0.39908152
H           1.46724776       -0.88065480        0.39908152
6
MD Time 2480.00
C          -0.81034869       -0.00000000       -0.00000000
C           0.81034869        0.00000000        0.00000000
H          -1.47905903        0.86476840        0.40001486
H          -1.47905903       -0.86476840       -0.40001486
H           1.47905903        0.86476840       -0.40001486
H           1.47905903       -0.86476840        0.40001486
6
MD Time 2490.00
C          -0.80856662       -0.00000000       -0.00000000
C           0.80856662        0.00000000        0.00000000
H          -1.48894617        0.84775304        0.39963752
H          -1.48894617       -0.84775304       -0.39963752
H           1.48894617        0.84775304       -0.39963752
H           1.48894617       -0.84775304        0.39963752
6
MD Time 2500.00
C          -0.80686950       -0.00000000       -0.00000000
C           0.80686950        0.00000000        0.00000000
H          -1.49691069        0.82985400        0.39799873
H          -1.49691069       -0.82985400       -0.39799873
H           1.49691069        0.82985400       -0.39799873
H           1.49691069       -0.82985400        0.39799873
6
MD Time 2510.00
C          -0.80525447       -0.00000000       -0.00000000
C           0.80525447        0.00000000        0.00000000
H          -1.50299635        0.81136247        0.39517267
H          -1.50299635       -0.81136247       -0.39517267
H           1.50299635        0.81136247       -0.39517267
H           1.50299635       -0.81136247        0.39517267
6
MD Time 2520.00
C          -0.80371090       -0.00000000       -0.00000000
C           0.80371090        0.00000000        0.00000000
H          -1.50729073        0.79261417        0.39125873
H          -1.50729073       -0.79261417       -0.39125873
H           1.50729073        0.79261417       -0.39125873
H           1.50729073       -0.79261417        0.39125873
6
MD Time 2530.00
C          -0.80222024       -0.00000000       -0.00000000
C           0.80222024        0.00000000        0.00000000
H          -1.50992596        0.77398690        0.38638101
H          -1.50992596       -0.77398690       -0.38638101
H           1.50992596        0.77398690       -0.38638101
H           1.50992596       -0.77398690        0.38638101
6
MD Time 2540.00
C          -0.80075612       -0.00000000       -0.00000000
C           0.80075612        0.00000000        0.00000000
H          -1.51107762        0.75589608        0.38068697
H          -1.51107762       -0.75589608       -0.38068697
H           1.51107762        0.75589608       -0.38068697
H           1.51107762       -0.75589608        0.38068697
6
MD Time 2550.00
C          -0.79928491        0.00000000       -0.00000000
C           0.79928491        0.00000000        0.00000000
H          -1.51096132        0.73878752        0.37434449
H          -1.51096132       -0.73878752       -0.37434449
H           1.51096132        0.73878752       -0.37434449
H           1.51096132       -0.73878752        0.37434449
6
MD Time 2560.00
C          -0.79776689        0.00000000       -0.00000000
C           0.79776689        0.00000000        0.00000000
H          -1.50982576        0.72312641        0.36753697
H          -1.50982576       -0.72312641       -0.36753697
H           1.50982576        0.72312641       -0.36753697
H           1.50982576       -0.72312641        0.36753697
6
MD Time 2570.00
C          -0.79615808        0.00000000       -0.00000000
C           0.79615808       -0.00000000        0.00000000
H          -1.50794159        0.70938191        0.36045610
H          -1.50794159       -0.70938191       -0.36045610
H           1.50794159        0.70938191       -0.36045610
H           1.50794159       -0.70938191        0.36045610
6
MD Time 2580.00
C          -0.79441295        0.00000000       -0.00000000
C           0.79441295       -0.00000000        0.00000000
H          -1.50558577        0.69800713        0.35329214
H          -1.50558577       -0.69800713       -0.35329214
H           1.50558577        0.69800713       -0.35329214
H           1.50558577       -0.69800713        0.35329214
6
MD Time 2590.00
C          -0.79248777        0.00000000       -0.00000000
C           0.79248777       -0.00000000        0.00000000
H          -1.50302185        0.68941503        0.34622222
H          -1.50302185       -0.68941503       -0.34622222
H           1.50302185        0.68941503       -0.34622222
H           1.50302185       -0.68941503        0.34622222
6
MD Time 2600.00
C          -0.79034445        0.00000000       -0.00000000
C           0.79034445       -0.00000000        0.00000000
H          -1.50047775        0.68395209        0.33939776
H          -1.50047775       -0.68395209       -0.33939776
H           1.50047775        0.68395209       -0.33939776
H           1.50047775       -0.68395209        0.33939776
6
MD Time 2610.00
C          -0.78795439        0.00000000       -0.00000000
C           0.78795439       -0.00000000        0.00000000
H          -1.49812373        0.68187267        0.33293267
H          -1.49812373       -0.68187267       -0.33293267
H           1.49812373        0.68187267       -0.33293267
H           1.49812373       -0.68187267        0.33293267
6
MD Time 2620.00
C          -0.78530171        0.00000000       -0.00000000
C           0.78530171       -0.00000000        0.00000000
H          -1.49605411        0.68331759        0.32689437
H          -1.49605411       -0.68331759       -0.32689437
H           1.49605411        0.68331759       -0.32689437
H           1.49605411       -0.68331759        0.32689437
6
MD Time 2630.00
C          -0.78238532        0.00000000       -0.00000000
C           0.78238532       -0.00000000        0.00000000
H          -1.49427607        0.68830068        0.32129948
H          -1.49427607       -0.68830068       -0.32129948
H           1.49427607        0.68830068       -0.32129948
H           1.49427607       -0.68830068        0.32129948
6
MD Time 2640.00
C          -0.77921940        0.00000000       -0.00000000
C           0.77921940       -0.00000000        0.00000000
H          -1.49270788        0.69670566        0.31611507
H          -1.49270788       -0.69670566       -0.31611507
H           1.49270788        0.69670566       -0.31611507
H           1.49270788       -0.69670566        0.31611507
6
MD Time 2650.00
C          -0.77583219        0.00000000       -0.00000000
C           0.77583219       -0.00000000        0.00000000
H          -1.49118705        0.70829426        0.31126530
H          -1.49118705       -0.70829426       -0.31126530
H           1.49118705        0.70829426       -0.31126530
H           1.49118705       -0.70829426        0.31126530
6
MD Time 2660.00
C          -0.77226335        0.00000000       -0.00000000
C           0.77226335       -0.00000000        0.00000000
H          -1.48948674        0.72272383        0.30664203
H          -1.48948674       -0.72272383       -0.30664203
H           1.48948674        0.72272383       -0.30664203
H           1.48948674       -0.72272383        0.30664203
6
MD Time 2670.00
C          -0.76856043        0.00000000       -0.00000000
C           0.76856043       -0.00000000        0.00000000
H          -1.48733730        0.73957168        0.30211749
H          -1.48733730       -0.73957168       -0.30211749
H           1.48733730        0.73957168       -0.30211749
H           1.48733730       -0.73957168        0.30211749
6
MD Time 2680.00
C          -0.76477495        0.00000000       -0.00000000
C           0.76477495       -0.00000000        0.00000000
H          -1.48444937        0.75836224        0.29755682
H          -1.48444937       -0.75836224       -0.29755682
H           1.48444937        0.75836224       -0.29755682
H           1.48444937       -0.75836224        0.29755682
6
MD Time 2690.00
C          -0.76095879        0.00000000       -0.00000000
C           0.76095879       -0.00000000        0.00000000
H          -1.48053536        0.77859354        0.29282892
H          -1.48053536       -0.77859354       -0.29282892
H           1.48053536        0.77859354       -0.29282892
H           1.48053536       -0.77859354        0.29282892
6
MD Time 2700.00
C          -0.75716109        0.00000000       -0.00000000
C           0.75716109       -0.00000000        0.00000000
H          -1.47532717        0.79976038        0.28781471
H          -1.47532717       -0.79976038       -0.28781471
H           1.47532717        0.79976038       -0.28781471
H           1.47532717       -0.79976038        0.28781471
6
MD Time 2710.00
C          -0.75342587        0.00000000       -0.00000000
C           0.75342587       -0.00000000        0.00000000
H          -1.46858939        0.82137308        0.28241268
H          -1.46858939       -0.82137308       -0.28241268
H           1.46858939        0.82137308       -0.28241268
H           1.46858939       -0.82137308        0.28241268
6
MD Time 2720.00
C          -0.74979050        0.00000000       -0.00000000
C           0.74979050       -0.00000000        0.00000000
H          -1.46012788        0.84297131        0.27654192
H          -1.46012788       -0.84297131       -0.27654192
H           1.46012788        0.84297131       -0.27654192
H           1.46012788       -0.84297131        0.27654192
6
MD Time 2730.00
C          -0.74628467        0.00000000       -0.00000000
C           0.74628467       -0.00000000        0.00000000
H          -1.44979449        0.86413352        0.27014327
H          -1.44979449       -0.86413352       -0.27014327
H           1.44979449        0.86413352       -0.27014327
H           1.44979449       -0.86413352        0.27014327
6
MD Time 2740.00
C          -0.74293003        0.00000000       -0.00000000
C           0.74293003       -0.00000000        0.00000000
H          -1.43748882        0.88448302        0.26317925
H          -1.43748882       -0.88448302       -0.26317925
H           1.43748882        0.88448302       -0.26317925
H           1.43748882       -0.88448302        0.26317925
6
MD Time 2750.00
C          -0.73974001        0.00000000       -0.00000000
C           0.73974001       -0.00000000        0.00000000
H          -1.42315804        0.90369147        0.25563304
H          -1.42315804       -0.90369147       -0.25563304
H           1.42315804        0.90369147       -0.25563304
H           1.42315804       -0.90369147        0.25563304
6
MD Time 2760.00
C          -0.73672002        0.00000000       -0.00000000
C           0.73672002       -0.00000000        0.00000000
H          -1.40679540        0.92148075        0.24750722
H          -1.40679540       -0.92148075       -0.24750722
H           1.40679540        0.92148075       -0.24750722
H           1.40679540       -0.92148075        0.24750722
6
MD Time 2770.00
C          -0.73386767        0.00000000       -0.00000000
C           0.73386767       -0.00000000        0.00000000
H          -1.38843825        0.93762401        0.23882226
H          -1.38843825       -0.93762401       -0.23882226
H           1.38843825        0.93762401       -0.23882226
H           1.38843825       -0.93762401        0.23882226
6
MD Time 2780.00
C          -0.73117309        0.00000000       -0.00000000
C           0.73117309       -0.00000000        0.00000000
H          -1.36816579        0.95194636        0.22961513
H          -1.36816579       -0.95194636       -0.22961513
H           1.36816579        0.95194636       -0.22961513
H           1.36816579       -0.95194636        0.22961513
6
MD Time 2790.00
C          -0.72861928        0.00000000       -0.00000000
C           0.72861928       -0.00000000        0.00000000
H          -1.34609685        0.96432562        0.21993787
H          -1.34609685       -0.96432562       -0.21993787
H           1.34609685        0.96432562       -0.21993787
H           1.34609685       -0.96432562        0.21993787
6
MD Time 2800.00
C          -0.72618248        0.00000000       -0.00000000
C           0.72618248       -0.00000000        0.00000000
H          -1.32238771        0.97469330        0.20985634
H          -1.32238771       -0.97469330       -0.20985634
H           1.32238771        0.97469330       -0.20985634
H           1.32238771       -0.97469330        0.20985634
6
MD Time 2810.00
C          -0.72383254        0.00000000       -0.00000000
C           0.72383254       -0.00000000        0.00000000
H          -1.29723001        0.98303583        0.19944895
H          -1.29723001       -0.98303583       -0.19944895
H           1.29723001        0.98303583       -0.19944895
H           1.29723001       -0.98303583        0.19944895
6
MD Time 2820.00
C          -0.72153337        0.00000000       -0.00000000
C           0.72153337       -0.00000000        0.00000000
H          -1.27084835        0.98939594        0.18880528
H          -1.27084835       -0.98939594       -0.18880528
H           1.27084835        0.98939594       -0.18880528
H           1.27084835       -0.98939594        0.18880528
6
MD Time 2830.00
C          -0.71924355        0.00000000       -0.00000000
C           0.71924355       -0.00000000        0.00000000
H          -1.24349763        0.99387372        0.17802460
H          -1.24349763       -0.99387372       -0.17802460
H           1.24349763        0.99387372       -0.17802460
H           1.24349763       -0.99387372        0.17802460
6
MD Time 2840.00
C          -0.71691699        0.00000000       -0.00000000
C           0.71691699       -0.00000000        0.00000000
H          -1.21545966        0.99662708        0.16721398
H          -1.21545966       -0.99662708       -0.16721398
H           1.21545966        0.99662708       -0.16721398
H           1.21545966       -0.99662708        0.16721398
6
MD Time 2850.00
C          -0.71450386        0.00000000       -0.00000000
C           0.71450386       -0.00000000        0.00000000
H          -1.18703897        0.99787079        0.15648609
H          -1.18703897       -0.99787079       -0.15648609
H           1.18703897        0.99787079       -0.15648609
H           1.18703897       -0.99787079        0.15648609
6
MD Time 2860.00
C          -0.71195174        0.00000000       -0.00000000
C           0.71195174       -0.00000000        0.00000000
H          -1.15855747        0.99787331        0.14595652
H          -1.15855747       -0.99787331       -0.14595652
H           1.15855747        0.99787331       -0.14595652
H           1.15855747       -0.99787331        0.14595652
6
MD Time 2870.00
C          -0.70920702        0.00000000       -0.00000000
C           0.70920702       -0.00000000        0.00000000
H          -1.13034812        0.99695073        0.13574050
H          -1.13034812       -0.99695073       -0.13574050
H           1.13034812        0.99695073       -0.13574050
H           1.13034812       -0.99695073        0.13574050
6
MD Time 2880.00
C          -0.70621658        0.00000000       -0.00000000
C           0.70621658       -0.00000000        0.00000000
H          -1.10274747        0.99545685        0.12594936
H          -1.10274747       -0.99545685       -0.12594936
H           1.10274747        0.99545685       -0.12594936
H           1.10274747       -0.99545685        0.12594936
6
MD Time 2890.00
C          -0.70292960        0.00000000       -0.00000000
C           0.70292960       -0.00000000        0.00000000
H          -1.07608745        0.99376909        0.11668657
H          -1.07608745       -0.99376909       -0.11668657
H           1.07608745        0.99376909       -0.11668657
H           1.07608745       -0.99376909        0.11668657
6
MD Time 2900.00
C          -0.69929954        0.00000000       -0.00000000
C           0.69929954       -0.00000000        0.00000000
H          -1.05068669        0.99227008        0.10804389
H          -1.05068669       -0.99227008       -0.10804389
H           1.05068669        0.99227008       -0.10804389
H           1.05068669       -0.99227008        0.10804389
6
MD Time 2910.00
C          -0.69528606        0.00000000       -0.00000000
C           0.69528606       -0.00000000        0.00000000
H          -1.02684198        0.99132572        0.10009769
H          -1.02684198       -0.99132572       -0.10009769
H           1.02684198        0.99132572       -0.10009769
H           1.02684198       -0.99132572        0.10009769
6
MD Time 2920.00
C          -0.69085674        0.00000000       -0.00000000
C           0.69085674       -0.00000000        0.00000000
H          -1.00482029        0.99126130        0.09290600
H          -1.00482029       -0.99126130       -0.09290600
H           1.00482029        0.99126130       -0.09290600
H           1.00482029       -0.99126130        0.09290600
6
MD Time 2930.00
C          -0.68598846        0.00000000       -0.00000000
C           0.68598846       -0.00000000        0.00000000
H          -0.98485206        0.99233797        0.08650638
H          -0.98485206       -0.99233797       -0.08650638
H           0.98485206        0.99233797       -0.08650638
H           0.98485206       -0.99233797        0.08650638
6
MD Time 2940.00
C          -0.68066837        0.00000000       -0.00000000
C           0.68066837       -0.00000000        0.00000000
H          -0.96712594        0.99473238        0.08091491
H          -0.96712594       -0.99473238       -0.08091491
H           0.96712594        0.99473238       -0.08091491
H           0.96712594       -0.99473238        0.08091491
6
MD Time 2950.00
C          -0.67489423        0.00000000       -0.00000000
C           0.67489423       -0.00000000        0.00000000
H          -0.95178550        0.99852241        0.07612632
H          -0.95178550       -0.99852241       -0.07612632
H           0.95178550        0.99852241       -0.07612632
H           0.95178550       -0.99852241        0.07612632
6
MD Time 2960.00
C          -0.66867434        0.00000000       -0.00000000
C           0.66867434       -0.00000000        0.00000000
H          -0.93892779        1.00368079        0.07211523
H          -0.93892779       -1.00368079       -0.07211523
H           0.93892779        1.00368079       -0.07211523
H           0.93892779       -1.00368079        0.07211523
6
MD Time 2970.00
C          -0.66202701        0.00000000       -0.00000000
C           0.66202701       -0.00000000        0.00000000
H          -0.92860367        1.01007762        0.06883814
H          -0.92860367       -1.01007762       -0.06883814
H           0.92860367        1.01007762       -0.06883814
H           0.92860367       -1.01007762        0.06883814
6
MD Time 2980.00
C          -0.65497980        0.00000000       -0.00000000
C           0.65497980       -0.00000000        0.00000000
H          -0.92081969        1.01749107        0.06623611
H          -0.92081969       -1.01749107       -0.06623611
H           0.92081969        1.01749107       -0.06623611
H           0.92081969       -1.01749107        0.06623611
6
MD Time 2990.00
C          -0.64756860        0.00000000       -0.00000000
C           0.64756860       -0.00000000        0.00000000
H          -0.91554111        1.02562446        0.06423771
H          -0.91554111       -1.02562446       -0.06423771
H           0.91554111        1.02562446       -0.06423771
H           0.91554111       -1.02562446        0.06423771
