6
MD Time 0.00
C          -1.00424993        0.00000000        0.00000000
C           1.00424993        0.00000000        0.00000000
H          -1.57974221        0.85087473        0.35244385
H          -1.57974221       -0.85087473       -0.35244385
H           1.57974221        0.85087473       -0.35244385
H           1.57974221       -0.85087473        0.35244385
6
MD Time 10.00
C          -1.00412930        0.00000000       -0.00000000
C           1.00412930       -0.00000000       -0.00000000
H          -1.57960193        0.85103956        0.35239602
H          -1.57960193       -0.85103956       -0.35239602
H           1.57960193        0.85103956       -0.35239602
H           1.57960193       -0.85103956        0.35239602
6
MD Time 20.00
C          -1.00376768        0.00000000       -0.00000000
C           1.00376768       -0.00000000       -0.00000000
H          -1.57917934        0.85153023        0.35225146
H          -1.57917934       -0.85153023       -0.35225146
H           1.57917934        0.85153023       -0.35225146
H           1.57917934       -0.85153023        0.35225146
6
MD Time 30.00
C          -1.00316582        0.00000000       -0.00000000
C           1.00316582       -0.00000000       -0.00000000
H          -1.57846923        0.85233533        0.35200706
H          -1.57846923       -0.85233533       -0.35200706
H           1.57846923        0.85233533       -0.35200706
H           1.57846923       -0.85233533        0.35200706
6
MD Time 40.00
C          -1.00232490        0.00000000       -0.00000000
C           1.00232490       -0.00000000       -0.00000000
H          -1.57746324        0.85343634        0.35165784
H          -1.57746324       -0.85343634       -0.35165784
H           1.57746324        0.85343634       -0.35165784
H           1.57746324       -0.85343634        0.35165784
6
MD Time 50.00
C          -1.00124650        0.00000000       -0.00000000
C           1.00124650       -0.00000000       -0.00000000
H          -1.57615029        0.85480837        0.35119721
H          -1.57615029       -0.85480837       -0.35119721
H           1.57615029        0.85480837       -0.35119721
H           1.57615029       -0.85480837        0.35119721
6
MD Time 60.00
C          -0.99993244        0.00000000       -0.00000000
C           0.99993244       -0.00000000       -0.00000000
H          -1.57451722        0.85642110        0.35061736
H          -1.57451722       -0.85642110       -0.35061736
H           1.57451722        0.85642110       -0.35061736
H           1.57451722       -0.85642110        0.35061736
6
MD Time 70.00
C          -0.99838471        0.00000000       -0.00000000
C           0.99838471       -0.00000000       -0.00000000
H          -1.57254943        0.85823987        0.34990970
H          -1.57254943       -0.85823987       -0.34990970
H           1.57254943        0.85823987       -0.34990970
H           1.57254943       -0.85823987        0.34990970
6
MD Time 80.00
C          -0.99660528        0.00000000       -0.00000000
C           0.99660528       -0.00000000       -0.00000000
H          -1.57023173        0.86022702        0.34906535
H          -1.57023173       -0.86022702       -0.34906535
H           1.57023173        0.86022702       -0.34906535
H           1.57023173       -0.86022702        0.34906535
6
MD Time 90.00
C          -0.99459602        0.00000000       -0.00000000
C           0.99459602       -0.00000000       -0.00000000
H          -1.56754911        0.86234318        0.34807561
H          -1.56754911       -0.86234318       -0.34807561
H           1.56754911        0.86234318       -0.34807561
H           1.56754911       -0.86234318        0.34807561
6
MD Time 100.00
C          -0.99235851        0.00000000       -0.00000000
C           0.99235851       -0.00000000       -0.00000000
H          -1.56448755        0.86454862        0.34693250
H          -1.56448755       -0.86454862       -0.34693250
H           1.56448755        0.86454862       -0.34693250
H           1.56448755       -0.86454862        0.34693250
6
MD Time 110.00
C          -0.98989393        0.00000000       -0.00000000
C           0.98989393       -0.00000000       -0.00000000
H          -1.56103482        0.86680462        0.34562918
H          -1.56103482       -0.86680462       -0.34562918
H           1.56103482        0.86680462       -0.34562918
H           1.56103482       -0.86680462        0.34562918
6
MD Time 120.00
C          -0.98720293        0.00000000       -0.00000000
C           0.98720293       -0.00000000       -0.00000000
H          -1.55718116        0.86907466        0.34416039
H          -1.55718116       -0.86907466       -0.34416039
H           1.55718116        0.86907466       -0.34416039
H           1.55718116       -0.86907466        0.34416039
6
MD Time 130.00
C          -0.98428553        0.00000000       -0.00000000
C           0.98428553       -0.00000000       -0.00000000
H          -1.55291989        0.87132554        0.34252284
H          -1.55291989       -0.87132554       -0.34252284
H           1.55291989        0.87132554       -0.34252284
H           1.55291989       -0.87132554        0.34252284
6
MD Time 140.00
C          -0.98114101        0.00000000       -0.00000000
C           0.98114101       -0.00000000       -0.00000000
H          -1.54824790        0.87352834        0.34071540
H          -1.54824790       -0.87352834       -0.34071540
H           1.54824790        0.87352834       -0.34071540
H           1.54824790       -0.87352834        0.34071540
6
MD Time 150.00
C          -0.97776786        0.00000000       -0.00000000
C           0.97776786       -0.00000000       -0.00000000
H          -1.54316599        0.87565916        0.33873936
H          -1.54316599       -0.87565916       -0.33873936
H           1.54316599        0.87565916       -0.33873936
H           1.54316599       -0.87565916        0.33873936
6
MD Time 160.00
C          -0.97416375        0.00000000       -0.00000000
C           0.97416375       -0.00000000       -0.00000000
H          -1.53767909        0.87769974        0.33659850
H          -1.53767909       -0.87769974       -0.33659850
H           1.53767909        0.87769974       -0.33659850
H           1.53767909       -0.87769974        0.33659850
6
MD Time 170.00
C          -0.97032547        0.00000000       -0.00000000
C           0.97032547       -0.00000000       -0.00000000
H          -1.53179633        0.87963774        0.33429909
H          -1.53179633       -0.87963774       -0.33429909
H           1.53179633        0.87963774       -0.33429909
H           1.53179633       -0.87963774        0.33429909
6
MD Time 180.00
C          -0.96624896        0.00000000       -0.00000000
C           0.96624896       -0.00000000       -0.00000000
H          -1.52553092        0.88146688        0.33184981
H          -1.52553092       -0.88146688       -0.33184981
H           1.52553092        0.88146688       -0.33184981
H           1.52553092       -0.88146688        0.33184981
6
MD Time 190.00
C          -0.96192933        0.00000000       -0.00000000
C           0.96192933       -0.00000000       -0.00000000
H          -1.51889994        0.88318685        0.32926155
H          -1.51889994       -0.88318685       -0.32926155
H           1.51889994        0.88318685       -0.32926155
H           1.51889994       -0.88318685        0.32926155
6
MD Time 200.00
C          -0.95736095        0.00000000       -0.00000000
C           0.95736095       -0.00000000       -0.00000000
H          -1.51192396        0.88480297        0.32654715
H          -1.51192396       -0.88480297       -0.32654715
H           1.51192396        0.88480297       -0.32654715
H           1.51192396       -0.88480297        0.32654715
6
MD Time 210.00
C          -0.95253745        0.00000000       -0.00000000
C           0.95253745       -0.00000000       -0.00000000
H          -1.50462651        0.88632565        0.32372104
H          -1.50462651       -0.88632565       -0.32372104
H           1.50462651        0.88632565       -0.32372104
H           1.50462651       -0.88632565        0.32372104
6
MD Time 220.00
C          -0.94745188        0.00000000       -0.00000000
C           0.94745188       -0.00000000       -0.00000000
H          -1.49703348        0.88776964        0.32079883
H          -1.49703348       -0.88776964       -0.32079883
H           1.49703348        0.88776964       -0.32079883
H           1.49703348       -0.88776964        0.32079883
6
MD Time 230.00
C          -0.94209679        0.00000000       -0.00000000
C           0.94209679       -0.00000000       -0.00000000
H          -1.48917238        0.88915314        0.31779683
H          -1.48917238       -0.88915314       -0.31779683
H           1.48917238        0.88915314       -0.31779683
H           1.48917238       -0.88915314        0.31779683
6
MD Time 240.00
C          -0.93646437        0.00000000       -0.00000000
C           0.93646437       -0.00000000       -0.00000000
H          -1.48107156        0.89049673        0.31473156
H          -1.48107156       -0.89049673       -0.31473156
H           1.48107156        0.89049673       -0.31473156
H           1.48107156       -0.89049673        0.31473156
6
MD Time 250.00
C          -0.93054660        0.00000000       -0.00000000
C           0.93054660       -0.00000000       -0.00000000
H          -1.47275932        0.89182221        0.31161916
H          -1.47275932       -0.89182221       -0.31161916
H           1.47275932        0.89182221       -0.31161916
H           1.47275932       -0.89182221        0.31161916
6
MD Time 260.00
C          -0.92433537        0.00000000       -0.00000000
C           0.92433537       -0.00000000       -0.00000000
H          -1.46426311        0.89315138        0.30847490
H          -1.46426311       -0.89315138       -0.30847490
H           1.46426311        0.89315138       -0.30847490
H           1.46426311       -0.89315138        0.30847490
6
MD Time 270.00
C          -0.91782265        0.00000000       -0.00000000
C           0.91782265       -0.00000000       -0.00000000
H          -1.45560862        0.89450484        0.30531263
H          -1.45560862       -0.89450484       -0.30531263
H           1.45560862        0.89450484       -0.30531263
H           1.45560862       -0.89450484        0.30531263
6
MD Time 280.00
C          -0.91100068        0.00000000       -0.00000000
C           0.91100068       -0.00000000       -0.00000000
H          -1.44681900        0.89590073        0.30214433
H          -1.44681900       -0.89590073       -0.30214433
H           1.44681900        0.89590073       -0.30214433
H           1.44681900       -0.89590073        0.30214433
6
MD Time 290.00
C          -0.90386210        0.00000000       -0.00000000
C           0.90386210       -0.00000000       -0.00000000
H          -1.43791413        0.89735377        0.29897967
H          -1.43791413       -0.89735377       -0.29897967
H           1.43791413        0.89735377       -0.29897967
H           1.43791413       -0.89735377        0.29897967
6
MD Time 300.00
C          -0.89640011        0.00000000       -0.00000000
C           0.89640011       -0.00000000       -0.00000000
H          -1.42891005        0.89887424        0.29582572
H          -1.42891005       -0.89887424       -0.29582572
H           1.42891005        0.89887424       -0.29582572
H           1.42891005       -0.89887424        0.29582572
6
MD Time 310.00
C          -0.88860867        0.00000000       -0.00000000
C           0.88860867       -0.00000000       -0.00000000
H          -1.41981845        0.90046736        0.29268669
H          -1.41981845       -0.90046736       -0.29268669
H           1.41981845        0.90046736       -0.29268669
H           1.41981845       -0.90046736        0.29268669
6
MD Time 320.00
C          -0.88048270        0.00000000       -0.00000000
C           0.88048270       -0.00000000       -0.00000000
H          -1.41064638        0.90213277        0.28956385
H          -1.41064638       -0.90213277       -0.28956385
H           1.41064638        0.90213277       -0.28956385
H           1.41064638       -0.90213277        0.28956385
6
MD Time 330.00
C          -0.87201822        0.00000000       -0.00000000
C           0.87201822       -0.00000000       -0.00000000
H          -1.40139618        0.90386440        0.28645552
H          -1.40139618       -0.90386440       -0.28645552
H           1.40139618        0.90386440       -0.28645552
H           1.40139618       -0.90386440        0.28645552
6
MD Time 340.00
C          -0.86321263        0.00000000       -0.00000000
C           0.86321263       -0.00000000       -0.00000000
H          -1.39206551        0.90565057        0.28335728
H          -1.39206551       -0.90565057       -0.28335728
H           1.39206551        0.90565057       -0.28335728
H           1.39206551       -0.90565057        0.28335728
6
MD Time 350.00
C          -0.85406495        0.00000000       -0.00000000
C           0.85406495       -0.00000000       -0.00000000
H          -1.38264763        0.90747442        0.28026218
H          -1.38264763       -0.90747442       -0.28026218
H           1.38264763        0.90747442       -0.28026218
H           1.38264763       -0.90747442        0.28026218
6
MD Time 360.00
C          -0.84457619        0.00000000       -0.00000000
C           0.84457619       -0.00000000       -0.00000000
H          -1.37313186        0.90931453        0.27716118
H          -1.37313186       -0.90931453       -0.27716118
H           1.37313186        0.90931453       -0.27716118
H           1.37313186       -0.90931453        0.27716118
6
MD Time 370.00
C          -0.83474966        0.00000000       -0.00000000
C           0.83474966       -0.00000000       -0.00000000
H          -1.36350417        0.91114588        0.27404361
H          -1.36350417       -0.91114588       -0.27404361
H           1.36350417        0.91114588       -0.27404361
H           1.36350417       -0.91114588        0.27404361
6
MD Time 380.00
C          -0.82459155        0.00000000       -0.00000000
C           0.82459155       -0.00000000       -0.00000000
H          -1.35374795        0.91294090        0.27089780
H          -1.35374795       -0.91294090       -0.27089780
H           1.35374795        0.91294090       -0.27089780
H           1.35374795       -0.91294090        0.27089780
6
MD Time 390.00
C          -0.81411142        0.00000000       -0.00000000
C           0.81411142       -0.00000000       -0.00000000
H          -1.34384489        0.91467076        0.26771169
H          -1.34384489       -0.91467076       -0.26771169
H           1.34384489        0.91467076       -0.26771169
H           1.34384489       -0.91467076        0.26771169
6
MD Time 400.00
C          -0.80332295        0.00000000       -0.00000000
C           0.80332295       -0.00000000       -0.00000000
H          -1.33377597        0.91630667        0.26447356
H          -1.33377597       -0.91630667       -0.26447356
H           1.33377597        0.91630667       -0.26447356
H           1.33377597       -0.91630667        0.26447356
6
MD Time 410.00
C          -0.79224472        0.00000000       -0.00000000
C           0.79224472       -0.00000000       -0.00000000
H          -1.32352252        0.91782127        0.26117269
H          -1.32352252       -0.91782127       -0.26117269
H           1.32352252        0.91782127       -0.26117269
H           1.32352252       -0.91782127        0.26117269
6
MD Time 420.00
C          -0.78090108        0.00000000       -0.00000000
C           0.78090108       -0.00000000       -0.00000000
H          -1.31306728        0.91918998        0.25780013
H          -1.31306728       -0.91918998       -0.25780013
H           1.31306728        0.91918998       -0.25780013
H           1.31306728       -0.91918998        0.25780013
6
MD Time 430.00
C          -0.76932319        0.00000000       -0.00000000
C           0.76932319       -0.00000000       -0.00000000
H          -1.30239563        0.92039229        0.25434929
H          -1.30239563       -0.92039229       -0.25434929
H           1.30239563        0.92039229       -0.25434929
H           1.30239563       -0.92039229        0.25434929
6
MD Time 440.00
C          -0.75755007        0.00000000       -0.00000000
C           0.75755007       -0.00000000       -0.00000000
H          -1.29149665        0.92141299        0.25081661
H          -1.29149665       -0.92141299       -0.25081661
H           1.29149665        0.92141299       -0.25081661
H           1.29149665       -0.92141299        0.25081661
6
MD Time 450.00
C          -0.74562964        0.00000000       -0.00000000
C           0.74562964       -0.00000000       -0.00000000
H          -1.28036430        0.92224325        0.24720208
H          -1.28036430       -0.92224325       -0.24720208
H           1.28036430        0.92224325       -0.24720208
H           1.28036430       -0.92224325        0.24720208
6
MD Time 460.00
C          -0.73361985        0.00000000       -0.00000000
C           0.73361985       -0.00000000       -0.00000000
H          -1.26899850        0.92288157        0.24350964
H          -1.26899850       -0.92288157       -0.24350964
H           1.26899850        0.92288157       -0.24350964
H           1.26899850       -0.92288157        0.24350964
6
MD Time 470.00
C          -0.72158958        0.00000000       -0.00000000
C           0.72158958       -0.00000000       -0.00000000
H          -1.25740623        0.92333451        0.23974754
H          -1.25740623       -0.92333451       -0.23974754
H           1.25740623        0.92333451       -0.23974754
H           1.25740623       -0.92333451        0.23974754
6
MD Time 480.00
C          -0.70961952        0.00000000       -0.00000000
C           0.70961952       -0.00000000       -0.00000000
H          -1.24560246        0.92361734        0.23592855
H          -1.24560246       -0.92361734       -0.23592855
H           1.24560246        0.92361734       -0.23592855
H           1.24560246       -0.92361734        0.23592855
6
MD Time 490.00
C          -0.69780266        0.00000000       -0.00000000
C           0.69780266       -0.00000000       -0.00000000
H          -1.23361103        0.92375438        0.23207002
H          -1.23361103       -0.92375438       -0.23207002
H           1.23361103        0.92375438       -0.23207002
H           1.23361103       -0.92375438        0.23207002
6
MD Time 500.00
C          -0.68624444        0.00000000       -0.00000000
C           0.68624444       -0.00000000       -0.00000000
H          -1.22146545        0.92377915        0.22819381
H          -1.22146545       -0.92377915       -0.22819381
H           1.22146545        0.92377915       -0.22819381
H           1.22146545       -0.92377915        0.22819381
6
MD Time 510.00
C          -0.67506240        0.00000000       -0.00000000
C           0.67506240       -0.00000000       -0.00000000
H          -1.20920938        0.92373437        0.22432615
H          -1.20920938       -0.92373437       -0.22432615
H           1.20920938        0.92373437       -0.22432615
H           1.20920938       -0.92373437        0.22432615
6
MD Time 520.00
C          -0.66438505        0.00000000       -0.00000000
C           0.66438505       -0.00000000       -0.00000000
H          -1.19689697        0.92367155        0.22049732
H          -1.19689697       -0.92367155       -0.22049732
H           1.19689697        0.92367155       -0.22049732
H           1.19689697       -0.92367155        0.22049732
6
MD Time 530.00
C          -0.65434998        0.00000000       -0.00000000
C           0.65434998       -0.00000000       -0.00000000
H          -1.18459290        0.92365043        0.21674118
H          -1.18459290       -0.92365043       -0.21674118
H           1.18459290        0.92365043       -0.21674118
H           1.18459290       -0.92365043        0.21674118
6
MD Time 540.00
C          -0.64510084        0.00000000       -0.00000000
C           0.64510084       -0.00000000       -0.00000000
H          -1.17237199        0.92373803        0.21309461
H          -1.17237199       -0.92373803       -0.21309461
H           1.17237199        0.92373803       -0.21309461
H           1.17237199       -0.92373803        0.21309461
6
MD Time 550.00
C          -0.63678332        0.00000000       -0.00000000
C           0.63678332       -0.00000000       -0.00000000
H          -1.16031845        0.92400738        0.20959683
H          -1.16031845       -0.92400738       -0.20959683
H           1.16031845        0.92400738       -0.20959683
H           1.16031845       -0.92400738        0.20959683
6
MD Time 560.00
C          -0.62953996        0.00000000       -0.00000000
C           0.62953996       -0.00000000       -0.00000000
H          -1.14852459        0.92453584        0.20628854
H          -1.14852459       -0.92453584       -0.20628854
H           1.14852459        0.92453584       -0.20628854
H           1.14852459       -0.92453584        0.20628854
6
MD Time 570.00
C          -0.62350410        0.00000000       -0.00000000
C           0.62350410       -0.00000000       -0.00000000
H          -1.13708902        0.92540300        0.20321099
H          -1.13708902       -0.92540300       -0.20321099
H           1.13708902        0.92540300       -0.20321099
H           1.13708902       -0.92540300        0.20321099
6
MD Time 580.00
C          -0.61879330       -0.00000000       -0.00000000
C           0.61879330       -0.00000000       -0.00000000
H          -1.12611437        0.92668810        0.20040488
H          -1.12611437       -0.92668810       -0.20040488
H           1.12611437        0.92668810       -0.20040488
H           1.12611437       -0.92668810        0.20040488
6
MD Time 590.00
C          -0.61550264       -0.00000000       -0.00000000
C           0.61550264       -0.00000000       -0.00000000
H          -1.11570449        0.92846697        0.19790922
H          -1.11570449       -0.92846697       -0.19790922
H           1.11570449        0.92846697       -0.19790922
H           1.11570449       -0.92846697        0.19790922
6
MD Time 600.00
C          -0.61369891       -0.00000000       -0.00000000
C           0.61369891       -0.00000000       -0.00000000
H          -1.10596138        0.93080850        0.19576012
H          -1.10596138       -0.93080850       -0.19576012
H           1.10596138        0.93080850       -0.19576012
H           1.10596138       -0.93080850        0.19576012
6
MD Time 610.00
C          -0.61341603       -0.00000000       -0.00000000
C           0.61341603        0.00000000       -0.00000000
H          -1.09698191        0.93377080        0.19398952
H          -1.09698191       -0.93377080       -0.19398952
H           1.09698191        0.93377080       -0.19398952
H           1.09698191       -0.93377080        0.19398952
6
MD Time 620.00
C          -0.61465258       -0.00000000       -0.00000000
C           0.61465258        0.00000000       -0.00000000
H          -1.08885464        0.93739708        0.19262401
H          -1.08885464       -0.93739708       -0.19262401
H           1.08885464        0.93739708       -0.19262401
H           1.08885464       -0.93739708        0.19262401
6
MD Time 630.00
C          -0.61737166       -0.00000000       -0.00000000
C           0.61737166        0.00000000       -0.00000000
H          -1.08165697        0.94171158        0.19168376
H          -1.08165697       -0.94171158       -0.19168376
H           1.08165697        0.94171158       -0.19168376
H           1.08165697       -0.94171158        0.19168376
6
MD Time 640.00
C          -0.62150319       -0.00000000       -0.00000000
C           0.62150319        0.00000000       -0.00000000
H          -1.07545292        0.94671591        0.19118162
H          -1.07545292       -0.94671591       -0.19118162
H           1.07545292        0.94671591       -0.19118162
H           1.07545292       -0.94671591        0.19118162
6
MD Time 650.00
C          -0.62694820       -0.00000000       -0.00000000
C           0.62694820        0.00000000       -0.00000000
H          -1.07029159        0.95238601        0.19112253
H          -1.07029159       -0.95238601       -0.19112253
H           1.07029159        0.95238601       -0.19112253
H           1.07029159       -0.95238601        0.19112253
6
MD Time 660.00
C          -0.63358466       -0.00000000       -0.00000000
C           0.63358466        0.00000000       -0.00000000
H          -1.06620664        0.95867036        0.19150323
H          -1.06620664       -0.95867036       -0.19150323
H           1.06620664        0.95867036       -0.19150323
H           1.06620664       -0.95867036        0.19150323
6
MD Time 670.00
C          -0.64127410       -0.00000000       -0.00000000
C           0.64127410        0.00000000       -0.00000000
H          -1.06321662        0.96548943        0.19231237
H          -1.06321662       -0.96548943       -0.19231237
H           1.06321662        0.96548943       -0.19231237
H           1.06321662       -0.96548943        0.19231237
6
MD Time 680.00
C          -0.64986824       -0.00000000       -0.00000000
C           0.64986824        0.00000000       -0.00000000
H          -1.06132608        0.97273684        0.19353097
H          -1.06132608       -0.97273684       -0.19353097
H           1.06132608        0.97273684       -0.19353097
H           1.06132608       -0.97273684        0.19353097
6
MD Time 690.00
C          -0.65921517       -0.00000000       -0.00000000
C           0.65921517        0.00000000       -0.00000000
H          -1.06052742        0.98028202        0.19513332
H          -1.06052742       -0.98028202       -0.19513332
H           1.06052742        0.98028202       -0.19513332
H           1.06052742       -0.98028202        0.19513332
6
MD Time 700.00
C          -0.66916460       -0.00000000       -0.00000000
C           0.66916460        0.00000000       -0.00000000
H          -1.06080304        0.98797439        0.19708805
H          -1.06080304       -0.98797439       -0.19708805
H           1.06080304        0.98797439       -0.19708805
H           1.06080304       -0.98797439        0.19708805
6
MD Time 710.00
C          -0.67957209       -0.00000000       -0.00000000
C           0.67957209        0.00000000       -0.00000000
H          -1.06212775        0.99564855        0.19935955
H          -1.06212775       -0.99564855       -0.19935955
H           1.06212775        0.99564855       -0.19935955
H           1.06212775       -0.99564855        0.19935955
6
MD Time 720.00
C          -0.69030203       -0.00000000       -0.00000000
C           0.69030203        0.00000000       -0.00000000
H          -1.06447108        1.00313022        0.20190939
H          -1.06447108       -1.00313022       -0.20190939
H           1.06447108        1.00313022       -0.20190939
H           1.06447108       -1.00313022        0.20190939
6
MD Time 730.00
C          -0.70122978       -0.00000000       -0.00000000
C           0.70122978        0.00000000       -0.00000000
H          -1.06779940        1.01024248        0.20469783
H          -1.06779940       -1.01024248       -0.20469783
H           1.06779940        1.01024248       -0.20469783
H           1.06779940       -1.01024248        0.20469783
6
MD Time 740.00
C          -0.71224277       -0.00000000       -0.00000000
C           0.71224277        0.00000000       -0.00000000
H          -1.07207774        1.01681184        0.20768527
H          -1.07207774       -1.01681184       -0.20768527
H           1.07207774        1.01681184       -0.20768527
H           1.07207774       -1.01681184        0.20768527
6
MD Time 750.00
C          -0.72324098       -0.00000000       -0.00000000
C           0.72324098        0.00000000       -0.00000000
H          -1.07727125        1.02267386        0.21083351
H          -1.07727125       -1.02267386       -0.21083351
H           1.07727125        1.02267386       -0.21083351
H           1.07727125       -1.02267386        0.21083351
6
MD Time 760.00
C          -0.73413683       -0.00000000       -0.00000000
C           0.73413683        0.00000000       -0.00000000
H          -1.08334630        1.02767810        0.21410687
H          -1.08334630       -1.02767810       -0.21410687
H           1.08334630        1.02767810       -0.21410687
H           1.08334630       -1.02767810        0.21410687
6
MD Time 770.00
C          -0.74485472       -0.00000000       -0.00000000
C           0.74485472        0.00000000       -0.00000000
H          -1.09027124        1.03169224        0.21747311
H          -1.09027124       -1.03169224       -0.21747311
H           1.09027124        1.03169224       -0.21747311
H           1.09027124       -1.03169224        0.21747311
6
MD Time 780.00
C          -0.75533027       -0.00000000       -0.00000000
C           0.75533027        0.00000000       -0.00000000
H          -1.09801690        1.03460543        0.22090416
H          -1.09801690       -1.03460543       -0.22090416
H           1.09801690        1.03460543       -0.22090416
H           1.09801690       -1.03460543        0.22090416
6
MD Time 790.00
C          -0.76550941       -0.00000000       -0.00000000
C           0.76550941        0.00000000       -0.00000000
H          -1.10655689        1.03633075        0.22437658
H          -1.10655689       -1.03633075       -0.22437658
H           1.10655689        1.03633075       -0.22437658
H           1.10655689       -1.03633075        0.22437658
6
MD Time 800.00
C          -0.77534731       -0.00000000       -0.00000000
C           0.77534731        0.00000000       -0.00000000
H          -1.11586774        1.03680692        0.22787198
H          -1.11586774       -1.03680692       -0.22787198
H           1.11586774        1.03680692       -0.22787198
H           1.11586774       -1.03680692        0.22787198
6
MD Time 810.00
C          -0.78480737       -0.00000000       -0.00000000
C           0.78480737        0.00000000       -0.00000000
H          -1.12592884        1.03599936        0.23137710
H          -1.12592884       -1.03599936       -0.23137710
H           1.12592884        1.03599936       -0.23137710
H           1.12592884       -1.03599936        0.23137710
6
MD Time 820.00
C          -0.79386016       -0.00000000       -0.00000000
C           0.79386016        0.00000000       -0.00000000
H          -1.13672241        1.03390061        0.23488389
H          -1.13672241       -1.03390061       -0.23488389
H           1.13672241        1.03390061       -0.23488389
H           1.13672241       -1.03390061        0.23488389
6
MD Time 830.00
C          -0.80248241       -0.00000000       -0.00000000
C           0.80248241        0.00000000       -0.00000000
H          -1.14823328        1.03053012        0.23838941
H          -1.14823328       -1.03053012       -0.23838941
H           1.14823328        1.03053012       -0.23838941
H           1.14823328       -1.03053012        0.23838941
6
MD Time 840.00
C          -0.81065611       -0.00000000       -0.00000000
C           0.81065611        0.00000000       -0.00000000
H          -1.16044868        1.02593351        0.24189552
H          -1.16044868       -1.02593351       -0.24189552
H           1.16044868        1.02593351       -0.24189552
H           1.16044868       -1.02593351        0.24189552
6
MD Time 850.00
C          -0.81836770       -0.00000000       -0.00000000
C           0.81836770        0.00000000       -0.00000000
H          -1.17335785        1.02018120        0.24540858
H          -1.17335785       -1.02018120       -0.24540858
H           1.17335785        1.02018120       -0.24540858
H           1.17335785       -1.02018120        0.24540858
6
MD Time 860.00
C          -0.82560734       -0.00000000       -0.00000000
C           0.82560734        0.00000000       -0.00000000
H          -1.18695161        1.01336642        0.24893885
H          -1.18695161       -1.01336642       -0.24893885
H           1.18695161        1.01336642       -0.24893885
H           1.18695161       -1.01336642        0.24893885
6
MD Time 870.00
C          -0.83236837       -0.00000000       -0.00000000
C           0.83236837        0.00000000       -0.00000000
H          -1.20122165        1.00560248        0.25249985
H          -1.20122165       -1.00560248       -0.25249985
H           1.20122165        1.00560248       -0.25249985
H           1.20122165       -1.00560248        0.25249985
6
MD Time 880.00
C          -0.83864682       -0.00000000       -0.00000000
C           0.83864682        0.00000000       -0.00000000
H          -1.21615974        0.99701933        0.25610745
H          -1.21615974       -0.99701933       -0.25610745
H           1.21615974        0.99701933       -0.25610745
H           1.21615974       -0.99701933        0.25610745
6
MD Time 890.00
C          -0.84444117       -0.00000000       -0.00000000
C           0.84444117        0.00000000       -0.00000000
H          -1.23175649        0.98775935        0.25977886
H          -1.23175649       -0.98775935       -0.25977886
H           1.23175649        0.98775935       -0.25977886
H           1.23175649       -0.98775935        0.25977886
6
MD Time 900.00
C          -0.84975208       -0.00000000       -0.00000000
C           0.84975208        0.00000000       -0.00000000
H          -1.24799998        0.97797241        0.26353137
H          -1.24799998       -0.97797241       -0.26353137
H           1.24799998        0.97797241       -0.26353137
H           1.24799998       -0.97797241        0.26353137
6
MD Time 910.00
C          -0.85458242       -0.00000000       -0.00000000
C           0.85458242        0.00000000       -0.00000000
H          -1.26487388        0.96781031        0.26738093
H          -1.26487388       -0.96781031       -0.26738093
H           1.26487388        0.96781031       -0.26738093
H           1.26487388       -0.96781031        0.26738093
6
MD Time 920.00
C          -0.85893728       -0.00000000       -0.00000000
C           0.85893728        0.00000000       -0.00000000
H          -1.28235536        0.95742086        0.27134067
H          -1.28235536       -0.95742086       -0.27134067
H           1.28235536        0.95742086       -0.27134067
H           1.28235536       -0.95742086        0.27134067
6
MD Time 930.00
C          -0.86282417       -0.00000000       -0.00000000
C           0.86282417        0.00000000       -0.00000000
H          -1.30041271        0.94694184        0.27541928
H          -1.30041271       -0.94694184       -0.27541928
H           1.30041271        0.94694184       -0.27541928
H           1.30041271       -0.94694184        0.27541928
6
MD Time 940.00
C          -0.86625317       -0.00000000       -0.00000000
C           0.86625317        0.00000000       -0.00000000
H          -1.31900280        0.93649540        0.27961953
H          -1.31900280       -0.93649540       -0.27961953
H           1.31900280        0.93649540       -0.27961953
H           1.31900280       -0.93649540        0.27961953
6
MD Time 950.00
C          -0.86923727       -0.00000000       -0.00000000
C           0.86923727        0.00000000       -0.00000000
H          -1.33806867        0.92618320        0.28393686
H          -1.33806867       -0.92618320       -0.28393686
H           1.33806867        0.92618320       -0.28393686
H           1.33806867       -0.92618320        0.28393686
6
MD Time 960.00
C          -0.87179248       -0.00000000       -0.00000000
C           0.87179248        0.00000000       -0.00000000
H          -1.35753730        0.91608284        0.28835838
H          -1.35753730       -0.91608284       -0.28835838
H           1.35753730        0.91608284       -0.28835838
H           1.35753730       -0.91608284        0.28835838
6
MD Time 970.00
C          -0.87393806       -0.00000000       -0.00000000
C           0.87393806        0.00000000       -0.00000000
H          -1.37731809        0.90624597        0.29286220
H          -1.37731809       -0.90624597       -0.29286220
H           1.37731809        0.90624597       -0.29286220
H           1.37731809       -0.90624597        0.29286220
6
MD Time 980.00
C          -0.87569651       -0.00000000       -0.00000000
C           0.87569651        0.00000000       -0.00000000
H          -1.39730199        0.89669819        0.29741739
H          -1.39730199       -0.89669819       -0.29741739
H           1.39730199        0.89669819       -0.29741739
H           1.39730199       -0.89669819        0.29741739
6
MD Time 990.00
C          -0.87709341       -0.00000000       -0.00000000
C           0.87709341        0.00000000       -0.00000000
H          -1.41736183        0.88744084        0.30198442
H          -1.41736183       -0.88744084       -0.30198442
H           1.41736183        0.88744084       -0.30198442
H           1.41736183       -0.88744084        0.30198442
6
MD Time 1000.00
C          -0.87815720       -0.00000000       -0.00000000
C           0.87815720        0.00000000       -0.00000000
H          -1.43735359        0.87845449        0.30651629
H          -1.43735359       -0.87845449       -0.30651629
H           1.43735359        0.87845449       -0.30651629
H           1.43735359       -0.87845449        0.30651629
6
MD Time 1010.00
C          -0.87891861       -0.00000000       -0.00000000
C           0.87891861        0.00000000       -0.00000000
H          -1.45711890        0.86970371        0.31096009
H          -1.45711890       -0.86970371       -0.31096009
H           1.45711890        0.86970371       -0.31096009
H           1.45711890       -0.86970371        0.31096009
6
MD Time 1020.00
C          -0.87941009       -0.00000000       -0.00000000
C           0.87941009        0.00000000       -0.00000000
H          -1.47648841        0.86114263        0.31525900
H          -1.47648841       -0.86114263       -0.31525900
H           1.47648841        0.86114263       -0.31525900
H           1.47648841       -0.86114263        0.31525900
6
MD Time 1030.00
C          -0.87966507       -0.00000000       -0.00000000
C           0.87966507        0.00000000       -0.00000000
H          -1.49528601        0.85272087        0.31935450
H          -1.49528601       -0.85272087       -0.31935450
H           1.49528601        0.85272087       -0.31935450
H           1.49528601       -0.85272087        0.31935450
6
MD Time 1040.00
C          -0.87971711       -0.00000000       -0.00000000
C           0.87971711        0.00000000       -0.00000000
H          -1.51333342        0.84438925        0.32318868
H          -1.51333342       -0.84438925       -0.32318868
H           1.51333342        0.84438925       -0.32318868
H           1.51333342       -0.84438925        0.32318868
6
MD Time 1050.00
C          -0.87959913       -0.00000000       -0.00000000
C           0.87959913        0.00000000       -0.00000000
H          -1.53045497        0.83610499        0.32670648
H          -1.53045497       -0.83610499       -0.32670648
H           1.53045497        0.83610499       -0.32670648
H           1.53045497       -0.83610499        0.32670648
6
MD Time 1060.00
C          -0.87934260       -0.00000000       -0.00000000
C           0.87934260        0.00000000       -0.00000000
H          -1.54648227        0.82783612        0.32985771
H          -1.54648227       -0.82783612       -0.32985771
H           1.54648227        0.82783612       -0.32985771
H           1.54648227       -0.82783612        0.32985771
6
MD Time 1070.00
C          -0.87897680       -0.00000000       -0.00000000
C           0.87897680        0.00000000       -0.00000000
H          -1.56125857        0.81956500        0.33259881
H          -1.56125857       -0.81956500       -0.33259881
H           1.56125857        0.81956500       -0.33259881
H           1.56125857       -0.81956500        0.33259881
6
MD Time 1080.00
C          -0.87852815       -0.00000000       -0.00000000
C           0.87852815        0.00000000       -0.00000000
H          -1.57464263        0.81129086        0.33489431
H          -1.57464263       -0.81129086       -0.33489431
H           1.57464263        0.81129086       -0.33489431
H           1.57464263       -0.81129086        0.33489431
6
MD Time 1090.00
C          -0.87801972       -0.00000000       -0.00000000
C           0.87801972        0.00000000       -0.00000000
H          -1.58651205        0.80303154        0.33671793
H          -1.58651205       -0.80303154       -0.33671793
H           1.58651205        0.80303154       -0.33671793
H           1.58651205       -0.80303154        0.33671793
6
MD Time 1100.00
C          -0.87747073       -0.00000000       -0.00000000
C           0.87747073        0.00000000        0.00000000
H          -1.59676592        0.79482442        0.33805341
H          -1.59676592       -0.79482442       -0.33805341
H           1.59676592        0.79482442       -0.33805341
H           1.59676592       -0.79482442        0.33805341
6
MD Time 1110.00
C          -0.87689622       -0.00000000       -0.00000000
C           0.87689622        0.00000000        0.00000000
H          -1.60532700        0.78672663        0.33889491
H          -1.60532700       -0.78672663       -0.33889491
H           1.60532700        0.78672663       -0.33889491
H           1.60532700       -0.78672663        0.33889491
6
MD Time 1120.00
C          -0.87630679       -0.00000000        0.00000000
C           0.87630679        0.00000000        0.00000000
H          -1.61214318        0.77881473        0.33924733
H          -1.61214318       -0.77881473       -0.33924733
H           1.61214318        0.77881473       -0.33924733
H           1.61214318       -0.77881473        0.33924733
6
MD Time 1130.00
C          -0.87570846       -0.00000000        0.00000000
C           0.87570846        0.00000000        0.00000000
H          -1.61718848        0.77118388        0.33912616
H          -1.61718848       -0.77118388       -0.33912616
H           1.61718848        0.77118388       -0.33912616
H           1.61718848       -0.77118388        0.33912616
6
MD Time 1140.00
C          -0.87510262       -0.00000000        0.00000000
C           0.87510262        0.00000000        0.00000000
H          -1.62046332        0.76394643        0.33855719
H          -1.62046332       -0.76394643       -0.33855719
H           1.62046332        0.76394643       -0.33855719
H           1.62046332       -0.76394643        0.33855719
6
MD Time 1150.00
C          -0.87448602       -0.00000000        0.00000000
C           0.87448602        0.00000000        0.00000000
H          -1.62199432        0.75723005        0.33757592
H          -1.62199432       -0.75723005       -0.33757592
H           1.62199432        0.75723005       -0.33757592
H           1.62199432       -0.75723005        0.33757592
6
MD Time 1160.00
C          -0.87385094       -0.00000000        0.00000000
C           0.87385094        0.00000000        0.00000000
H          -1.62183327        0.75117529        0.33622660
H          -1.62183327       -0.75117529       -0.33622660
H           1.62183327        0.75117529       -0.33622660
H           1.62183327       -0.75117529        0.33622660
6
MD Time 1170.00
C          -0.87318551       -0.00000000        0.00000000
C           0.87318551        0.00000000        0.00000000
H          -1.62005543        0.74593239        0.33456101
H          -1.62005543       -0.74593239       -0.33456101
H           1.62005543        0.74593239       -0.33456101
H           1.62005543       -0.74593239        0.33456101
6
MD Time 1180.00
C          -0.87247404       -0.00000000        0.00000000
C           0.87247404        0.00000000        0.00000000
H          -1.61675688        0.74165751        0.33263681
H          -1.61675688       -0.74165751       -0.33263681
H           1.61675688        0.74165751       -0.33263681
H           1.61675688       -0.74165751        0.33263681
6
MD Time 1190.00
C          -0.87169765       -0.00000000        0.00000000
C           0.87169765        0.00000000        0.00000000
H          -1.61205101        0.73850796        0.33051551
H          -1.61205101       -0.73850796       -0.33051551
H           1.61205101        0.73850796       -0.33051551
H           1.61205101       -0.73850796        0.33051551
6
MD Time 1200.00
C          -0.87083499       -0.00000000        0.00000000
C           0.87083499        0.00000000        0.00000000
H          -1.60606395        0.73663681        0.32826004
H          -1.60606395       -0.73663681       -0.32826004
H           1.60606395        0.73663681       -0.32826004
H           1.60606395       -0.73663681        0.32826004
6
MD Time 1210.00
C          -0.86986312       -0.00000000        0.00000000
C           0.86986312        0.00000000        0.00000000
H          -1.59892919        0.73618656        0.32593201
H          -1.59892919       -0.73618656       -0.32593201
H           1.59892919        0.73618656       -0.32593201
H           1.59892919       -0.73618656        0.32593201
6
MD Time 1220.00
C          -0.86875853       -0.00000000        0.00000000
C           0.86875853        0.00000000        0.00000000
H          -1.59078146        0.73728235        0.32358869
H          -1.59078146       -0.73728235       -0.32358869
H           1.59078146        0.73728235       -0.32358869
H           1.59078146       -0.73728235        0.32358869
6
MD Time 1230.00
C          -0.86749820       -0.00000000        0.00000000
C           0.86749820        0.00000000        0.00000000
H          -1.58175025        0.74002489        0.32128001
H          -1.58175025       -0.74002489       -0.32128001
H           1.58175025        0.74002489       -0.32128001
H           1.58175025       -0.74002489        0.32128001
6
MD Time 1240.00
C          -0.86606067       -0.00000000        0.00000000
C           0.86606067        0.00000000        0.00000000
H          -1.57195341        0.74448356        0.31904569
H          -1.57195341       -0.74448356       -0.31904569
H           1.57195341        0.74448356       -0.31904569
H           1.57195341       -0.74448356        0.31904569
6
MD Time 1250.00
C          -0.86442705       -0.00000000        0.00000000
C           0.86442705        0.00000000        0.00000000
H          -1.56149149        0.75069025        0.31691281
H          -1.56149149       -0.75069025       -0.31691281
H           1.56149149        0.75069025       -0.31691281
H           1.56149149       -0.75069025        0.31691281
6
MD Time 1260.00
C          -0.86258175       -0.00000000        0.00000000
C           0.86258175        0.00000000        0.00000000
H          -1.55044317        0.75863454        0.31489419
H          -1.55044317       -0.75863454       -0.31489419
H           1.55044317        0.75863454       -0.31489419
H           1.55044317       -0.75863454        0.31489419
6
MD Time 1270.00
C          -0.86051301       -0.00000000        0.00000000
C           0.86051301        0.00000000        0.00000000
H          -1.53886260        0.76826076        0.31298753
H          -1.53886260       -0.76826076       -0.31298753
H           1.53886260        0.76826076       -0.31298753
H           1.53886260       -0.76826076        0.31298753
6
MD Time 1280.00
C          -0.85821308       -0.00000000        0.00000000
C           0.85821308        0.00000000        0.00000000
H          -1.52677865        0.77946738        0.31117569
H          -1.52677865       -0.77946738       -0.31117569
H           1.52677865        0.77946738       -0.31117569
H           1.52677865       -0.77946738        0.31117569
6
MD Time 1290.00
C          -0.85567800       -0.00000000        0.00000000
C           0.85567800        0.00000000        0.00000000
H          -1.51419633        0.79210875        0.30942799
H          -1.51419633       -0.79210875       -0.30942799
H           1.51419633        0.79210875       -0.30942799
H           1.51419633       -0.79210875        0.30942799
6
MD Time 1300.00
C          -0.85290716       -0.00000000        0.00000000
C           0.85290716        0.00000000        0.00000000
H          -1.50110012        0.80599933        0.30770236
H          -1.50110012       -0.80599933       -0.30770236
H           1.50110012        0.80599933       -0.30770236
H           1.50110012       -0.80599933        0.30770236
6
MD Time 1310.00
C          -0.84990256       -0.00000000        0.00000000
C           0.84990256        0.00000000       -0.00000000
H          -1.48745878        0.82091989        0.30594815
H          -1.48745878       -0.82091989       -0.30594815
H           1.48745878        0.82091989       -0.30594815
H           1.48745878       -0.82091989        0.30594815
6
MD Time 1320.00
C          -0.84666792       -0.00000000       -0.00000000
C           0.84666792        0.00000000       -0.00000000
H          -1.47323106        0.83662520        0.30410935
H          -1.47323106       -0.83662520       -0.30410935
H           1.47323106        0.83662520       -0.30410935
H           1.47323106       -0.83662520        0.30410935
6
MD Time 1330.00
C          -0.84320778       -0.00000000       -0.00000000
C           0.84320778        0.00000000       -0.00000000
H          -1.45837172        0.85285267        0.30212791
H          -1.45837172       -0.85285267       -0.30212791
H           1.45837172        0.85285267       -0.30212791
H           1.45837172       -0.85285267        0.30212791
6
MD Time 1340.00
C          -0.83952663       -0.00000000       -0.00000000
C           0.83952663        0.00000000       -0.00000000
H          -1.44283730        0.86933111        0.29994682
H          -1.44283730       -0.86933111       -0.29994682
H           1.44283730        0.86933111       -0.29994682
H           1.44283730       -0.86933111        0.29994682
6
MD Time 1350.00
C          -0.83562816       -0.00000000       -0.00000000
C           0.83562816        0.00000000       -0.00000000
H          -1.42659130        0.88578938        0.29751288
H          -1.42659130       -0.88578938       -0.29751288
H           1.42659130        0.88578938       -0.29751288
H           1.42659130       -0.88578938        0.29751288
6
MD Time 1360.00
C          -0.83151467       -0.00000000       -0.00000000
C           0.83151467        0.00000000       -0.00000000
H          -1.40960833        0.90196413        0.29477902
H          -1.40960833       -0.90196413       -0.29477902
H           1.40960833        0.90196413       -0.29477902
H           1.40960833       -0.90196413        0.29477902
6
MD Time 1370.00
C          -0.82718668       -0.00000000       -0.00000000
C           0.82718668        0.00000000       -0.00000000
H          -1.39187733        0.91760680        0.29170610
H          -1.39187733       -0.91760680       -0.29170610
H           1.39187733        0.91760680       -0.29170610
H           1.39187733       -0.91760680        0.29170610
6
MD Time 1380.00
C          -0.82264273       -0.00000000       -0.00000000
C           0.82264273        0.00000000       -0.00000000
H          -1.37340380        0.93248940        0.28826412
H          -1.37340380       -0.93248940       -0.28826412
H           1.37340380        0.93248940       -0.28826412
H           1.37340380       -0.93248940        0.28826412
6
MD Time 1390.00
C          -0.81787933       -0.00000000       -0.00000000
C           0.81787933        0.00000000       -0.00000000
H          -1.35421102        0.94640931        0.28443314
H          -1.35421102       -0.94640931       -0.28443314
H           1.35421102        0.94640931       -0.28443314
H           1.35421102       -0.94640931        0.28443314
6
MD Time 1400.00
C          -0.81289110       -0.00000000       -0.00000000
C           0.81289110        0.00000000       -0.00000000
H          -1.33434065        0.95919304        0.28020369
H          -1.33434065       -0.95919304       -0.28020369
H           1.33434065        0.95919304       -0.28020369
H           1.33434065       -0.95919304        0.28020369
6
MD Time 1410.00
C          -0.80767103       -0.00000000       -0.00000000
C           0.80767103        0.00000000       -0.00000000
H          -1.31385263        0.97069915        0.27557689
H          -1.31385263       -0.97069915       -0.27557689
H           1.31385263        0.97069915       -0.27557689
H           1.31385263       -0.97069915        0.27557689
6
MD Time 1420.00
C          -0.80221087       -0.00000000       -0.00000000
C           0.80221087        0.00000000       -0.00000000
H          -1.29282465        0.98082034        0.27056442
H          -1.29282465       -0.98082034       -0.27056442
H           1.29282465        0.98082034       -0.27056442
H           1.29282465       -0.98082034        0.27056442
6
MD Time 1430.00
C          -0.79650164       -0.00000000       -0.00000000
C           0.79650164        0.00000000       -0.00000000
H          -1.27135126        0.98948501        0.26518816
H          -1.27135126       -0.98948501       -0.26518816
H           1.27135126        0.98948501       -0.26518816
H           1.27135126       -0.98948501        0.26518816
6
MD Time 1440.00
C          -0.79053418       -0.00000000       -0.00000000
C           0.79053418        0.00000000       -0.00000000
H          -1.24954283        0.99665816        0.25947985
H          -1.24954283       -0.99665816       -0.25947985
H           1.24954283        0.99665816       -0.25947985
H           1.24954283       -0.99665816        0.25947985
6
MD Time 1450.00
C          -0.78429986       -0.00000000       -0.00000000
C           0.78429986        0.00000000       -0.00000000
H          -1.22752419        1.00234180        0.25348045
H          -1.22752419       -1.00234180       -0.25348045
H           1.22752419        1.00234180       -0.25348045
H           1.22752419       -1.00234180        0.25348045
6
MD Time 1460.00
C          -0.77779136       -0.00000000       -0.00000000
C           0.77779136        0.00000000       -0.00000000
H          -1.20543317        1.00657485        0.24723957
H          -1.20543317       -1.00657485       -0.24723957
H           1.20543317        1.00657485       -0.24723957
H           1.20543317       -1.00657485        0.24723957
6
MD Time 1470.00
C          -0.77100351       -0.00000000       -0.00000000
C           0.77100351        0.00000000       -0.00000000
H          -1.18341899        1.00943238        0.24081459
H          -1.18341899       -1.00943238       -0.24081459
H           1.18341899        1.00943238       -0.24081459
H           1.18341899       -1.00943238        0.24081459
6
MD Time 1480.00
C          -0.76393425       -0.00000000       -0.00000000
C           0.76393425        0.00000000       -0.00000000
H          -1.16164037        1.01102416        0.23426980
H          -1.16164037       -1.01102416       -0.23426980
H           1.16164037        1.01102416       -0.23426980
H           1.16164037       -1.01102416        0.23426980
6
MD Time 1490.00
C          -0.75658567       -0.00000000       -0.00000000
C           0.75658567        0.00000000       -0.00000000
H          -1.14026355        1.01149229        0.22767527
H          -1.14026355       -1.01149229       -0.22767527
H           1.14026355        1.01149229       -0.22767527
H           1.14026355       -1.01149229        0.22767527
6
MD Time 1500.00
C          -0.74896507       -0.00000000       -0.00000000
C           0.74896507        0.00000000       -0.00000000
H          -1.11945991        1.01100778        0.22110557
H          -1.11945991       -1.01100778       -0.22110557
H           1.11945991        1.01100778       -0.22110557
H           1.11945991       -1.01100778        0.22110557
6
MD Time 1510.00
C          -0.74108616       -0.00000000       -0.00000000
C           0.74108616        0.00000000       -0.00000000
H          -1.09940340        1.00976589        0.21463826
H          -1.09940340       -1.00976589       -0.21463826
H           1.09940340        1.00976589       -0.21463826
H           1.09940340       -1.00976589        0.21463826
6
MD Time 1520.00
C          -0.73297016       -0.00000000       -0.00000000
C           0.73297016       -0.00000000       -0.00000000
H          -1.08026756        1.00798006        0.20835217
H          -1.08026756       -1.00798006       -0.20835217
H           1.08026756        1.00798006       -0.20835217
H           1.08026756       -1.00798006        0.20835217
6
MD Time 1530.00
C          -0.72464704       -0.00000000       -0.00000000
C           0.72464704       -0.00000000       -0.00000000
H          -1.06222233        1.00587444        0.20232552
H          -1.06222233       -1.00587444       -0.20232552
H           1.06222233        1.00587444       -0.20232552
H           1.06222233       -1.00587444        0.20232552
6
MD Time 1540.00
C          -0.71615654       -0.00000000       -0.00000000
C           0.71615654       -0.00000000       -0.00000000
H          -1.04543052        1.00367506        0.19663387
H          -1.04543052       -1.00367506       -0.19663387
H           1.04543052        1.00367506       -0.19663387
H           1.04543052       -1.00367506        0.19663387
6
MD Time 1550.00
C          -0.70754917       -0.00000000       -0.00000000
C           0.70754917       -0.00000000       -0.00000000
H          -1.03004412        1.00159997        0.19134795
H          -1.03004412       -1.00159997       -0.19134795
H           1.03004412        1.00159997       -0.19134795
H           1.03004412       -1.00159997        0.19134795
6
MD Time 1560.00
C          -0.69888692       -0.00000000       -0.00000000
C           0.69888692       -0.00000000       -0.00000000
H          -1.01620051        0.99984886        0.18653162
H          -1.01620051       -0.99984886       -0.18653162
H           1.01620051        0.99984886       -0.18653162
H           1.01620051       -0.99984886        0.18653162
6
MD Time 1570.00
C          -0.69024374       -0.00000000       -0.00000000
C           0.69024374       -0.00000000       -0.00000000
H          -1.00401881        0.99859272        0.18223992
H          -1.00401881       -0.99859272       -0.18223992
H           1.00401881        0.99859272       -0.18223992
H           1.00401881       -0.99859272        0.18223992
6
MD Time 1580.00
C          -0.68170552       -0.00000000       -0.00000000
C           0.68170552       -0.00000000       -0.00000000
H          -0.99359654        0.99796460        0.17851744
H          -0.99359654       -0.99796460       -0.17851744
H           0.99359654        0.99796460       -0.17851744
H           0.99359654       -0.99796460        0.17851744
6
MD Time 1590.00
C          -0.67336964       -0.00000000       -0.00000000
C           0.67336964       -0.00000000       -0.00000000
H          -0.98500669        0.99805215        0.17539710
H          -0.98500669       -0.99805215       -0.17539710
H           0.98500669        0.99805215       -0.17539710
H           0.98500669       -0.99805215        0.17539710
6
MD Time 1600.00
C          -0.66534381       -0.00000000       -0.00000000
C           0.66534381       -0.00000000       -0.00000000
H          -0.97829576        0.99889280        0.17289949
H          -0.97829576       -0.99889280       -0.17289949
H           0.97829576        0.99889280       -0.17289949
H           0.97829576       -0.99889280        0.17289949
6
MD Time 1610.00
C          -0.65774422        0.00000000       -0.00000000
C           0.65774422       -0.00000000       -0.00000000
H          -0.97348253        1.00047214        0.17103270
H          -0.97348253       -1.00047214       -0.17103270
H           0.97348253        1.00047214       -0.17103270
H           0.97348253       -1.00047214        0.17103270
6
MD Time 1620.00
C          -0.65069288        0.00000000       -0.00000000
C           0.65069288       -0.00000000       -0.00000000
H          -0.97055807        1.00272560        0.16979276
H          -0.97055807       -1.00272560       -0.16979276
H           0.97055807        1.00272560       -0.16979276
H           0.97055807       -1.00272560        0.16979276
6
MD Time 1630.00
C          -0.64431420        0.00000000       -0.00000000
C           0.64431420       -0.00000000       -0.00000000
H          -0.96948679        1.00554330        0.16916459
H          -0.96948679       -1.00554330       -0.16916459
H           0.96948679        1.00554330       -0.16916459
H           0.96948679       -1.00554330        0.16916459
6
MD Time 1640.00
C          -0.63873080        0.00000000       -0.00000000
C           0.63873080       -0.00000000       -0.00000000
H          -0.97020859        1.00877748        0.16912331
H          -0.97020859       -1.00877748       -0.16912331
H           0.97020859        1.00877748       -0.16912331
H           0.97020859       -1.00877748        0.16912331
6
MD Time 1650.00
C          -0.63405882        0.00000000       -0.00000000
C           0.63405882       -0.00000000       -0.00000000
H          -0.97264189        1.01225164        0.16963584
H          -0.97264189       -1.01225164       -0.16963584
H           0.97264189        1.01225164       -0.16963584
H           0.97264189       -1.01225164        0.16963584
6
MD Time 1660.00
C          -0.63040286        0.00000000       -0.00000000
C           0.63040286       -0.00000000       -0.00000000
H          -0.97668732        1.01577071        0.17066267
H          -0.97668732       -1.01577071       -0.17066267
H           0.97668732        1.01577071       -0.17066267
H           0.97668732       -1.01577071        0.17066267
6
MD Time 1670.00
C          -0.62785114        0.00000000       -0.00000000
C           0.62785114       -0.00000000       -0.00000000
H          -0.98223191        1.01913114        0.17215966
H          -0.98223191       -1.01913114       -0.17215966
H           0.98223191        1.01913114       -0.17215966
H           0.98223191       -1.01913114        0.17215966
6
MD Time 1680.00
C          -0.62647100        0.00000000       -0.00000000
C           0.62647100       -0.00000000       -0.00000000
H          -0.98915333        1.02213050        0.17407970
H          -0.98915333       -1.02213050       -0.17407970
H           0.98915333        1.02213050       -0.17407970
H           0.98915333       -1.02213050        0.17407970
6
MD Time 1690.00
C          -0.62630549        0.00000000       -0.00000000
C           0.62630549       -0.00000000       -0.00000000
H          -0.99732410        1.02457589        0.17637438
H          -0.99732410       -1.02457589       -0.17637438
H           0.99732410        1.02457589       -0.17637438
H           0.99732410       -1.02457589        0.17637438
6
MD Time 1700.00
C          -0.62737112        0.00000000       -0.00000000
C           0.62737112       -0.00000000       -0.00000000
H          -1.00661558        1.02629112        0.17899538
H          -1.00661558       -1.02629112       -0.17899538
H           1.00661558        1.02629112       -0.17899538
H           1.00661558       -1.02629112        0.17899538
6
MD Time 1710.00
C          -0.62965722        0.00000000       -0.00000000
C           0.62965722       -0.00000000       -0.00000000
H          -1.01690151        1.02712249        0.18189577
H          -1.01690151       -1.02712249       -0.18189577
H           1.01690151        1.02712249       -0.18189577
H           1.01690151       -1.02712249        0.18189577
6
MD Time 1720.00
C          -0.63312677        0.00000000       -0.00000000
C           0.63312677       -0.00000000       -0.00000000
H          -1.02806117        1.02694319        0.18503109
H          -1.02806117       -1.02694319       -0.18503109
H           1.02806117        1.02694319       -0.18503109
H           1.02806117       -1.02694319        0.18503109
6
MD Time 1730.00
C          -0.63771878        0.00000000       -0.00000000
C           0.63771878       -0.00000000       -0.00000000
H          -1.03998205        1.02565668        0.18836031
H          -1.03998205       -1.02565668       -0.18836031
H           1.03998205        1.02565668       -0.18836031
H           1.03998206       -1.02565668        0.18836031
6
MD Time 1740.00
C          -0.64335169        0.00000000       -0.00000000
C           0.64335169       -0.00000000       -0.00000000
H          -1.05256209        1.02319892        0.19184662
H          -1.05256209       -1.02319892       -0.19184662
H           1.05256209        1.02319892       -0.19184662
H           1.05256209       -1.02319892        0.19184662
6
MD Time 1750.00
C          -0.64992759        0.00000000       -0.00000000
C           0.64992759       -0.00000000       -0.00000000
H          -1.06571142        1.01953983        0.19545818
H          -1.06571142       -1.01953983       -0.19545818
H           1.06571142        1.01953983       -0.19545818
H           1.06571142       -1.01953983        0.19545818
6
MD Time 1760.00
C          -0.65733676        0.00000000       -0.00000000
C           0.65733676       -0.00000000       -0.00000000
H          -1.07935373        1.01468400        0.19916861
H          -1.07935373       -1.01468400       -0.19916861
H           1.07935373        1.01468400       -0.19916861
H           1.07935373       -1.01468400        0.19916861
6
MD Time 1770.00
C          -0.66546210        0.00000000       -0.00000000
C           0.66546210       -0.00000000       -0.00000000
H          -1.09342718        1.00867066        0.20295750
H          -1.09342718       -1.00867066       -0.20295750
H           1.09342718        1.00867066       -0.20295750
H           1.09342718       -1.00867066        0.20295750
6
MD Time 1780.00
C          -0.67418329        0.00000000       -0.00000000
C           0.67418329       -0.00000000       -0.00000000
H          -1.10788485        1.00157296        0.20681071
H          -1.10788485       -1.00157296       -0.20681071
H           1.10788485        1.00157296       -0.20681071
H           1.10788485       -1.00157296        0.20681071
6
MD Time 1790.00
C          -0.68338037        0.00000000       -0.00000000
C           0.68338037       -0.00000000       -0.00000000
H          -1.12269478        0.99349644        0.21072055
H          -1.12269478       -0.99349644       -0.21072055
H           1.12269478        0.99349644       -0.21072055
H           1.12269478       -0.99349644        0.21072055
6
MD Time 1800.00
C          -0.69293663        0.00000000       -0.00000000
C           0.69293663       -0.00000000       -0.00000000
H          -1.13783943        0.98457657        0.21468575
H          -1.13783943       -0.98457657       -0.21468575
H           1.13783943        0.98457657       -0.21468575
H           1.13783943       -0.98457657        0.21468575
6
MD Time 1810.00
C          -0.70274102        0.00000000       -0.00000000
C           0.70274102       -0.00000000       -0.00000000
H          -1.15331464        0.97497529        0.21871119
H          -1.15331464       -0.97497529       -0.21871119
H           1.15331464        0.97497529       -0.21871119
H           1.15331464       -0.97497529        0.21871119
6
MD Time 1820.00
C          -0.71268979        0.00000000       -0.00000000
C           0.71268979       -0.00000000       -0.00000000
H          -1.16912781        0.96487624        0.22280735
H          -1.16912781       -0.96487624       -0.22280735
H           1.16912781        0.96487624       -0.22280735
H           1.16912781       -0.96487624        0.22280735
6
MD Time 1830.00
C          -0.72268785        0.00000000       -0.00000000
C           0.72268785       -0.00000000       -0.00000000
H          -1.18529557        0.95447880        0.22698948
H          -1.18529557       -0.95447880       -0.22698948
H           1.18529557        0.95447880       -0.22698948
H           1.18529557       -0.95447880        0.22698948
6
MD Time 1840.00
C          -0.73264958        0.00000000       -0.00000000
C           0.73264958       -0.00000000       -0.00000000
H          -1.20184049        0.94399073        0.23127625
H          -1.20184049       -0.94399073       -0.23127625
H           1.20184049        0.94399073       -0.23127625
H           1.20184049       -0.94399073        0.23127625
6
MD Time 1850.00
C          -0.74249948        0.00000000       -0.00000000
C           0.74249948       -0.00000000       -0.00000000
H          -1.21878727        0.93361978        0.23568815
H          -1.21878727       -0.93361978       -0.23568815
H           1.21878727        0.93361978       -0.23568815
H           1.21878727       -0.93361978        0.23568815
6
MD Time 1860.00
C          -0.75217256        0.00000000       -0.00000000
C           0.75217256       -0.00000000       -0.00000000
H          -1.23615818        0.92356443        0.24024544
H          -1.23615818       -0.92356443       -0.24024544
H           1.23615818        0.92356443       -0.24024544
H           1.23615818       -0.92356443        0.24024544
6
MD Time 1870.00
C          -0.76161459        0.00000000       -0.00000000
C           0.76161459       -0.00000000       -0.00000000
H          -1.25396810        0.91400444        0.24496589
H          -1.25396810       -0.91400444       -0.24496589
H           1.25396810        0.91400444       -0.24496589
H           1.25396810       -0.91400444        0.24496589
6
MD Time 1880.00
C          -0.77078216        0.00000000       -0.00000000
C           0.77078216       -0.00000000       -0.00000000
H          -1.27221955        0.90509183        0.24986227
H          -1.27221955       -0.90509183       -0.24986227
H           1.27221955        0.90509183       -0.24986227
H           1.27221955       -0.90509183        0.24986227
6
MD Time 1890.00
C          -0.77964270        0.00000000       -0.00000000
C           0.77964270       -0.00000000       -0.00000000
H          -1.29089789        0.89694325        0.25494005
H          -1.29089789       -0.89694325       -0.25494005
H           1.29089789        0.89694325       -0.25494005
H           1.29089789       -0.89694325        0.25494005
6
MD Time 1900.00
C          -0.78817417       -0.00000000       -0.00000000
C           0.78817417       -0.00000000       -0.00000000
H          -1.30996738        0.88963432        0.26019535
H          -1.30996738       -0.88963432       -0.26019535
H           1.30996738        0.88963432       -0.26019535
H           1.30996738       -0.88963432        0.26019535
6
MD Time 1910.00
C          -0.79636466       -0.00000000       -0.00000000
C           0.79636466       -0.00000000       -0.00000000
H          -1.32936844        0.88319684        0.26561344
H          -1.32936844       -0.88319684       -0.26561344
H           1.32936844        0.88319684       -0.26561344
H           1.32936844       -0.88319684        0.26561344
6
MD Time 1920.00
C          -0.80421164       -0.00000000       -0.00000000
C           0.80421164       -0.00000000       -0.00000000
H          -1.34901647        0.87761890        0.27116805
H          -1.34901647       -0.87761890       -0.27116805
H           1.34901647        0.87761890       -0.27116805
H           1.34901647       -0.87761890        0.27116805
6
MD Time 1930.00
C          -0.81172107       -0.00000000       -0.00000000
C           0.81172107       -0.00000000       -0.00000000
H          -1.36880246        0.87284805        0.27682150
H          -1.36880246       -0.87284805       -0.27682150
H           1.36880246        0.87284805       -0.27682150
H           1.36880246       -0.87284805        0.27682150
6
MD Time 1940.00
C          -0.81890618       -0.00000000       -0.00000000
C           0.81890618       -0.00000000       -0.00000000
H          -1.38859529        0.86879706        0.28252573
H          -1.38859529       -0.86879706       -0.28252573
H           1.38859529        0.86879706       -0.28252573
H           1.38859529       -0.86879706        0.28252573
6
MD Time 1950.00
C          -0.82578617       -0.00000000       -0.00000000
C           0.82578617       -0.00000000       -0.00000000
H          -1.40824567        0.86535153        0.28822408
H          -1.40824567       -0.86535153       -0.28822408
H           1.40824567        0.86535153       -0.28822408
H           1.40824567       -0.86535153        0.28822408
6
MD Time 1960.00
C          -0.83238471       -0.00000000       -0.00000000
C           0.83238471       -0.00000000       -0.00000000
H          -1.42759107        0.86237862        0.29385361
H          -1.42759107       -0.86237862       -0.29385361
H           1.42759107        0.86237862       -0.29385361
H           1.42759107       -0.86237862        0.29385361
6
MD Time 1970.00
C          -0.83872850       -0.00000000       -0.00000000
C           0.83872850       -0.00000000       -0.00000000
H          -1.44646149        0.85973600        0.29934782
H          -1.44646149       -0.85973600       -0.29934782
H           1.44646149        0.85973600       -0.29934782
H           1.44646149       -0.85973600        0.29934782
6
MD Time 1980.00
C          -0.84484586       -0.00000000       -0.00000000
C           0.84484586        0.00000000       -0.00000000
H          -1.46468534        0.85728037        0.30463940
H          -1.46468534       -0.85728037       -0.30463940
H           1.46468534        0.85728037       -0.30463940
H           1.46468534       -0.85728037        0.30463940
6
MD Time 1990.00
C          -0.85076540       -0.00000000       -0.00000000
C           0.85076540        0.00000000       -0.00000000
H          -1.48209519        0.85487500        0.30966292
H          -1.48209519       -0.85487500       -0.30966292
H           1.48209519        0.85487500       -0.30966292
H           1.48209519       -0.85487500        0.30966292
6
MD Time 2000.00
C          -0.85651489       -0.00000000       -0.00000000
C           0.85651489        0.00000000       -0.00000000
H          -1.49853302        0.85239610        0.31435726
H          -1.49853302       -0.85239610       -0.31435726
H           1.49853302        0.85239610       -0.31435726
H           1.49853302       -0.85239610        0.31435726
6
MD Time 2010.00
C          -0.86212027       -0.00000000       -0.00000000
C           0.86212027        0.00000000       -0.00000000
H          -1.51385480        0.84973782        0.31866773
H          -1.51385480       -0.84973782       -0.31866773
H           1.51385480        0.84973782       -0.31866773
H           1.51385480       -0.84973782        0.31866773
6
MD Time 2020.00
C          -0.86760487       -0.00000000       -0.00000000
C           0.86760487        0.00000000       -0.00000000
H          -1.52793425        0.84681606        0.32254776
H          -1.52793425       -0.84681606       -0.32254776
H           1.52793425        0.84681606       -0.32254776
H           1.52793425       -0.84681606        0.32254776
6
MD Time 2030.00
C          -0.87298877       -0.00000000       -0.00000000
C           0.87298877        0.00000000       -0.00000000
H          -1.54066599        0.84357104        0.32596031
H          -1.54066599       -0.84357104       -0.32596031
H           1.54066599        0.84357104       -0.32596031
H           1.54066599       -0.84357104        0.32596031
6
MD Time 2040.00
C          -0.87828830       -0.00000000        0.00000000
C           0.87828830        0.00000000       -0.00000000
H          -1.55196782        0.83996911        0.32887888
H          -1.55196782       -0.83996911       -0.32887888
H           1.55196782        0.83996911       -0.32887888
H           1.55196782       -0.83996911        0.32887888
6
MD Time 2050.00
C          -0.88351568       -0.00000000        0.00000000
C           0.88351568        0.00000000        0.00000000
H          -1.56178249        0.83600365        0.33128830
H          -1.56178249       -0.83600365       -0.33128830
H           1.56178249        0.83600365       -0.33128830
H           1.56178249       -0.83600365        0.33128830
6
MD Time 2060.00
C          -0.88867881       -0.00000000        0.00000000
C           0.88867881        0.00000000        0.00000000
H          -1.57007889        0.83169548        0.33318523
H          -1.57007889       -0.83169548       -0.33318523
H           1.57007889        0.83169548       -0.33318523
H           1.57007889       -0.83169548        0.33318523
6
MD Time 2070.00
C          -0.89378102       -0.00000000        0.00000000
C           0.89378102        0.00000000        0.00000000
H          -1.57685274        0.82709271        0.33457841
H          -1.57685274       -0.82709271       -0.33457841
H           1.57685274        0.82709271       -0.33457841
H           1.57685274       -0.82709271        0.33457841
6
MD Time 2080.00
C          -0.89882108       -0.00000000        0.00000000
C           0.89882108        0.00000000        0.00000000
H          -1.58212676        0.82227007        0.33548877
H          -1.58212676       -0.82227007       -0.33548877
H           1.58212676        0.82227007       -0.33548877
H           1.58212676       -0.82227007        0.33548877
6
MD Time 2090.00
C          -0.90379316       -0.00000000        0.00000000
C           0.90379316        0.00000000        0.00000000
H          -1.58595030        0.81732781        0.33594920
H          -1.58595030       -0.81732781       -0.33594920
H           1.58595030        0.81732781       -0.33594920
H           1.58595030       -0.81732781        0.33594920
6
MD Time 2100.00
C          -0.90868701       -0.00000000        0.00000000
C           0.90868701        0.00000000        0.00000000
H          -1.58839838        0.81238990        0.33600410
H          -1.58839838       -0.81238990       -0.33600410
H           1.58839838        0.81238990       -0.33600410
H           1.58839838       -0.81238990        0.33600410
6
MD Time 2110.00
C          -0.91348817       -0.00000000        0.00000000
C           0.91348817        0.00000000        0.00000000
H          -1.58956996        0.80760147        0.33570848
H          -1.58956996       -0.80760147       -0.33570848
H           1.58956996        0.80760147       -0.33570848
H           1.58956996       -0.80760147        0.33570848
6
MD Time 2120.00
C          -0.91817841       -0.00000000        0.00000000
C           0.91817841        0.00000000        0.00000000
H          -1.58958528        0.80312533        0.33512671
H          -1.58958528       -0.80312533       -0.33512671
H           1.58958528        0.80312533       -0.33512671
H           1.58958528       -0.80312533        0.33512671
6
MD Time 2130.00
C          -0.92273630       -0.00000000        0.00000000
C           0.92273630        0.00000000        0.00000000
H          -1.58858222        0.79913732        0.33433070
H          -1.58858222       -0.79913732       -0.33433070
H           1.58858222        0.79913732       -0.33433070
H           1.58858222       -0.79913732        0.33433070
6
MD Time 2140.00
C          -0.92713800       -0.00000000        0.00000000
C           0.92713800        0.00000000        0.00000000
H          -1.58671154        0.79582035        0.33339745
H          -1.58671154       -0.79582035       -0.33339745
H           1.58671154        0.79582035       -0.33339745
H           1.58671154       -0.79582035        0.33339745
6
MD Time 2150.00
C          -0.93135825       -0.00000000        0.00000000
C           0.93135825        0.00000000        0.00000000
H          -1.58413102        0.79335726        0.33240610
H          -1.58413102       -0.79335726       -0.33240610
H           1.58413102        0.79335726       -0.33240610
H           1.58413102       -0.79335726        0.33240610
6
MD Time 2160.00
C          -0.93537147       -0.00000000        0.00000000
C           0.93537147        0.00000000        0.00000000
H          -1.58099865        0.79192231        0.33143437
H          -1.58099865       -0.79192231       -0.33143437
H           1.58099865        0.79192231       -0.33143437
H           1.58099865       -0.79192231        0.33143437
6
MD Time 2170.00
C          -0.93915304       -0.00000000        0.00000000
C           0.93915304        0.00000000        0.00000000
H          -1.57746525        0.79167200        0.33055469
H          -1.57746525       -0.79167200       -0.33055469
H           1.57746525        0.79167200       -0.33055469
H           1.57746525       -0.79167200        0.33055469
6
MD Time 2180.00
C          -0.94268054       -0.00000000        0.00000000
C           0.94268054        0.00000000        0.00000000
H          -1.57366696        0.79273549        0.32983017
H          -1.57366696       -0.79273549       -0.32983017
H           1.57366696        0.79273549       -0.32983017
H           1.57366696       -0.79273549        0.32983017
6
MD Time 2190.00
C          -0.94593496       -0.00000000        0.00000000
C           0.94593496        0.00000000        0.00000000
H          -1.56971835        0.79520551        0.32931082
H          -1.56971835       -0.79520551       -0.32931082
H           1.56971835        0.79520551       -0.32931082
H           1.56971835       -0.79520551        0.32931082
6
MD Time 2200.00
C          -0.94890167       -0.00000000        0.00000000
C           0.94890167        0.00000000        0.00000000
H          -1.56570676        0.79913074        0.32903043
H          -1.56570676       -0.79913074       -0.32903043
H           1.56570676        0.79913074       -0.32903043
H           1.56570676       -0.79913074        0.32903043
6
MD Time 2210.00
C          -0.95157104       -0.00000000        0.00000000
C           0.95157104        0.00000000        0.00000000
H          -1.56168857        0.80451035        0.32900439
H          -1.56168857       -0.80451035       -0.32900439
H           1.56168857        0.80451035       -0.32900439
H           1.56168857       -0.80451035        0.32900439
6
MD Time 2220.00
C          -0.95393875       -0.00000000        0.00000000
C           0.95393875        0.00000000        0.00000000
H          -1.55768782        0.81129151        0.32922880
H          -1.55768782       -0.81129151       -0.32922880
H           1.55768782        0.81129151       -0.32922880
H           1.55768782       -0.81129151        0.32922880
6
MD Time 2230.00
C          -0.95600557       -0.00000000        0.00000000
C           0.95600557        0.00000000        0.00000000
H          -1.55369731        0.81937024        0.32968099
H          -1.55369731       -0.81937024       -0.32968099
H           1.55369731        0.81937024       -0.32968099
H           1.55369731       -0.81937024        0.32968099
6
MD Time 2240.00
C          -0.95777682       -0.00000000        0.00000000
C           0.95777682        0.00000000        0.00000000
H          -1.54968203        0.82859552        0.33032133
H          -1.54968203       -0.82859552       -0.33032133
H           1.54968203        0.82859552       -0.33032133
H           1.54968203       -0.82859552        0.33032133
6
MD Time 2250.00
C          -0.95926153       -0.00000000        0.00000000
C           0.95926153        0.00000000        0.00000000
H          -1.54558439        0.83877618        0.33109611
H          -1.54558439       -0.83877618       -0.33109611
H           1.54558439        0.83877618       -0.33109611
H           1.54558439       -0.83877618        0.33109611
6
MD Time 2260.00
C          -0.96047137       -0.00000000        0.00000000
C           0.96047137        0.00000000        0.00000000
H          -1.54133064        0.84968985        0.33194125
H          -1.54133064       -0.84968985       -0.33194125
H           1.54133064        0.84968985       -0.33194125
H           1.54133064       -0.84968985        0.33194125
6
MD Time 2270.00
C          -0.96141944       -0.00000000       -0.00000000
C           0.96141944        0.00000000        0.00000000
H          -1.53683773        0.86109315        0.33278624
H          -1.53683773       -0.86109315       -0.33278624
H           1.53683773        0.86109315       -0.33278624
H           1.53683773       -0.86109315        0.33278624
6
MD Time 2280.00
C          -0.96211924       -0.00000000       -0.00000000
C           0.96211924        0.00000000        0.00000000
H          -1.53201999        0.87273204        0.33355816
H          -1.53201999       -0.87273204       -0.33355816
H           1.53201999        0.87273204       -0.33355816
H           1.53201999       -0.87273204        0.33355816
6
MD Time 2290.00
C          -0.96258361       -0.00000000       -0.00000000
C           0.96258361        0.00000000        0.00000000
H          -1.52679518        0.88435174        0.33418534
H          -1.52679518       -0.88435174       -0.33418534
H           1.52679518        0.88435174       -0.33418534
H           1.52679518       -0.88435174        0.33418534
6
MD Time 2300.00
C          -0.96282391       -0.00000000       -0.00000000
C           0.96282391        0.00000000        0.00000000
H          -1.52108948        0.89570565        0.33460056
H          -1.52108948       -0.89570565       -0.33460056
H           1.52108948        0.89570565       -0.33460056
H           1.52108948       -0.89570565        0.33460056
6
MD Time 2310.00
C          -0.96284931       -0.00000000       -0.00000000
C           0.96284931        0.00000000       -0.00000000
H          -1.51484149        0.90656296        0.33474360
H          -1.51484149       -0.90656296       -0.33474360
H           1.51484149        0.90656296       -0.33474360
H           1.51484149       -0.90656296        0.33474360
6
MD Time 2320.00
C          -0.96266638       -0.00000000       -0.00000000
C           0.96266638        0.00000000       -0.00000000
H          -1.50800508        0.91671480        0.33456325
H          -1.50800508       -0.91671480       -0.33456325
H           1.50800508        0.91671480       -0.33456325
H           1.50800508       -0.91671480        0.33456325
6
MD Time 2330.00
C          -0.96227871       -0.00000000       -0.00000000
C           0.96227871        0.00000000       -0.00000000
H          -1.50055129        0.92597912        0.33401874
H          -1.50055129       -0.92597912       -0.33401874
H           1.50055129        0.92597912       -0.33401874
H           1.50055129       -0.92597912        0.33401874
6
MD Time 2340.00
C          -0.96168675       -0.00000000       -0.00000000
C           0.96168675        0.00000000       -0.00000000
H          -1.49246943        0.93420431        0.33308069
H          -1.49246943       -0.93420431       -0.33308069
H           1.49246943        0.93420431       -0.33308069
H           1.49246943       -0.93420431        0.33308069
6
MD Time 2350.00
C          -0.96088773       -0.00000000       -0.00000000
C           0.96088773        0.00000000       -0.00000000
H          -1.48376751        0.94127180        0.33173171
H          -1.48376751       -0.94127180       -0.33173171
H           1.48376751        0.94127180       -0.33173171
H           1.48376751       -0.94127180        0.33173171
6
MD Time 2360.00
C          -0.95987566       -0.00000000       -0.00000000
C           0.95987566        0.00000000       -0.00000000
H          -1.47447219        0.94709793        0.32996660
H          -1.47447219       -0.94709793       -0.32996660
H           1.47447219        0.94709793       -0.32996660
H           1.47447219       -0.94709793        0.32996660
6
MD Time 2370.00
C          -0.95864139       -0.00000000       -0.00000000
C           0.95864139        0.00000000       -0.00000000
H          -1.46462830        0.95163505        0.32779242
H          -1.46462830       -0.95163505       -0.32779242
H           1.46462830        0.95163505       -0.32779242
H           1.46462830       -0.95163505        0.32779242
6
MD Time 2380.00
C          -0.95717276       -0.00000000       -0.00000000
C           0.95717276        0.00000000       -0.00000000
H          -1.45429813        0.95487210        0.32522826
H          -1.45429813       -0.95487210       -0.32522826
H           1.45429813        0.95487210       -0.32522826
H           1.45429813       -0.95487210        0.32522826
6
MD Time 2390.00
C          -0.95545471       -0.00000000       -0.00000000
C           0.95545471        0.00000000       -0.00000000
H          -1.44356031        0.95683469        0.32230488
H          -1.44356031       -0.95683469       -0.32230488
H           1.44356031        0.95683469       -0.32230488
H           1.44356031       -0.95683469        0.32230488
6
MD Time 2400.00
C          -0.95346953       -0.00000000       -0.00000000
C           0.95346953        0.00000000       -0.00000000
H          -1.43250856        0.95758458        0.31906410
H          -1.43250856       -0.95758458       -0.31906410
H           1.43250856        0.95758458       -0.31906410
H           1.43250856       -0.95758458        0.31906410
6
MD Time 2410.00
C          -0.95119711       -0.00000000       -0.00000000
C           0.95119711        0.00000000       -0.00000000
H          -1.42125005        0.95721843        0.31555800
H          -1.42125005       -0.95721843       -0.31555800
H           1.42125005        0.95721843       -0.31555800
H           1.42125005       -0.95721843        0.31555800
6
MD Time 2420.00
C          -0.94861524       -0.00000000       -0.00000000
C           0.94861524        0.00000000       -0.00000000
H          -1.40990342        0.95586584        0.31184781
H          -1.40990342       -0.95586584       -0.31184781
H           1.40990342        0.95586584       -0.31184781
H           1.40990342       -0.95586584        0.31184781
6
MD Time 2430.00
C          -0.94570002       -0.00000000       -0.00000000
C           0.94570002        0.00000000       -0.00000000
H          -1.39859635        0.95368620        0.30800245
H          -1.39859635       -0.95368620       -0.30800245
H           1.39859635        0.95368620       -0.30800245
H           1.39859635       -0.95368620        0.30800245
6
MD Time 2440.00
C          -0.94242634       -0.00000000       -0.00000000
C           0.94242634        0.00000000       -0.00000000
H          -1.38746269        0.95086430        0.30409674
H          -1.38746269       -0.95086430       -0.30409674
H           1.38746269        0.95086430       -0.30409674
H           1.38746269       -0.95086430        0.30409674
6
MD Time 2450.00
C          -0.93876843       -0.00000000       -0.00000000
C           0.93876843        0.00000000       -0.00000000
H          -1.37663904        0.94760451        0.30020909
H          -1.37663904       -0.94760451       -0.30020909
H           1.37663904        0.94760451       -0.30020909
H           1.37663904       -0.94760451        0.30020909
6
MD Time 2460.00
C          -0.93470054       -0.00000000       -0.00000000
C           0.93470054        0.00000000       -0.00000000
H          -1.36626074        0.94412334        0.29641880
H          -1.36626074       -0.94412334       -0.29641880
H           1.36626074        0.94412334       -0.29641880
H           1.36626074       -0.94412334        0.29641880
6
MD Time 2470.00
C          -0.93019771       -0.00000000       -0.00000000
C           0.93019771        0.00000000       -0.00000000
H          -1.35645749        0.94064051        0.29280297
H          -1.35645749       -0.94064051       -0.29280297
H           1.35645749        0.94064051       -0.29280297
H           1.35645749       -0.94064051        0.29280297
6
MD Time 2480.00
C          -0.92523657       -0.00000000       -0.00000000
C           0.92523657        0.00000000       -0.00000000
H          -1.34734851        0.93736870        0.28943307
H          -1.34734851       -0.93736870       -0.28943307
H           1.34734851        0.93736870       -0.28943307
H           1.34734851       -0.93736870        0.28943307
6
MD Time 2490.00
C          -0.91979624       -0.00000000       -0.00000000
C           0.91979624        0.00000000       -0.00000000
H          -1.33903765        0.93450266        0.28637149
H          -1.33903765       -0.93450266       -0.28637149
H           1.33903765        0.93450266       -0.28637149
H           1.33903765       -0.93450266        0.28637149
6
MD Time 2500.00
C          -0.91385912       -0.00000000       -0.00000000
C           0.91385912        0.00000000       -0.00000000
H          -1.33160859        0.93220823        0.28366810
H          -1.33160859       -0.93220823       -0.28366810
H           1.33160859        0.93220823       -0.28366810
H           1.33160859       -0.93220823        0.28366810
6
MD Time 2510.00
C          -0.90741174       -0.00000000       -0.00000000
C           0.90741174        0.00000000       -0.00000000
H          -1.32512051        0.93061244        0.28135741
H          -1.32512051       -0.93061244       -0.28135741
H           1.32512051        0.93061244       -0.28135741
H           1.32512051       -0.93061244        0.28135741
6
MD Time 2520.00
C          -0.90044538       -0.00000000       -0.00000000
C           0.90044538        0.00000000       -0.00000000
H          -1.31960472        0.92979548        0.27945628
H          -1.31960472       -0.92979548       -0.27945628
H           1.31960472        0.92979548       -0.27945628
H           1.31960472       -0.92979548        0.27945628
6
MD Time 2530.00
C          -0.89295656       -0.00000000       -0.00000000
C           0.89295656        0.00000000       -0.00000000
H          -1.31506236        0.92978563        0.27796278
H          -1.31506236       -0.92978563       -0.27796278
H           1.31506236        0.92978563       -0.27796278
H           1.31506236       -0.92978563        0.27796278
6
MD Time 2540.00
C          -0.88494730       -0.00000000       -0.00000000
C           0.88494730        0.00000000       -0.00000000
H          -1.31146358        0.93055771        0.27685599
H          -1.31146358       -0.93055771       -0.27685599
H           1.31146358        0.93055771       -0.27685599
H           1.31146358       -0.93055771        0.27685599
6
MD Time 2550.00
C          -0.87642519       -0.00000000       -0.00000000
C           0.87642519        0.00000000       -0.00000000
H          -1.30874826        0.93203517        0.27609716
H          -1.30874826       -0.93203517       -0.27609716
H           1.30874826        0.93203517       -0.27609716
H           1.30874826       -0.93203517        0.27609716
6
MD Time 2560.00
C          -0.86740323       -0.00000000       -0.00000000
C           0.86740323        0.00000000       -0.00000000
H          -1.30682819        0.93409573        0.27563178
H          -1.30682819       -0.93409573       -0.27563178
H           1.30682819        0.93409573       -0.27563178
H           1.30682819       -0.93409573        0.27563178
6
MD Time 2570.00
C          -0.85789953       -0.00000000       -0.00000000
C           0.85789953        0.00000000       -0.00000000
H          -1.30559058        0.93657972        0.27539255
H          -1.30559058       -0.93657972       -0.27539255
H           1.30559058        0.93657972       -0.27539255
H           1.30559058       -0.93657972        0.27539255
6
MD Time 2580.00
C          -0.84793695       -0.00000000       -0.00000000
C           0.84793695        0.00000000       -0.00000000
H          -1.30490253        0.93930035        0.27530289
H          -1.30490253       -0.93930035       -0.27530289
H           1.30490253        0.93930035       -0.27530289
H           1.30490253       -0.93930035        0.27530289
6
MD Time 2590.00
C          -0.83754270       -0.00000000       -0.00000000
C           0.83754270        0.00000000       -0.00000000
H          -1.30461620        0.94205483        0.27528069
H          -1.30461620       -0.94205483       -0.27528069
H           1.30461620        0.94205483       -0.27528069
H           1.30461620       -0.94205483        0.27528069
6
MD Time 2600.00
C          -0.82674804       -0.00000000       -0.00000000
C           0.82674804        0.00000000       -0.00000000
H          -1.30457418        0.94463530        0.27524200
H          -1.30457418       -0.94463530       -0.27524200
H           1.30457418        0.94463530       -0.27524200
H           1.30457418       -0.94463530        0.27524200
6
MD Time 2610.00
C          -0.81558815       -0.00000000       -0.00000000
C           0.81558815        0.00000000       -0.00000000
H          -1.30461489        0.94683899        0.27510448
H          -1.30461489       -0.94683899       -0.27510448
H           1.30461489        0.94683899       -0.27510448
H           1.30461489       -0.94683899        0.27510448
6
MD Time 2620.00
C          -0.80410215       -0.00000000       -0.00000000
C           0.80410215        0.00000000       -0.00000000
H          -1.30457759        0.94847705        0.27479038
H          -1.30457759       -0.94847705       -0.27479038
H           1.30457759        0.94847705       -0.27479038
H           1.30457759       -0.94847705        0.27479038
6
MD Time 2630.00
C          -0.79233331       -0.00000000       -0.00000000
C           0.79233331        0.00000000       -0.00000000
H          -1.30430706        0.94938173        0.27422907
H          -1.30430706       -0.94938173       -0.27422907
H           1.30430706        0.94938173       -0.27422907
H           1.30430706       -0.94938173        0.27422907
6
MD Time 2640.00
C          -0.78032957       -0.00000000       -0.00000000
C           0.78032957        0.00000000       -0.00000000
H          -1.30365765        0.94941207        0.27335909
H          -1.30365765       -0.94941207       -0.27335909
H           1.30365765        0.94941207       -0.27335909
H           1.30365765       -0.94941207        0.27335909
6
MD Time 2650.00
C          -0.76814411       -0.00000000       -0.00000000
C           0.76814411        0.00000000       -0.00000000
H          -1.30249687        0.94845812        0.27212965
H          -1.30249687       -0.94845812       -0.27212965
H           1.30249687        0.94845812       -0.27212965
H           1.30249687       -0.94845812        0.27212965
6
MD Time 2660.00
C          -0.75583606       -0.00000000       -0.00000000
C           0.75583606        0.00000000       -0.00000000
H          -1.30070845        0.94644387        0.27050178
H          -1.30070845       -0.94644387       -0.27050178
H           1.30070845        0.94644387       -0.27050178
H           1.30070845       -0.94644387        0.27050178
6
MD Time 2670.00
C          -0.74347138       -0.00000000       -0.00000000
C           0.74347138       -0.00000000       -0.00000000
H          -1.29819505        0.94332928        0.26844911
H          -1.29819505       -0.94332928       -0.26844911
H           1.29819505        0.94332928       -0.26844911
H           1.29819505       -0.94332928        0.26844911
6
MD Time 2680.00
C          -0.73112349       -0.00000000       -0.00000000
C           0.73112349       -0.00000000       -0.00000000
H          -1.29488061        0.93911152        0.26595837
H          -1.29488061       -0.93911152       -0.26595837
H           1.29488061        0.93911152       -0.26595837
H           1.29488061       -0.93911152        0.26595837
6
MD Time 2690.00
C          -0.71887401       -0.00000000       -0.00000000
C           0.71887401       -0.00000000       -0.00000000
H          -1.29071243        0.93382560        0.26302963
H          -1.29071243       -0.93382560       -0.26302963
H           1.29071243        0.93382560       -0.26302963
H           1.29071243       -0.93382560        0.26302963
6
MD Time 2700.00
C          -0.70681307       -0.00000000       -0.00000000
C           0.70681307       -0.00000000       -0.00000000
H          -1.28566311        0.92754462        0.25967643
H          -1.28566311       -0.92754462       -0.25967643
H           1.28566311        0.92754462       -0.25967643
H           1.28566311       -0.92754462        0.25967643
6
MD Time 2710.00
C          -0.69503940       -0.00000000       -0.00000000
C           0.69503940       -0.00000000       -0.00000000
H          -1.27973227        0.92037957        0.25592562
H          -1.27973227       -0.92037957       -0.25592562
H           1.27973227        0.92037957       -0.25592562
H           1.27973227       -0.92037957        0.25592562
6
MD Time 2720.00
C          -0.68365994       -0.00000000       -0.00000000
C           0.68365994       -0.00000000       -0.00000000
H          -1.27294796        0.91247874        0.25181709
H          -1.27294796       -0.91247874       -0.25181709
H           1.27294796        0.91247874       -0.25181709
H           1.27294796       -0.91247874        0.25181709
6
MD Time 2730.00
C          -0.67278889       -0.00000000       -0.00000000
C           0.67278889       -0.00000000       -0.00000000
H          -1.26536777        0.90402658        0.24740333
H          -1.26536777       -0.90402658       -0.24740333
H           1.26536777        0.90402658       -0.24740333
H           1.26536777       -0.90402658        0.24740333
6
MD Time 2740.00
C          -0.66254604       -0.00000000       -0.00000000
C           0.66254604       -0.00000000       -0.00000000
H          -1.25707944        0.89524182        0.24274862
H          -1.25707944       -0.89524182       -0.24274862
H           1.25707944        0.89524182       -0.24274862
H           1.25707944       -0.89524182        0.24274862
6
MD Time 2750.00
C          -0.65305443       -0.00000000       -0.00000000
C           0.65305443       -0.00000000       -0.00000000
H          -1.24820056        0.88637465        0.23792802
H          -1.24820056       -0.88637465       -0.23792802
H           1.24820056        0.88637465       -0.23792802
H           1.24820056       -0.88637465        0.23792802
6
MD Time 2760.00
C          -0.64443715       -0.00000000       -0.00000000
C           0.64443715       -0.00000000       -0.00000000
H          -1.23887728        0.87770257        0.23302588
H          -1.23887728       -0.87770257       -0.23302588
H           1.23887728        0.87770257       -0.23302588
H           1.23887728       -0.87770257        0.23302588
6
MD Time 2770.00
C          -0.63681346       -0.00000000       -0.00000000
C           0.63681346       -0.00000000       -0.00000000
H          -1.22928147        0.86952460        0.22813391
H          -1.22928147       -0.86952460       -0.22813391
H           1.22928147        0.86952460       -0.22813391
H           1.22928147       -0.86952460        0.22813391
6
MD Time 2780.00
C          -0.63029433       -0.00000000       -0.00000000
C           0.63029433       -0.00000000       -0.00000000
H          -1.21960618        0.86215350        0.22334870
H          -1.21960618       -0.86215350       -0.22334870
H           1.21960618        0.86215350       -0.22334870
H           1.21960618       -0.86215350        0.22334870
6
MD Time 2790.00
C          -0.62497777       -0.00000000       -0.00000000
C           0.62497777       -0.00000000       -0.00000000
H          -1.21005893        0.85590572        0.21876867
H          -1.21005893       -0.85590572       -0.21876867
H           1.21005893        0.85590572       -0.21876867
H           1.21005893       -0.85590572        0.21876867
6
MD Time 2800.00
C          -0.62094421       -0.00000000       -0.00000000
C           0.62094421       -0.00000000       -0.00000000
H          -1.20085297        0.85108905        0.21449044
H          -1.20085297       -0.85108905       -0.21449044
H           1.20085297        0.85108905       -0.21449044
H           1.20085297       -0.85108905        0.21449044
6
MD Time 2810.00
C          -0.61825259       -0.00000000       -0.00000000
C           0.61825259       -0.00000000       -0.00000000
H          -1.19219665        0.84798808        0.21060484
H          -1.19219665       -0.84798808       -0.21060484
H           1.19219665        0.84798808       -0.21060484
H           1.19219665       -0.84798808        0.21060484
6
MD Time 2820.00
C          -0.61693738       -0.00000000       -0.00000000
C           0.61693738       -0.00000000       -0.00000000
H          -1.18428158        0.84684842        0.20719264
H          -1.18428158       -0.84684842       -0.20719264
H           1.18428158        0.84684842       -0.20719264
H           1.18428158       -0.84684842        0.20719264
6
MD Time 2830.00
C          -0.61700713       -0.00000000       -0.00000000
C           0.61700713       -0.00000000       -0.00000000
H          -1.17727055        0.84786042        0.20432045
H          -1.17727055       -0.84786042       -0.20432045
H           1.17727055        0.84786042       -0.20432045
H           1.17727055       -0.84786042        0.20432045
6
MD Time 2840.00
C          -0.61844440       -0.00000000        0.00000000
C           0.61844440       -0.00000000       -0.00000000
H          -1.17128680        0.85114436        0.20203713
H          -1.17128680       -0.85114436       -0.20203713
H           1.17128680        0.85114436       -0.20203713
H           1.17128680       -0.85114436        0.20203713
6
MD Time 2850.00
C          -0.62120730       -0.00000000        0.00000000
C           0.62120730       -0.00000000       -0.00000000
H          -1.16640598        0.85673870        0.20037110
H          -1.16640598       -0.85673870       -0.20037110
H           1.16640598        0.85673870       -0.20037110
H           1.16640598       -0.85673870        0.20037110
6
MD Time 2860.00
C          -0.62523210       -0.00000000        0.00000000
C           0.62523210       -0.00000000       -0.00000000
H          -1.16265209        0.86459315        0.19932904
H          -1.16265209       -0.86459315       -0.19932904
H           1.16265209        0.86459315       -0.19932904
H           1.16265209       -0.86459315        0.19932904
6
MD Time 2870.00
C          -0.63043678       -0.00000000        0.00000000
C           0.63043678       -0.00000000       -0.00000000
H          -1.15999809        0.87456777        0.19889598
H          -1.15999809       -0.87456777       -0.19889598
H           1.15999809        0.87456777       -0.19889598
H           1.15999809       -0.87456777        0.19889598
6
MD Time 2880.00
C          -0.63672491       -0.00000000       -0.00000000
C           0.63672491       -0.00000000       -0.00000000
H          -1.15837120        0.88643849        0.19903695
H          -1.15837120       -0.88643849       -0.19903695
H           1.15837120        0.88643849       -0.19903695
H           1.15837120       -0.88643849        0.19903695
6
MD Time 2890.00
C          -0.64398963       -0.00000000       -0.00000000
C           0.64398963       -0.00000000       -0.00000000
H          -1.15766177        0.89990842        0.19969994
H          -1.15766177       -0.89990842       -0.19969994
H           1.15766177        0.89990842       -0.19969994
H           1.15766177       -0.89990842        0.19969994
6
MD Time 2900.00
C          -0.65211739       -0.00000000       -0.00000000
C           0.65211739       -0.00000000       -0.00000000
H          -1.15773459        0.91462347        0.20081967
H          -1.15773459       -0.91462347       -0.20081967
H           1.15773459        0.91462347       -0.20081967
H           1.15773459       -0.91462347        0.20081967
6
MD Time 2910.00
C          -0.66099139       -0.00000000       -0.00000000
C           0.66099139       -0.00000000       -0.00000000
H          -1.15844090        0.93019058        0.20232192
H          -1.15844090       -0.93019058       -0.20232192
H           1.15844090        0.93019058       -0.20232192
H           1.15844090       -0.93019058        0.20232192
6
MD Time 2920.00
C          -0.67049450       -0.00000000       -0.00000000
C           0.67049450       -0.00000000       -0.00000000
H          -1.15962965        0.94619637        0.20412783
H          -1.15962965       -0.94619637       -0.20412783
H           1.15962965        0.94619637       -0.20412783
H           1.15962965       -0.94619637        0.20412783
6
MD Time 2930.00
C          -0.68051178       -0.00000000       -0.00000000
C           0.68051178       -0.00000000       -0.00000000
H          -1.16115712        0.96222477        0.20615796
H          -1.16115712       -0.96222477       -0.20615796
H           1.16115712        0.96222477       -0.20615796
H           1.16115712       -0.96222477        0.20615796
6
MD Time 2940.00
C          -0.69093245       -0.00000000       -0.00000000
C           0.69093245       -0.00000000       -0.00000000
H          -1.16289429        0.97787244        0.20833565
H          -1.16289429       -0.97787244       -0.20833565
H           1.16289429        0.97787244       -0.20833565
H           1.16289429       -0.97787244        0.20833565
6
MD Time 2950.00
C          -0.70165146       -0.00000000       -0.00000000
C           0.70165146       -0.00000000       -0.00000000
H          -1.16473182        0.99276128        0.21058990
H          -1.16473182       -0.99276128       -0.21058990
H           1.16473182        0.99276128       -0.21058990
H           1.16473182       -0.99276128        0.21058990
6
MD Time 2960.00
C          -0.71257057       -0.00000000       -0.00000000
C           0.71257057       -0.00000000       -0.00000000
H          -1.16658297        1.00654805        0.21285742
H          -1.16658297       -1.00654805       -0.21285742
H           1.16658297        1.00654805       -0.21285742
H           1.16658297       -1.00654805        0.21285742
6
MD Time 2970.00
C          -0.72359900       -0.00000000       -0.00000000
C           0.72359900       -0.00000000       -0.00000000
H          -1.16838479        1.01893122        0.21508415
H          -1.16838479       -1.01893122       -0.21508415
H           1.16838479        1.01893122       -0.21508415
H           1.16838479       -1.01893122        0.21508415
6
MD Time 2980.00
C          -0.73465381       -0.00000000       -0.00000000
C           0.73465381       -0.00000000       -0.00000000
H          -1.17009808        1.02965553        0.21722619
H          -1.17009808       -1.02965553       -0.21722619
H           1.17009808        1.02965553       -0.21722619
H           1.17009808       -1.02965553        0.21722619
6
MD Time 2990.00
C          -0.74565986       -0.00000000       -0.00000000
C           0.74565986       -0.00000000       -0.00000000
H          -1.17170645        1.03851474        0.21925039
H          -1.17170645       -1.03851474       -0.21925039
H           1.17170645        1.03851474       -0.21925039
H           1.17170645       -1.03851474        0.21925039
