6
MD Time 0.00
C          -1.00425000        0.00000000        0.00000000
C           1.00425000        0.00000000        0.00000000
H          -1.57974232        0.85087479        0.35244388
H          -1.57974232       -0.85087479       -0.35244388
H           1.57974232        0.85087479       -0.35244388
H           1.57974232       -0.85087479        0.35244388
6
MD Time 10.00
C          -1.00408037       -0.00000000       -0.00000000
C           1.00408037       -0.00000000        0.00000000
H          -1.57960913        0.85109364        0.35233073
H          -1.57960913       -0.85109364       -0.35233073
H           1.57960913        0.85109364       -0.35233073
H           1.57960913       -0.85109364        0.35233073
6
MD Time 20.00
C          -1.00357159       -0.00000000       -0.00000000
C           1.00357159       -0.00000000       -0.00000000
H          -1.57920822        0.85174731        0.35199009
H          -1.57920822       -0.85174731       -0.35199009
H           1.57920822        0.85174731       -0.35199009
H           1.57920822       -0.85174731        0.35199009
6
MD Time 30.00
C          -1.00272406       -0.00000000       -0.00000000
C           1.00272406       -0.00000000       -0.00000000
H          -1.57853561        0.85282716        0.35141842
H          -1.57853561       -0.85282716       -0.35141842
H           1.57853561        0.85282716       -0.35141842
H           1.57853561       -0.85282716        0.35141842
6
MD Time 40.00
C          -1.00153838       -0.00000000       -0.00000000
C           1.00153836       -0.00000000       -0.00000000
H          -1.57758479        0.85431902        0.35060988
H          -1.57758479       -0.85431902       -0.35060988
H           1.57758488        0.85431910       -0.35060993
H           1.57758488       -0.85431910        0.35060993
6
MD Time 50.00
C          -1.00001536        0.00000000       -0.00000000
C           1.00001533       -0.00000000       -0.00000000
H          -1.57634702        0.85620358        0.34955661
H          -1.57634702       -0.85620358       -0.34955661
H           1.57634720        0.85620374       -0.34955671
H           1.57634720       -0.85620374        0.34955671
6
MD Time 60.00
C          -0.99815596        0.00000000       -0.00000000
C           0.99815594       -0.00000000       -0.00000000
H          -1.57481154        0.85845676        0.34824892
H          -1.57481154       -0.85845676       -0.34824892
H           1.57481165        0.85845685       -0.34824897
H           1.57481165       -0.85845685        0.34824897
6
MD Time 70.00
C          -0.99596125        0.00000000       -0.00000000
C           0.99596125       -0.00000000       -0.00000000
H          -1.57296571        0.86105010        0.34667540
H          -1.57296571       -0.86105010       -0.34667540
H           1.57296575        0.86105012       -0.34667542
H           1.57296575       -0.86105012        0.34667542
6
MD Time 80.00
C          -0.99343235        0.00000000       -0.00000000
C           0.99343238       -0.00000000       -0.00000000
H          -1.57079567        0.86395158        0.34482348
H          -1.57079567       -0.86395158       -0.34482348
H           1.57079550        0.86395141       -0.34482338
H           1.57079550       -0.86395141        0.34482338
6
MD Time 90.00
C          -0.99057037        0.00000000       -0.00000000
C           0.99057044       -0.00000000       -0.00000000
H          -1.56828644        0.86712606        0.34267951
H          -1.56828644       -0.86712606       -0.34267951
H           1.56828605        0.86712571       -0.34267930
H           1.56828605       -0.86712571        0.34267930
6
MD Time 100.00
C          -0.98737633        0.00000000       -0.00000000
C           0.98737647       -0.00000000       -0.00000000
H          -1.56542264        0.87053618        0.34022934
H          -1.56542264       -0.87053618       -0.34022934
H           1.56542184        0.87053548       -0.34022893
H           1.56542184       -0.87053548        0.34022893
6
MD Time 110.00
C          -0.98385114        0.00000000       -0.00000000
C           0.98385134       -0.00000000       -0.00000000
H          -1.56218850        0.87414277        0.33745842
H          -1.56218850       -0.87414277       -0.33745842
H           1.56218732        0.87414173       -0.33745780
H           1.56218732       -0.87414173        0.33745780
6
MD Time 120.00
C          -0.97999547        0.00000000       -0.00000000
C           0.97999577       -0.00000000       -0.00000000
H          -1.55856872        0.87790583        0.33435234
H          -1.55856872       -0.87790583       -0.33435234
H           1.55856696        0.87790432       -0.33435143
H           1.55856696       -0.87790432        0.33435143
6
MD Time 130.00
C          -0.97580978        0.00000000       -0.00000000
C           0.97581017       -0.00000000       -0.00000000
H          -1.55454836        0.88178492        0.33089696
H          -1.55454836       -0.88178492       -0.33089696
H           1.55454606        0.88178297       -0.33089577
H           1.55454606       -0.88178297        0.33089577
6
MD Time 140.00
C          -0.97129420        0.00000000       -0.00000000
C           0.97129470       -0.00000000       -0.00000000
H          -1.55011367        0.88574005        0.32707887
H          -1.55011367       -0.88574005       -0.32707887
H           1.55011064        0.88573752       -0.32707731
H           1.55011064       -0.88573752        0.32707731
6
MD Time 150.00
C          -0.96644852        0.00000000        0.00000000
C           0.96644914       -0.00000000       -0.00000000
H          -1.54525193        0.88973198        0.32288545
H          -1.54525193       -0.88973198       -0.32288545
H           1.54524822        0.88972893       -0.32288355
H           1.54524822       -0.88972893        0.32288355
6
MD Time 160.00
C          -0.96127216        0.00000000        0.00000000
C           0.96127293       -0.00000000       -0.00000000
H          -1.53995221        0.89372309        0.31830534
H          -1.53995221       -0.89372309       -0.31830534
H           1.53994763        0.89371938       -0.31830299
H           1.53994763       -0.89371938        0.31830299
6
MD Time 170.00
C          -0.95576414        0.00000000        0.00000000
C           0.95576505       -0.00000000       -0.00000000
H          -1.53420512        0.89767743        0.31332831
H          -1.53420512       -0.89767743       -0.31332831
H           1.53419973        0.89767314       -0.31332556
H           1.53419973       -0.89767314        0.31332556
6
MD Time 180.00
C          -0.94992307        0.00000000        0.00000000
C           0.94992410       -0.00000000       -0.00000000
H          -1.52800337        0.90156149        0.30794572
H          -1.52800337       -0.90156149       -0.30794572
H           1.52799723        0.90155674       -0.30794258
H           1.52799723       -0.90155674        0.30794258
6
MD Time 190.00
C          -0.94374711        0.00000000        0.00000000
C           0.94374829       -0.00000000       -0.00000000
H          -1.52134194        0.90534457        0.30215051
H          -1.52134194       -0.90534457       -0.30215051
H           1.52133491        0.90533924       -0.30214693
H           1.52133491       -0.90533924        0.30214693
6
MD Time 200.00
C          -0.93723404        0.00000000        0.00000000
C           0.93723536       -0.00000000       -0.00000000
H          -1.51421788        0.90899869        0.29593721
H          -1.51421788       -0.90899869       -0.29593721
H           1.51421004        0.90899292       -0.29593321
H           1.51421004       -0.90899292        0.29593321
6
MD Time 210.00
C          -0.93038124        0.00000000        0.00000000
C           0.93038268       -0.00000000       -0.00000000
H          -1.50663068        0.91249920        0.28930211
H          -1.50663068       -0.91249920       -0.28930211
H           1.50662213        0.91249314       -0.28929775
H           1.50662213       -0.91249314        0.28929775
6
MD Time 220.00
C          -0.92318571        0.00000000        0.00000000
C           0.92318725       -0.00000000       -0.00000000
H          -1.49858230        0.91582486        0.28224326
H          -1.49858230       -0.91582486       -0.28224326
H           1.49857313        0.91581865       -0.28223858
H           1.49857313       -0.91581865        0.28223858
6
MD Time 230.00
C          -0.91564412        0.00000000        0.00000000
C           0.91564574       -0.00000000       -0.00000000
H          -1.49007713        0.91895792        0.27476046
H          -1.49007713       -0.91895792       -0.27476046
H           1.49006746        0.91895174       -0.27475551
H           1.49006746       -0.91895174        0.27475551
6
MD Time 240.00
C          -0.90775289        0.00000000        0.00000000
C           0.90775458       -0.00000000       -0.00000000
H          -1.48112201        0.92188424        0.26685527
H          -1.48112201       -0.92188424       -0.26685527
H           1.48111196        0.92187825       -0.26685010
H           1.48111196       -0.92187825        0.26685010
6
MD Time 250.00
C          -0.89950823        0.00000000        0.00000000
C           0.89950996       -0.00000000       -0.00000000
H          -1.47172623        0.92459327        0.25853092
H          -1.47172623       -0.92459327       -0.25853092
H           1.47171590        0.92458763       -0.25852558
H           1.47171590       -0.92458763        0.25852558
6
MD Time 260.00
C          -0.89090624        0.00000000        0.00000000
C           0.89090800        0.00000000       -0.00000000
H          -1.46190141        0.92707801        0.24979230
H          -1.46190141       -0.92707801       -0.24979230
H           1.46189093        0.92707290       -0.24978684
H           1.46189093       -0.92707290        0.24978684
6
MD Time 270.00
C          -0.88194304        0.00000000        0.00000000
C           0.88194481        0.00000000       -0.00000000
H          -1.45166146        0.92933494        0.24064589
H          -1.45166146       -0.92933494       -0.24064589
H           1.45165094        0.92933051       -0.24064035
H           1.45165094       -0.92933051        0.24064035
6
MD Time 280.00
C          -0.87261487        0.00000000        0.00000000
C           0.87261662        0.00000000       -0.00000000
H          -1.44102246        0.93136386        0.23109965
H          -1.44102246       -0.93136386       -0.23109965
H           1.44101202        0.93136027       -0.23109406
H           1.44101202       -0.93136027        0.23109406
6
MD Time 290.00
C          -0.86291826        0.00000000        0.00000000
C           0.86291999        0.00000000       -0.00000000
H          -1.43000252        0.93316765        0.22116296
H          -1.43000252       -0.93316765       -0.22116296
H           1.42999227        0.93316505       -0.22115736
H           1.42999227       -0.93316505        0.22115736
6
MD Time 300.00
C          -0.85285025        0.00000000        0.00000000
C           0.85285192        0.00000000       -0.00000000
H          -1.41862164        0.93475210        0.21084651
H          -1.41862164       -0.93475210       -0.21084651
H           1.41861168        0.93475060       -0.21084095
H           1.41861168       -0.93475060        0.21084095
6
MD Time 310.00
C          -0.84240854        0.00000000        0.00000000
C           0.84241017        0.00000000       -0.00000000
H          -1.40690158        0.93612558        0.20016231
H          -1.40690158       -0.93612558       -0.20016231
H           1.40689184        0.93612511       -0.20015672
H           1.40689184       -0.93612511        0.20015672
6
MD Time 320.00
C          -0.83159184        0.00000000        0.00000000
C           0.83159343        0.00000000       -0.00000000
H          -1.39486542        0.93729849        0.18912341
H          -1.39486542       -0.93729849       -0.18912341
H           1.39485598        0.93729912       -0.18911783
H           1.39485598       -0.93729912        0.18911783
6
MD Time 330.00
C          -0.82040015        0.00000000        0.00000000
C           0.82040166        0.00000000       -0.00000000
H          -1.38253755        0.93828301        0.17774400
H          -1.38253755       -0.93828301       -0.17774400
H           1.38252855        0.93828491       -0.17773846
H           1.38252855       -0.93828491        0.17773846
6
MD Time 340.00
C          -0.80883507        0.00000000        0.00000000
C           0.80883649        0.00000000       -0.00000000
H          -1.36994345        0.93909275        0.16603930
H          -1.36994345       -0.93909275       -0.16603930
H           1.36993497        0.93909596       -0.16603382
H           1.36993497       -0.93909596        0.16603382
6
MD Time 350.00
C          -0.79690030        0.00000000        0.00000000
C           0.79690162        0.00000000       -0.00000000
H          -1.35710934        0.93974208        0.15402554
H          -1.35710934       -0.93974208       -0.15402554
H           1.35710146        0.93974667       -0.15402013
H           1.35710146       -0.93974667        0.15402013
6
MD Time 360.00
C          -0.78460209        0.00000000        0.00000000
C           0.78460331        0.00000000       -0.00000000
H          -1.34406196        0.94024575        0.14171991
H          -1.34406196       -0.94024575       -0.14171991
H           1.34405472        0.94025172       -0.14171458
H           1.34405472       -0.94025172        0.14171458
6
MD Time 370.00
C          -0.77194982        0.00000000        0.00000000
C           0.77195093        0.00000000       -0.00000000
H          -1.33082832        0.94061830        0.12914061
H          -1.33082832       -0.94061830       -0.12914061
H           1.33082173        0.94062562       -0.12913535
H           1.33082173       -0.94062562        0.12913535
6
MD Time 380.00
C          -0.75895668        0.00000000        0.00000000
C           0.75895766        0.00000000       -0.00000000
H          -1.31743537        0.94087355        0.11630684
H          -1.31743537       -0.94087355       -0.11630684
H           1.31742957        0.94088231       -0.11630169
H           1.31742957       -0.94088231        0.11630169
6
MD Time 390.00
C          -0.74564042        0.00000000        0.00000000
C           0.74564126        0.00000000       -0.00000000
H          -1.30390999        0.94102434        0.10323896
H          -1.30390999       -0.94102434       -0.10323896
H           1.30390497        0.94103447       -0.10323390
H           1.30390497       -0.94103447        0.10323390
6
MD Time 400.00
C          -0.73202420        0.00000000        0.00000000
C           0.73202491        0.00000000       -0.00000000
H          -1.29027863        0.94108191        0.08995849
H          -1.29027863       -0.94108191       -0.08995849
H           1.29027438        0.94109330       -0.08995351
H           1.29027438       -0.94109330        0.08995351
6
MD Time 410.00
C          -0.71813765        0.00000000        0.00000000
C           0.71813824        0.00000000       -0.00000000
H          -1.27656723        0.94105570        0.07648829
H          -1.27656723       -0.94105570       -0.07648829
H           1.27656369        0.94106816       -0.07648339
H           1.27656369       -0.94106816        0.07648339
6
MD Time 420.00
C          -0.70401796        0.00000000        0.00000000
C           0.70401843        0.00000000       -0.00000000
H          -1.26280109        0.94095293        0.06285267
H          -1.26280109       -0.94095293       -0.06285267
H           1.26279831        0.94096645       -0.06284785
H           1.26279831       -0.94096645        0.06284785
6
MD Time 430.00
C          -0.68971113        0.00000000        0.00000000
C           0.68971149        0.00000000       -0.00000000
H          -1.24900510        0.94077892        0.04907756
H          -1.24900510       -0.94077892       -0.04907756
H           1.24900291        0.94079317       -0.04907280
H           1.24900291       -0.94079317        0.04907280
6
MD Time 440.00
C          -0.67527336        0.00000000        0.00000000
C           0.67527363        0.00000000       -0.00000000
H          -1.23520348        0.94053655        0.03519058
H          -1.23520348       -0.94053655       -0.03519058
H           1.23520191        0.94055146       -0.03518587
H           1.23520191       -0.94055146        0.03518587
6
MD Time 450.00
C          -0.66077253        0.00000000        0.00000000
C           0.66077271        0.00000000       -0.00000000
H          -1.22142039        0.94022699        0.02122120
H          -1.22142039       -0.94022699       -0.02122120
H           1.22141928        0.94024222       -0.02121654
H           1.22141928       -0.94024222        0.02121654
6
MD Time 460.00
C          -0.64628965        0.00000000        0.00000000
C           0.64628977        0.00000000       -0.00000000
H          -1.20767988        0.93984955        0.00720077
H          -1.20767988       -0.93984955       -0.00720077
H           1.20767920        0.93986496       -0.00719616
H           1.20767920       -0.93986496        0.00719616
6
MD Time 470.00
C          -0.63192036        0.00000000        0.00000000
C           0.63192042        0.00000000       -0.00000000
H          -1.19400660        0.93940254       -0.00683742
H          -1.19400660       -0.93940254        0.00683742
H           1.19400620        0.93941783        0.00684200
H           1.19400620       -0.93941783       -0.00684200
6
MD Time 480.00
C          -0.61777609        0.00000000        0.00000000
C           0.61777612        0.00000000       -0.00000000
H          -1.18042612        0.93888357       -0.02085830
H          -1.18042612       -0.93888357        0.02085830
H           1.18042594        0.93889853        0.02086283
H           1.18042594       -0.93889853       -0.02086283
6
MD Time 490.00
C          -0.60398497        0.00000000        0.00000000
C           0.60398498        0.00000000       -0.00000000
H          -1.16696573        0.93829049       -0.03482507
H          -1.16696573       -0.93829049        0.03482507
H           1.16696565        0.93830488        0.03482955
H           1.16696565       -0.93830488       -0.03482955
6
MD Time 500.00
C          -0.59069193        0.00000000        0.00000000
C           0.59069194        0.00000000       -0.00000000
H          -1.15365501        0.93762213       -0.04869951
H          -1.15365501       -0.93762213        0.04869951
H           1.15365494        0.93763572        0.04870394
H           1.15365494       -0.93763572       -0.04870394
6
MD Time 510.00
C          -0.57805791        0.00000000        0.00000000
C           0.57805794        0.00000000       -0.00000000
H          -1.14052666        0.93687924       -0.06244232
H          -1.14052666       -0.93687924        0.06244232
H           1.14052652        0.93689182        0.06244668
H           1.14052652       -0.93689182       -0.06244668
6
MD Time 520.00
C          -0.56625770        0.00000000        0.00000000
C           0.56625775        0.00000000       -0.00000000
H          -1.12761719        0.93606545       -0.07601352
H          -1.12761719       -0.93606545        0.07601352
H           1.12761689        0.93607682        0.07601781
H           1.12761689       -0.93607682       -0.07601781
6
MD Time 530.00
C          -0.55547609        0.00000000        0.00000000
C           0.55547618        0.00000000       -0.00000000
H          -1.11496762        0.93518830       -0.08937302
H          -1.11496762       -0.93518830        0.08937302
H           1.11496708        0.93519827        0.08937722
H           1.11496708       -0.93519827       -0.08937722
6
MD Time 540.00
C          -0.54590212        0.00000000        0.00000000
C           0.54590226        0.00000000       -0.00000000
H          -1.10262404        0.93426021       -0.10248116
H          -1.10262404       -0.93426021        0.10248116
H           1.10262321        0.93426864        0.10248526
H           1.10262321       -0.93426864       -0.10248526
6
MD Time 550.00
C          -0.53772135        0.00000000        0.00000000
C           0.53772154        0.00000000       -0.00000000
H          -1.09063802        0.93329946       -0.11529933
H          -1.09063802       -0.93329946        0.11529933
H           1.09063683        0.93330622        0.11530332
H           1.09063683       -0.93330622       -0.11530332
6
MD Time 560.00
C          -0.53110646        0.00000000        0.00000000
C           0.53110672        0.00000000       -0.00000000
H          -1.07906673        0.93233104       -0.12779065
H          -1.07906673       -0.93233104        0.12779065
H           1.07906516        0.93233603        0.12779452
H           1.07906516       -0.93233603       -0.12779452
6
MD Time 570.00
C          -0.52620686        0.00000000        0.00000000
C           0.52620719        0.00000000       -0.00000000
H          -1.06797290        0.93138736       -0.13992057
H          -1.06797290       -0.93138736        0.13992057
H           1.06797093        0.93139050        0.13992430
H           1.06797093       -0.93139050       -0.13992430
6
MD Time 580.00
C          -0.52313835        0.00000000        0.00000000
C           0.52313875        0.00000000       -0.00000000
H          -1.05742432        0.93050870       -0.15165747
H          -1.05742432       -0.93050870        0.15165747
H           1.05742193        0.93050996        0.15166107
H           1.05742193       -0.93050996       -0.15166107
6
MD Time 590.00
C          -0.52197420        0.00000000        0.00000000
C           0.52197467        0.00000000       -0.00000000
H          -1.04749313        0.92974329       -0.16297325
H          -1.04749313       -0.92974329        0.16297325
H           1.04749034        0.92974265        0.16297671
H           1.04749034       -0.92974265       -0.16297671
6
MD Time 600.00
C          -0.52273911        0.00000000        0.00000000
C           0.52273964        0.00000000       -0.00000000
H          -1.03825467        0.92914692       -0.17384379
H          -1.03825467       -0.92914692        0.17384379
H           1.03825151        0.92914441        0.17384712
H           1.03825151       -0.92914441       -0.17384712
6
MD Time 610.00
C          -0.52540685        0.00000000        0.00000000
C           0.52540744        0.00000000       -0.00000000
H          -1.02978611        0.92878202       -0.18424930
H          -1.02978611       -0.92878202        0.18424930
H           1.02978261        0.92877770        0.18425251
H           1.02978261       -0.92877770       -0.18425251
6
MD Time 620.00
C          -0.52990231        0.00000000        0.00000000
C           0.52990295        0.00000000       -0.00000000
H          -1.02216464        0.92871599       -0.19417460
H          -1.02216464       -0.92871599        0.19417460
H           1.02216086        0.92870994        0.19417771
H           1.02216086       -0.92870994       -0.19417771
6
MD Time 630.00
C          -0.53610730        0.00000000        0.00000000
C           0.53610797        0.00000000       -0.00000000
H          -1.01546549        0.92901892       -0.20360910
H          -1.01546549       -0.92901892        0.20360910
H           1.01546151        0.92901128        0.20361214
H           1.01546151       -0.92901128       -0.20361214
6
MD Time 640.00
C          -0.54386942        0.00000000        0.00000000
C           0.54387011        0.00000000       -0.00000000
H          -1.00975982        0.92976068       -0.21254664
H          -1.00975982       -0.92976068        0.21254664
H           1.00975572        0.92975161        0.21254963
H           1.00975572       -0.92975161       -0.21254963
6
MD Time 650.00
C          -0.55301243        0.00000000        0.00000000
C           0.55301312        0.00000000       -0.00000000
H          -1.00511242        0.93100742       -0.22098500
H          -1.00511242       -0.93100742        0.22098500
H           1.00510830        0.93099712        0.22098798
H           1.00510830       -0.93099712       -0.22098798
6
MD Time 660.00
C          -0.56334691        0.00000000        0.00000000
C           0.56334759        0.00000000       -0.00000000
H          -1.00157962        0.93281789       -0.22892520
H          -1.00157962       -0.93281789        0.22892520
H           1.00157559        0.93280656        0.22892823
H           1.00157559       -0.93280656       -0.22892823
6
MD Time 670.00
C          -0.57467998        0.00000000        0.00000000
C           0.57468062        0.00000000       -0.00000000
H          -0.99920745        0.93523959       -0.23637054
H          -0.99920745       -0.93523959        0.23637054
H           0.99920362        0.93522747        0.23637366
H           0.99920362       -0.93522747       -0.23637366
6
MD Time 680.00
C          -0.58682327        0.00000000        0.00000000
C           0.58682385        0.00000000       -0.00000000
H          -0.99803011        0.93830532       -0.24332546
H          -0.99803011       -0.93830532        0.24332546
H           0.99802661        0.93829268        0.24332873
H           0.99802661       -0.93829268       -0.24332873
6
MD Time 690.00
C          -0.59959900        0.00000000        0.00000000
C           0.59959951        0.00000000       -0.00000000
H          -0.99806913        0.94203027       -0.24979438
H          -0.99806913       -0.94203027        0.24979438
H           0.99806606        0.94201736        0.24979788
H           0.99806606       -0.94201736       -0.24979788
6
MD Time 700.00
C          -0.61284398        0.00000000        0.00000000
C           0.61284440        0.00000000       -0.00000000
H          -0.99933296        0.94640996       -0.25578061
H          -0.99933296       -0.94640996        0.25578061
H           0.99933045        0.94639704        0.25578440
H           0.99933045       -0.94639704       -0.25578440
6
MD Time 710.00
C          -0.62641182        0.00000000        0.00000000
C           0.62641213        0.00000000       -0.00000000
H          -1.00181733        0.95141917       -0.26128540
H          -1.00181733       -0.95141917        0.26128540
H           1.00181547        0.95140651        0.26128954
H           1.00181547       -0.95140651       -0.26128954
6
MD Time 720.00
C          -0.64017371        0.00000000        0.00000000
C           0.64017390        0.00000000       -0.00000000
H          -1.00550596        0.95701211       -0.26630727
H          -1.00550596       -0.95701211        0.26630727
H           1.00550485        0.95699994        0.26631183
H           1.00550485       -0.95699994       -0.26631183
6
MD Time 730.00
C          -0.65401818        0.00000000        0.00000000
C           0.65401823        0.00000000       -0.00000000
H          -1.01037186        0.96312350       -0.27084171
H          -1.01037186       -0.96312350        0.27084171
H           1.01037158        0.96311206        0.27084674
H           1.01037158       -0.96311206       -0.27084674
6
MD Time 740.00
C          -0.66785006        0.00000000        0.00000000
C           0.66784995        0.00000000       -0.00000000
H          -1.01637877        0.96967073       -0.27488111
H          -1.01637877       -0.96967073        0.27488111
H           1.01637939        0.96966021        0.27488666
H           1.01637939       -0.96966021       -0.27488666
6
MD Time 750.00
C          -0.68158905        0.00000000        0.00000000
C           0.68158878        0.00000000       -0.00000000
H          -1.02348284        0.97655665       -0.27841510
H          -1.02348284       -0.97655665        0.27841510
H           1.02348441        0.97654722        0.27842122
H           1.02348441       -0.97654722       -0.27842122
6
MD Time 760.00
C          -0.69516810        0.00000000        0.00000000
C           0.69516767        0.00000000       -0.00000000
H          -1.03163428        0.98367287       -0.28143104
H          -1.03163428       -0.98367287        0.28143104
H           1.03163684        0.98366465        0.28143777
H           1.03163684       -0.98366465       -0.28143777
6
MD Time 770.00
C          -0.70853173        0.00000000        0.00000000
C           0.70853113        0.00000000       -0.00000000
H          -1.04077886        0.99090324       -0.28391472
H          -1.04077886       -0.99090324        0.28391472
H           1.04078243        0.99089635        0.28392208
H           1.04078243       -0.99089635       -0.28392208
6
MD Time 780.00
C          -0.72163443        0.00000000        0.00000000
C           0.72163366        0.00000000       -0.00000000
H          -1.05085935        0.99812737       -0.28585113
H          -1.05085935       -0.99812737        0.28585113
H           1.05086393        0.99812186        0.28585914
H           1.05086393       -0.99812186       -0.28585914
6
MD Time 790.00
C          -0.73443914        0.00000000        0.00000000
C           0.73443821        0.00000000       -0.00000000
H          -1.06181662        1.00522384       -0.28722520
H          -1.06181662       -1.00522384        0.28722520
H           1.06182221        1.00521976        0.28723386
H           1.06182221       -1.00521976       -0.28723386
6
MD Time 800.00
C          -0.74691601        0.00000000        0.00000000
C           0.74691490        0.00000000       -0.00000000
H          -1.07359069        1.01207317       -0.28802258
H          -1.07359069       -1.01207317        0.28802258
H           1.07359726        1.01207053        0.28803190
H           1.07359726       -1.01207053       -0.28803190
6
MD Time 810.00
C          -0.75904116        0.00000000        0.00000000
C           0.75903990        0.00000000       -0.00000000
H          -1.08612138        1.01856039       -0.28823027
H          -1.08612138       -1.01856039        0.28823027
H           1.08612890        1.01855907        0.28824019
H           1.08612890       -1.01855907       -0.28824019
6
MD Time 820.00
C          -0.77079577        0.00000000        0.00000000
C           0.77079435        0.00000000       -0.00000000
H          -1.09934895        1.02457694       -0.28783713
H          -1.09934895       -1.02457694        0.28783713
H           1.09935737        1.02457688        0.28784763
H           1.09935737       -1.02457688       -0.28784763
6
MD Time 830.00
C          -0.78216519        0.00000000        0.00000000
C           0.78216363       -0.00000000       -0.00000000
H          -1.11321445        1.03002242       -0.28683436
H          -1.11321445       -1.03002242        0.28683436
H           1.11322372        1.03002361        0.28684544
H           1.11322372       -1.03002361       -0.28684544
6
MD Time 840.00
C          -0.79313825        0.00000000        0.00000000
C           0.79313656       -0.00000000       -0.00000000
H          -1.12766007        1.03480594       -0.28521581
H          -1.12766007       -1.03480594        0.28521581
H           1.12767013        1.03480829        0.28522744
H           1.12767013       -1.03480829       -0.28522744
6
MD Time 850.00
C          -0.80370668        0.00000000        0.00000000
C           0.80370486       -0.00000000       -0.00000000
H          -1.14262927        1.03884688       -0.28297819
H          -1.14262927       -1.03884688        0.28297819
H           1.14264005        1.03885030        0.28299035
H           1.14264005       -1.03885030       -0.28299035
6
MD Time 860.00
C          -0.81386454        0.00000000        0.00000000
C           0.81386262       -0.00000000       -0.00000000
H          -1.15806695        1.04207561       -0.28012125
H          -1.15806695       -1.04207561        0.28012125
H           1.15807838        1.04207998        0.28013389
H           1.15807838       -1.04207998       -0.28013389
6
MD Time 870.00
C          -0.82360790        0.00000000        0.00000000
C           0.82360588       -0.00000000       -0.00000000
H          -1.17391950        1.04443384       -0.27664779
H          -1.17391950       -1.04443384        0.27664779
H           1.17393151        1.04443908        0.27666089
H           1.17393151       -1.04443908       -0.27666089
6
MD Time 880.00
C          -0.83293437        0.00000000        0.00000000
C           0.83293227       -0.00000000       -0.00000000
H          -1.19013491        1.04587496       -0.27256373
H          -1.19013491       -1.04587496        0.27256373
H           1.19014740        1.04588091        0.27257724
H           1.19014740       -1.04588091       -0.27257724
6
MD Time 890.00
C          -0.84184288        0.00000000        0.00000000
C           0.84184071       -0.00000000       -0.00000000
H          -1.20666275        1.04636404       -0.26787801
H          -1.20666275       -1.04636404        0.26787801
H           1.20667564        1.04637061        0.26789191
H           1.20667564       -1.04637061       -0.26789191
6
MD Time 900.00
C          -0.85033336        0.00000000        0.00000000
C           0.85033114       -0.00000000       -0.00000000
H          -1.22345427        1.04587801       -0.26260260
H          -1.22345427       -1.04587801        0.26260260
H           1.22346747        1.04588503        0.26261684
H           1.22346747       -1.04588503       -0.26261684
6
MD Time 910.00
C          -0.85840655        0.00000000        0.00000000
C           0.85840430       -0.00000000       -0.00000000
H          -1.24046243        1.04440548       -0.25675233
H          -1.24046243       -1.04440548        0.25675233
H           1.24047585        1.04441284        0.25676688
H           1.24047585       -1.04441284       -0.25676688
6
MD Time 920.00
C          -0.86606380        0.00000000        0.00000000
C           0.86606152       -0.00000000       -0.00000000
H          -1.25764201        1.04194682       -0.25034482
H          -1.25764201       -1.04194682        0.25034482
H           1.25765556        1.04195433        0.25035962
H           1.25765556       -1.04195433       -0.25035962
6
MD Time 930.00
C          -0.87330687        0.00000000        0.00000000
C           0.87330459       -0.00000000       -0.00000000
H          -1.27494967        1.03851393       -0.24340026
H          -1.27494967       -1.03851393        0.24340026
H           1.27496322        1.03852138        0.24341525
H           1.27496322       -1.03852138       -0.24341525
6
MD Time 940.00
C          -0.88013782        0.00000000        0.00000000
C           0.88013556       -0.00000000       -0.00000000
H          -1.29234405        1.03413013       -0.23594131
H          -1.29234405       -1.03413013        0.23594131
H           1.29235750        1.03413732        0.23595643
H           1.29235750       -1.03413732       -0.23595643
6
MD Time 950.00
C          -0.88655883        0.00000000        0.00000000
C           0.88655661       -0.00000000       -0.00000000
H          -1.30978590        1.02882990       -0.22799282
H          -1.30978590       -1.02882990        0.22799282
H           1.30979913        1.02883663        0.22800801
H           1.30979913       -1.02883663       -0.22800801
6
MD Time 960.00
C          -0.89257214        0.00000000        0.00000000
C           0.89256996       -0.00000000       -0.00000000
H          -1.32723814        1.02265857       -0.21958162
H          -1.32723814       -1.02265857        0.21958162
H           1.32725108        1.02266477        0.21959687
H           1.32725108       -1.02266477       -0.21959687
6
MD Time 970.00
C          -0.89817989        0.00000000        0.00000000
C           0.89817778       -0.00000000       -0.00000000
H          -1.34466606        1.01567207       -0.21073629
H          -1.34466606       -1.01567207        0.21073629
H           1.34467861        1.01567754        0.21075155
H           1.34467861       -1.01567754       -0.21075155
6
MD Time 980.00
C          -0.90338410        0.00000000        0.00000000
C           0.90338209       -0.00000000       -0.00000000
H          -1.36203735        1.00793627       -0.20148680
H          -1.36203735       -1.00793627        0.20148680
H           1.36204932        1.00794068        0.20150197
H           1.36204932       -1.00794068       -0.20150197
6
MD Time 990.00
C          -0.90818655        0.00000000        0.00000000
C           0.90818465       -0.00000000       -0.00000000
H          -1.37932202        0.99952614       -0.19186412
H          -1.37932202       -0.99952614        0.19186412
H           1.37933330        0.99952932        0.19187917
H           1.37933330       -0.99952932       -0.19187917
6
MD Time 1000.00
C          -0.91258879        0.00000000        0.00000000
C           0.91258705       -0.00000000       -0.00000000
H          -1.39649253        0.99052519       -0.18189997
H          -1.39649253       -0.99052519        0.18189997
H           1.39650291        0.99052677        0.18191479
H           1.39650291       -0.99052677       -0.18191479
6
MD Time 1010.00
C          -0.91659211        0.00000000        0.00000000
C           0.91659053       -0.00000000       -0.00000000
H          -1.41352344        0.98102391       -0.17162619
H          -1.41352344       -0.98102391        0.17162619
H           1.41353285        0.98102377        0.17164076
H           1.41353285       -0.98102377       -0.17164076
6
MD Time 1020.00
C          -0.92019752        0.00000000        0.00000000
C           0.92019615       -0.00000000       -0.00000000
H          -1.43039141        0.97111895       -0.16107455
H          -1.43039141       -0.97111895        0.16107455
H           1.43039959        0.97111673        0.16108877
H           1.43039959       -0.97111673       -0.16108877
6
MD Time 1030.00
C          -0.92340585        0.00000000        0.00000000
C           0.92340469       -0.00000000       -0.00000000
H          -1.44707446        0.96091102       -0.15027605
H          -1.44707446       -0.96091102        0.15027605
H           1.44708136        0.96090666        0.15028991
H           1.44708136       -0.96090666       -0.15028991
6
MD Time 1040.00
C          -0.92621778        0.00000000        0.00000000
C           0.92621685       -0.00000000       -0.00000000
H          -1.46355171        0.95050350       -0.13926067
H          -1.46355171       -0.95050350        0.13926067
H           1.46355730        0.95049699        0.13927417
H           1.46355730       -0.95049699       -0.13927417
6
MD Time 1050.00
C          -0.92863397        0.00000000        0.00000000
C           0.92863328       -0.00000000       -0.00000000
H          -1.47980265        0.94000051       -0.12805690
H          -1.47980265       -0.94000051        0.12805690
H           1.47980673        0.93999166        0.12806999
H           1.47980673       -0.93999166       -0.12806999
6
MD Time 1060.00
C          -0.93065517        0.00000000        0.00000000
C           0.93065473       -0.00000000       -0.00000000
H          -1.49580605        0.92950447       -0.11669132
H          -1.49580605       -0.92950447        0.11669132
H           1.49580865        0.92949336        0.11670401
H           1.49580865       -0.92949336       -0.11670401
6
MD Time 1070.00
C          -0.93228242        0.00000000        0.00000000
C           0.93228222       -0.00000000       -0.00000000
H          -1.51153928        0.91911437       -0.10518837
H          -1.51153928       -0.91911437        0.10518837
H           1.51154044        0.91910115        0.10520068
H           1.51154044       -0.91910115       -0.10520068
6
MD Time 1080.00
C          -0.93351718        0.00000000        0.00000000
C           0.93351721       -0.00000000       -0.00000000
H          -1.52697720        0.90892361       -0.09357016
H          -1.52697720       -0.90892361        0.09357016
H           1.52697700        0.90890845        0.09358212
H           1.52697700       -0.90890845       -0.09358212
6
MD Time 1090.00
C          -0.93436153        0.00000000        0.00000000
C           0.93436177       -0.00000000       -0.00000000
H          -1.54209116        0.89901809       -0.08185640
H          -1.54209116       -0.89901809        0.08185640
H           1.54208970        0.89900123        0.08186802
H           1.54208970       -0.89900123       -0.08186802
6
MD Time 1100.00
C          -0.93481832        0.00000000        0.00000000
C           0.93481875       -0.00000000       -0.00000000
H          -1.55684803        0.88947462       -0.07006442
H          -1.55684803       -0.88947462        0.07006442
H           1.55684545        0.88945634        0.07007573
H           1.55684545       -0.88945634       -0.07007573
6
MD Time 1110.00
C          -0.93489131        0.00000000        0.00000000
C           0.93489191       -0.00000000       -0.00000000
H          -1.57120947        0.88035964       -0.05820932
H          -1.57120947       -0.88035964        0.05820932
H           1.57120592        0.88034025        0.05822036
H           1.57120592       -0.88034025       -0.05822036
6
MD Time 1120.00
C          -0.93458531        0.00000000        0.00000000
C           0.93458604       -0.00000000       -0.00000000
H          -1.58513132        0.87172833       -0.04630432
H          -1.58513132       -0.87172833        0.04630432
H           1.58512699        0.87170817        0.04631511
H           1.58512699       -0.87170817       -0.04631511
6
MD Time 1130.00
C          -0.93390619        0.00000000        0.00000000
C           0.93390702       -0.00000000       -0.00000000
H          -1.59856336        0.86362421       -0.03436104
H          -1.59856336       -0.86362421        0.03436104
H           1.59855844        0.86360363        0.03437161
H           1.59855844       -0.86360363       -0.03437161
6
MD Time 1140.00
C          -0.93286092        0.00000000        0.00000000
C           0.93286181       -0.00000000       -0.00000000
H          -1.61144933        0.85607918       -0.02238998
H          -1.61144933       -0.85607918        0.02238998
H           1.61144403        0.85605856        0.02240034
H           1.61144403       -0.85605856       -0.02240034
6
MD Time 1150.00
C          -0.93145748        0.00000000        0.00000000
C           0.93145840       -0.00000000       -0.00000000
H          -1.62372735        0.84911396       -0.01040093
H          -1.62372735       -0.84911396        0.01040093
H           1.62372188        0.84909366        0.01041111
H           1.62372188       -0.84909366       -0.01041111
6
MD Time 1160.00
C          -0.92970480        0.00000000        0.00000000
C           0.92970571       -0.00000000       -0.00000000
H          -1.63533058        0.84273886        0.00159654
H          -1.63533058       -0.84273886       -0.00159654
H           1.63532515        0.84271926       -0.00158654
H           1.63532515       -0.84271926        0.00158654
6
MD Time 1170.00
C          -0.92761262        0.00000000        0.00000000
C           0.92761345       -0.00000000       -0.00000000
H          -1.64618808        0.83695482        0.01359270
H          -1.64618808       -0.83695482       -0.01359270
H           1.64618316        0.83693639       -0.01358286
H           1.64618316       -0.83693639        0.01358286
6
MD Time 1180.00
C          -0.92519121        0.00000000        0.00000000
C           0.92519192       -0.00000000       -0.00000000
H          -1.65622641        0.83175481        0.02557727
H          -1.65622641       -0.83175481       -0.02557727
H           1.65622220        0.83173787       -0.02556761
H           1.65622220       -0.83173787        0.02556761
6
MD Time 1190.00
C          -0.92245124        0.00000000        0.00000000
C           0.92245181       -0.00000000       -0.00000000
H          -1.66537058        0.82712496        0.03753919
H          -1.66537058       -0.82712496       -0.03753919
H           1.66536720        0.82710979       -0.03752969
H           1.66536720       -0.82710979        0.03752969
6
MD Time 1200.00
C          -0.91940358        0.00000000        0.00000000
C           0.91940398       -0.00000000       -0.00000000
H          -1.67354546        0.82304594        0.04946631
H          -1.67354546       -0.82304594       -0.04946631
H           1.67354305        0.82303277       -0.04945699
H           1.67354305       -0.82303277        0.04945699
6
MD Time 1210.00
C          -0.91605900        0.00000000        0.00000000
C           0.91605922       -0.00000000       -0.00000000
H          -1.68067729        0.81949422        0.06134533
H          -1.68067729       -0.81949422       -0.06134533
H           1.68067597        0.81948326       -0.06133619
H           1.68067597       -0.81948326        0.06133619
6
MD Time 1220.00
C          -0.91242805        0.00000000        0.00000000
C           0.91242807       -0.00000000       -0.00000000
H          -1.68669491        0.81644322        0.07316170
H          -1.68669491       -0.81644322       -0.07316170
H           1.68669475        0.81643464       -0.07315274
H           1.68669475       -0.81643464        0.07315274
6
MD Time 1230.00
C          -0.90852081        0.00000000        0.00000000
C           0.90852063        0.00000000       -0.00000000
H          -1.69153098        0.81386437        0.08489959
H          -1.69153098       -0.81386437       -0.08489959
H           1.69153203        0.81385828       -0.08489081
H           1.69153203       -0.81385828        0.08489081
6
MD Time 1240.00
C          -0.90434676        0.00000000        0.00000000
C           0.90434638        0.00000000       -0.00000000
H          -1.69512300        0.81172793        0.09654191
H          -1.69512300       -0.81172793       -0.09654191
H           1.69512530        0.81172443       -0.09653333
H           1.69512530       -0.81172443        0.09653333
6
MD Time 1250.00
C          -0.89991465        0.00000000        0.00000000
C           0.89991406        0.00000000       -0.00000000
H          -1.69741425        0.81000382        0.10807045
H          -1.69741425       -0.81000382       -0.10807045
H           1.69741779        0.81000293       -0.10806205
H           1.69741779       -0.81000293        0.10806205
6
MD Time 1260.00
C          -0.89523238        0.00000000        0.00000000
C           0.89523158        0.00000000       -0.00000000
H          -1.69835447        0.80866214        0.11946587
H          -1.69835447       -0.80866214       -0.11946587
H           1.69835922        0.80866387       -0.11945766
H           1.69835922       -0.80866387        0.11945766
6
MD Time 1270.00
C          -0.89030692        0.00000000        0.00000000
C           0.89030592        0.00000000       -0.00000000
H          -1.69790048        0.80767377        0.13070791
H          -1.69790048       -0.80767377       -0.13070791
H           1.69790639        0.80767807       -0.13069988
H           1.69790639       -0.80767807        0.13069988
6
MD Time 1280.00
C          -0.88514427        0.00000000        0.00000000
C           0.88514309        0.00000000       -0.00000000
H          -1.69601661        0.80701073        0.14177545
H          -1.69601661       -0.80701073       -0.14177545
H           1.69602362        0.80701754       -0.14176758
H           1.69602362       -0.80701754        0.14176758
6
MD Time 1290.00
C          -0.87974945        0.00000000        0.00000000
C           0.87974810        0.00000000       -0.00000000
H          -1.69267506        0.80664657        0.15264669
H          -1.69267506       -0.80664657       -0.15264669
H           1.69268308        0.80665578       -0.15263896
H           1.69268308       -0.80665578        0.15263896
6
MD Time 1300.00
C          -0.87412645        0.00000000        0.00000000
C           0.87412495        0.00000000       -0.00000000
H          -1.68785615        0.80655664        0.16329928
H          -1.68785615       -0.80655664       -0.16329928
H           1.68786507        0.80656811       -0.16329167
H           1.68786507       -0.80656811        0.16329167
6
MD Time 1310.00
C          -0.86827827        0.00000000        0.00000000
C           0.86827664        0.00000000       -0.00000000
H          -1.68154849        0.80671838        0.17371045
H          -1.68154849       -0.80671838       -0.17371045
H           1.68155818        0.80673195       -0.17370292
H           1.68155818       -0.80673195        0.17370292
6
MD Time 1320.00
C          -0.86220694        0.00000000        0.00000000
C           0.86220520        0.00000000       -0.00000000
H          -1.67374908        0.80711158        0.18385722
H          -1.67374908       -0.80711158       -0.18385722
H           1.67375941        0.80712706       -0.18384974
H           1.67375941       -0.80712706        0.18384974
6
MD Time 1330.00
C          -0.85591355        0.00000000        0.00000000
C           0.85591173        0.00000000       -0.00000000
H          -1.66446346        0.80771860        0.19371650
H          -1.66446346       -0.80771860       -0.19371650
H           1.66447428        0.80773577       -0.19370902
H           1.66447428       -0.80773577        0.19370902
6
MD Time 1340.00
C          -0.84939833        0.00000000        0.00000000
C           0.84939645        0.00000000       -0.00000000
H          -1.65370568        0.80852463        0.20326532
H          -1.65370568       -0.80852463       -0.20326532
H           1.65371682        0.80854326       -0.20325779
H           1.65371682       -0.80854326        0.20325779
6
MD Time 1350.00
C          -0.84266067        0.00000000        0.00000000
C           0.84265877        0.00000000       -0.00000000
H          -1.64149837        0.80951790        0.21248097
H          -1.64149837       -0.80951790       -0.21248097
H           1.64150965        0.80953775       -0.21247332
H           1.64150965       -0.80953775        0.21247332
6
MD Time 1360.00
C          -0.83569925        0.00000000        0.00000000
C           0.83569736        0.00000000       -0.00000000
H          -1.62787273        0.81068998        0.22134117
H          -1.62787273       -0.81068998       -0.22134117
H           1.62788397        0.81071077       -0.22133335
H           1.62788397       -0.81071077        0.22133335
6
MD Time 1370.00
C          -0.82851212        0.00000000        0.00000000
C           0.82851026        0.00000000       -0.00000000
H          -1.61286847        0.81203595        0.22982430
H          -1.61286847       -0.81203595       -0.22982430
H           1.61287949        0.81205742       -0.22981623
H           1.61287949       -0.81205742        0.22981623
6
MD Time 1380.00
C          -0.82109683        0.00000000        0.00000000
C           0.82109500        0.00000000       -0.00000000
H          -1.59653364        0.81355463        0.23790952
H          -1.59653364       -0.81355463       -0.23790952
H           1.59654449        0.81357658       -0.23790120
H           1.59654449       -0.81357658        0.23790120
6
MD Time 1390.00
C          -0.81345052        0.00000000        0.00000000
C           0.81344876        0.00000000       -0.00000000
H          -1.57892486        0.81524888        0.24557704
H          -1.57892486       -0.81524888       -0.24557704
H           1.57893536        0.81527103       -0.24556840
H           1.57893536       -0.81527103        0.24556840
6
MD Time 1400.00
C          -0.80557017        0.00000000        0.00000000
C           0.80556850        0.00000000       -0.00000000
H          -1.56010678        0.81712565        0.25280825
H          -1.56010678       -0.81712565       -0.25280825
H           1.56011670        0.81714769       -0.25279919
H           1.56011670       -0.81714769        0.25279919
6
MD Time 1410.00
C          -0.79745274        0.00000000        0.00000000
C           0.79745120        0.00000000       -0.00000000
H          -1.54015183        0.81919610        0.25958580
H          -1.54015183       -0.81919610       -0.25958580
H           1.54016098        0.81921774       -0.25957624
H           1.54016098       -0.81921774        0.25957624
6
MD Time 1420.00
C          -0.78909546        0.00000000        0.00000000
C           0.78909408        0.00000000       -0.00000000
H          -1.51913996        0.82147561        0.26589383
H          -1.51913996       -0.82147561       -0.26589383
H           1.51914816        0.82149656       -0.26588368
H           1.51914816       -0.82149656        0.26588368
6
MD Time 1430.00
C          -0.78049609        0.00000000        0.00000000
C           0.78049492        0.00000000       -0.00000000
H          -1.49715815        0.82398372        0.27171799
H          -1.49715815       -0.82398372       -0.27171799
H           1.49716504        0.82400363       -0.27170712
H           1.49716504       -0.82400363        0.27170712
6
MD Time 1440.00
C          -0.77165327        0.00000000        0.00000000
C           0.77165235        0.00000000       -0.00000000
H          -1.47429951        0.82674378        0.27704544
H          -1.47429951       -0.82674378       -0.27704544
H           1.47430495        0.82676238       -0.27703378
H           1.47430495       -0.82676238        0.27703378
6
MD Time 1450.00
C          -0.76256694        0.00000000        0.00000000
C           0.76256628        0.00000000       -0.00000000
H          -1.45066280        0.82978261        0.28186488
H          -1.45066280       -0.82978261       -0.28186488
H           1.45066669        0.82979970       -0.28185237
H           1.45066669       -0.82979970        0.28185237
6
MD Time 1460.00
C          -0.75323872        0.00000000        0.00000000
C           0.75323836        0.00000000       -0.00000000
H          -1.42635148        0.83312998        0.28616647
H          -1.42635148       -0.83312998       -0.28616647
H           1.42635363        0.83314531       -0.28615299
H           1.42635363       -0.83314531        0.28615299
6
MD Time 1470.00
C          -0.74367251        0.00000000        0.00000000
C           0.74367246        0.00000000       -0.00000000
H          -1.40147250        0.83681765        0.28994154
H          -1.40147250       -0.83681765       -0.28994154
H           1.40147281        0.83683105       -0.28992706
H           1.40147281       -0.83683105        0.28992706
6
MD Time 1480.00
C          -0.73387504        0.00000000        0.00000000
C           0.73387530        0.00000000       -0.00000000
H          -1.37613530        0.84087853        0.29318248
H          -1.37613530       -0.84087853       -0.29318248
H           1.37613369        0.84088984       -0.29316693
H           1.37613369       -0.84088984        0.29316693
6
MD Time 1490.00
C          -0.72385647        0.00000000        0.00000000
C           0.72385705        0.00000000       -0.00000000
H          -1.35045046        0.84534530        0.29588233
H          -1.35045046       -0.84534530       -0.29588233
H           1.35044699        0.84535452       -0.29586574
H           1.35044699       -0.84535452        0.29586574
6
MD Time 1500.00
C          -0.71363113        0.00000000        0.00000000
C           0.71363202        0.00000000       -0.00000000
H          -1.32452860        0.85024925        0.29803454
H          -1.32452860       -0.85024925       -0.29803454
H           1.32452329        0.85025635       -0.29801690
H           1.32452329       -0.85025635        0.29801690
6
MD Time 1510.00
C          -0.70321826        0.00000000        0.00000000
C           0.70321946        0.00000000       -0.00000000
H          -1.29847905        0.85561864        0.29963252
H          -1.29847905       -0.85561864       -0.29963252
H           1.29847192        0.85562361       -0.29961381
H           1.29847192       -0.85562361        0.29961381
6
MD Time 1520.00
C          -0.69264276        0.00000000        0.00000000
C           0.69264424        0.00000000       -0.00000000
H          -1.27240864        0.86147713        0.30066926
H          -1.27240864       -0.86147713       -0.30066926
H           1.27239982        0.86148009       -0.30064953
H           1.27239982       -0.86148009        0.30064953
6
MD Time 1530.00
C          -0.68193597        0.00000000        0.00000000
C           0.68193773        0.00000000       -0.00000000
H          -1.24642085        0.86784236        0.30113715
H          -1.24642085       -0.86784236       -0.30113715
H           1.24641037        0.86784336       -0.30111639
H           1.24641037       -0.86784336        0.30111639
6
MD Time 1540.00
C          -0.67113652        0.00000000        0.00000000
C           0.67113853        0.00000000       -0.00000000
H          -1.22061478        0.87472429        0.30102755
H          -1.22061478       -0.87472429       -0.30102755
H           1.22060285        0.87472358       -0.30100585
H           1.22060285       -0.87472358        0.30100585
6
MD Time 1550.00
C          -0.66029100        0.00000000        0.00000000
C           0.66029323        0.00000000       -0.00000000
H          -1.19508476        0.88212427        0.30033089
H          -1.19508476       -0.88212427       -0.30033089
H           1.19507148        0.88212198       -0.30030825
H           1.19507148       -0.88212198        0.30030825
6
MD Time 1560.00
C          -0.64945469        0.00000000        0.00000000
C           0.64945710        0.00000000       -0.00000000
H          -1.16991981        0.89003370        0.29903649
H          -1.16991981       -0.89003370       -0.29903649
H           1.16990544        0.89003017       -0.29901305
H           1.16990544       -0.89003017        0.29901305
6
MD Time 1570.00
C          -0.63869206        0.00000000        0.00000000
C           0.63869463        0.00000000       -0.00000000
H          -1.14520378        0.89843380        0.29713296
H          -1.14520378       -0.89843380       -0.29713296
H           1.14518847        0.89842926       -0.29710875
H           1.14518847       -0.89842926        0.29710875
6
MD Time 1580.00
C          -0.62807718        0.00000000        0.00000000
C           0.62807987        0.00000000       -0.00000000
H          -1.12101528        0.90729504        0.29460835
H          -1.12101528       -0.90729504       -0.29460835
H           1.12099929        0.90728985       -0.29458350
H           1.12099929       -0.90728985        0.29458350
6
MD Time 1590.00
C          -0.61769379        0.00000000        0.00000000
C           0.61769656        0.00000000       -0.00000000
H          -1.09742824        0.91657756        0.29145078
H          -1.09742824       -0.91657756       -0.29145078
H           1.09741177        0.91657202       -0.29142536
H           1.09741177       -0.91657202        0.29142536
6
MD Time 1600.00
C          -0.60763502        0.00000000        0.00000000
C           0.60763782        0.00000000       -0.00000000
H          -1.07451238        0.92623155        0.28764893
H          -1.07451238       -0.92623155       -0.28764893
H           1.07449568        0.92622603       -0.28762304
H           1.07449568       -0.92622603        0.28762304
6
MD Time 1610.00
C          -0.59800265        0.00000000        0.00000000
C           0.59800546        0.00000000       -0.00000000
H          -1.05233397        0.93619829        0.28319276
H          -1.05233397       -0.93619829       -0.28319276
H           1.05231725        0.93619312       -0.28316649
H           1.05231725       -0.93619312        0.28316649
6
MD Time 1620.00
C          -0.58890581        0.00000000        0.00000000
C           0.58890858        0.00000000       -0.00000000
H          -1.03095658        0.94641125        0.27807421
H          -1.03095658       -0.94641125       -0.27807421
H           1.03094007        0.94640675       -0.27804765
H           1.03094007       -0.94640675        0.27804765
6
MD Time 1630.00
C          -0.58045895        0.00000000        0.00000000
C           0.58046166        0.00000000       -0.00000000
H          -1.01044191        0.95679755        0.27228785
H          -1.01044191       -0.95679755       -0.27228785
H           1.01042580        0.95679404       -0.27226108
H           1.01042580       -0.95679404        0.27226108
6
MD Time 1640.00
C          -0.57277916        0.00000000        0.00000000
C           0.57278177        0.00000000       -0.00000000
H          -0.99085050        0.96727952        0.26583151
H          -0.99085050       -0.96727952       -0.26583151
H           0.99083498        0.96727726       -0.26580461
H           0.99083498       -0.96727726        0.26580461
6
MD Time 1650.00
C          -0.56598265        0.00000000        0.00000000
C           0.56598512        0.00000000       -0.00000000
H          -0.97224237        0.97777629        0.25870683
H          -0.97224237       -0.97777629       -0.25870683
H           0.97222762        0.97777554       -0.25867986
H           0.97222762       -0.97777554        0.25867986
6
MD Time 1660.00
C          -0.56018062        0.00000000        0.00000000
C           0.56018294        0.00000000       -0.00000000
H          -0.95467748        0.98820546        0.25091957
H          -0.95467748       -0.98820546       -0.25091957
H           0.95466364        0.98820642       -0.25089259
H           0.95466364       -0.98820642        0.25089259
6
MD Time 1670.00
C          -0.55547471        0.00000000        0.00000000
C           0.55547685        0.00000000       -0.00000000
H          -0.93821585        0.99848467        0.24247986
H          -0.93821585       -0.99848467       -0.24247986
H           0.93820305        0.99848750       -0.24245292
H           0.93820305       -0.99848750        0.24245292
6
MD Time 1680.00
C          -0.55195218        0.00000000        0.00000000
C           0.55195413        0.00000000       -0.00000000
H          -0.92291754        1.00853303        0.23340225
H          -0.92291754       -1.00853303       -0.23340225
H           0.92290588        1.00853786       -0.23337538
H           0.92290588       -1.00853786        0.23337538
6
MD Time 1690.00
C          -0.54968144        0.00000000        0.00000000
C           0.54968318        0.00000000       -0.00000000
H          -0.90884223        1.01827242        0.22370557
H          -0.90884223       -1.01827242       -0.22370557
H           0.90883180        1.01827932       -0.22367880
H           0.90883180       -1.01827932        0.22367880
6
MD Time 1700.00
C          -0.54870817        0.00000000        0.00000000
C           0.54870971        0.00000000       -0.00000000
H          -0.89604864        1.02762862        0.21341268
H          -0.89604864       -1.02762862       -0.21341268
H           0.89603950        1.02763761       -0.21338603
H           0.89603950       -1.02763761        0.21338603
6
MD Time 1710.00
C          -0.54905265        0.00000000        0.00000000
C           0.54905396        0.00000000       -0.00000000
H          -0.88459369        1.03653218        0.20255007
H          -0.88459369       -1.03653218       -0.20255007
H           0.88458588        1.03654325       -0.20252356
H           0.88458588       -1.03654325        0.20252356
6
MD Time 1720.00
C          -0.55070839        0.00000000        0.00000000
C           0.55070947        0.00000000       -0.00000000
H          -0.87453150        1.04491915        0.19114741
H          -0.87453150       -1.04491915       -0.19114741
H           0.87452504        1.04493225       -0.19112104
H           0.87452504       -1.04493225        0.19112104
6
MD Time 1730.00
C          -0.55364249        0.00000000        0.00000000
C           0.55364334        0.00000000       -0.00000000
H          -0.86591234        1.05273160        0.17923702
H          -0.86591234       -1.05273160       -0.17923702
H           0.86590722        1.05274663       -0.17921080
H           0.86590722       -1.05274663        0.17921080
6
MD Time 1740.00
C          -0.55779747        0.00000000        0.00000000
C           0.55779811        0.00000000       -0.00000000
H          -0.85878154        1.05991791        0.16685339
H          -0.85878154       -1.05991791       -0.16685339
H           0.85877775        1.05993473       -0.16682731
H           0.85877775       -1.05993473        0.16682731
6
MD Time 1750.00
C          -0.56309448        0.00000000        0.00000000
C           0.56309489        0.00000000       -0.00000000
H          -0.85317849        1.06643304        0.15403261
H          -0.85317849       -1.06643304       -0.15403261
H           0.85317601        1.06645147       -0.15400667
H           0.85317601       -1.06645147        0.15400667
6
MD Time 1760.00
C          -0.56943735        0.00000000        0.00000000
C           0.56943755        0.00000000       -0.00000000
H          -0.84913573        1.07223852        0.14081196
H          -0.84913573       -1.07223852       -0.14081196
H           0.84913450        1.07225835       -0.14078616
H           0.84913450       -1.07225835        0.14078616
6
MD Time 1770.00
C          -0.57671731        0.00000000        0.00000000
C           0.57671731        0.00000000       -0.00000000
H          -0.84667818        1.07730249        0.12722950
H          -0.84667818       -1.07730249       -0.12722950
H           0.84667814        1.07732349       -0.12720383
H           0.84667814       -1.07732349        0.12720383
6
MD Time 1780.00
C          -0.58481763        0.00000000        0.00000000
C           0.58481745        0.00000000       -0.00000000
H          -0.84582261        1.08159959        0.11332370
H          -0.84582261       -1.08159959       -0.11332370
H           0.84582369        1.08162150       -0.11329815
H           0.84582369       -1.08162150        0.11329815
6
MD Time 1790.00
C          -0.59361807        0.00000000        0.00000000
C           0.59361771        0.00000000       -0.00000000
H          -0.84657724        1.08511088        0.09913318
H          -0.84657724       -1.08511088       -0.09913318
H           0.84657937        1.08513341       -0.09910773
H           0.84657937       -1.08513341        0.09910773
6
MD Time 1800.00
C          -0.60299867        0.00000000        0.00000000
C           0.60299815        0.00000000       -0.00000000
H          -0.84894166        1.08782370        0.08469647
H          -0.84894166       -1.08782370       -0.08469647
H           0.84894475        1.08784653       -0.08467114
H           0.84894475       -1.08784653        0.08467114
6
MD Time 1810.00
C          -0.61284294        0.00000000        0.00000000
C           0.61284227        0.00000000       -0.00000000
H          -0.85290686        1.08973152        0.07005189
H          -0.85290686       -1.08973152       -0.07005189
H           0.85291081        1.08975435       -0.07002667
H           0.85291081       -1.08975435        0.07002667
6
MD Time 1820.00
C          -0.62304018        0.00000000        0.00000000
C           0.62303939        0.00000000       -0.00000000
H          -0.85845556        1.09083390        0.05523738
H          -0.85845556       -1.09083390       -0.05523738
H           0.85846027        1.09085639       -0.05521227
H           0.85846027       -1.09085639        0.05521227
6
MD Time 1830.00
C          -0.63348718        0.00000000        0.00000000
C           0.63348627        0.00000000       -0.00000000
H          -0.86556265        1.09113629        0.04029046
H          -0.86556265       -1.09113629       -0.04029046
H           0.86556802        1.09115810       -0.04026546
H           0.86556802       -1.09115810        0.04026546
6
MD Time 1840.00
C          -0.64408917        0.00000000        0.00000000
C           0.64408817        0.00000000       -0.00000000
H          -0.87419588        1.09065000        0.02524808
H          -0.87419588       -1.09065000       -0.02524808
H           0.87420181        1.09067079       -0.02522320
H           0.87420181       -1.09067079        0.02522320
6
MD Time 1850.00
C          -0.65476031        0.00000000        0.00000000
C           0.65475923        0.00000000       -0.00000000
H          -0.88431666        1.08939197        0.01014660
H          -0.88431666       -1.08939197       -0.01014660
H           0.88432305        1.08941142       -0.01012186
H           0.88432305       -1.08941142        0.01012186
6
MD Time 1860.00
C          -0.66542372        0.00000000        0.00000000
C           0.66542258        0.00000000       -0.00000000
H          -0.89588092        1.08738466       -0.00497832
H          -0.89588092       -1.08738466        0.00497832
H           0.89588766        1.08740242        0.00500292
H           0.89588766       -1.08740242       -0.00500292
6
MD Time 1870.00
C          -0.67601122        0.00000000        0.00000000
C           0.67601004        0.00000000       -0.00000000
H          -0.90884006        1.08465567       -0.02009186
H          -0.90884006       -1.08465567        0.02009186
H           0.90884707        1.08467145        0.02011629
H           0.90884707       -1.08467145       -0.02011629
6
MD Time 1880.00
C          -0.68646285        0.00000000        0.00000000
C           0.68646164        0.00000000       -0.00000000
H          -0.92314194        1.08123739       -0.03516014
H          -0.92314194       -1.08123739        0.03516014
H           0.92314911        1.08125088        0.03518439
H           0.92314911       -1.08125088       -0.03518439
6
MD Time 1890.00
C          -0.69672629        0.00000000        0.00000000
C           0.69672507        0.00000000       -0.00000000
H          -0.93873168        1.07716639       -0.05015042
H          -0.93873168       -1.07716639        0.05015042
H           0.93873893        1.07717733        0.05017446
H           0.93873893       -1.07717733       -0.05017446
6
MD Time 1900.00
C          -0.70675622        0.00000000        0.00000000
C           0.70675500        0.00000000       -0.00000000
H          -0.95555252        1.07248275       -0.06503120
H          -0.95555252       -1.07248275        0.06503120
H           0.95555976        1.07249091        0.06505501
H           0.95555976       -1.07249091       -0.06505501
6
MD Time 1910.00
C          -0.71651363        0.00000000        0.00000000
C           0.71651242        0.00000000       -0.00000000
H          -0.97354630        1.06722914       -0.07977240
H          -0.97354630       -1.06722914        0.07977240
H           0.97355348        1.06723430        0.07979595
H           0.97355348       -1.06723430       -0.07979595
6
MD Time 1920.00
C          -0.72596525        0.00000000        0.00000000
C           0.72596406        0.00000000       -0.00000000
H          -0.99265392        1.06144972       -0.09434542
H          -0.99265392       -1.06144972        0.09434542
H           0.99266096        1.06145183        0.09436871
H           0.99266096       -1.06145183       -0.09436871
6
MD Time 1930.00
C          -0.73508292        0.00000000        0.00000000
C           0.73508177        0.00000000       -0.00000000
H          -1.01281539        1.05518924       -0.10872324
H          -1.01281539       -1.05518924        0.10872324
H           1.01282225        1.05518809        0.10874622
H           1.01282225       -1.05518809       -0.10874622
6
MD Time 1940.00
C          -0.74384315        0.00000000        0.00000000
C           0.74384203        0.00000000       -0.00000000
H          -1.03396974        1.04849139       -0.12288029
H          -1.03396974       -1.04849139        0.12288029
H           1.03397638        1.04848703        0.12290297
H           1.03397638       -1.04848703       -0.12290297
6
MD Time 1950.00
C          -0.75222660        0.00000000        0.00000000
C           0.75222553        0.00000000       -0.00000000
H          -1.05605463        1.04139796       -0.13679247
H          -1.05605463       -1.04139796        0.13679247
H           1.05606102        1.04139039        0.13681484
H           1.05606102       -1.04139039       -0.13681484
6
MD Time 1960.00
C          -0.76021780        0.00000000        0.00000000
C           0.76021677        0.00000000       -0.00000000
H          -1.07900581        1.03394740       -0.15043686
H          -1.07900581       -1.03394740        0.15043686
H           1.07901194        1.03393661        0.15045891
H           1.07901194       -1.03393661       -0.15045891
6
MD Time 1970.00
C          -0.76780477        0.00000000        0.00000000
C           0.76780378        0.00000000       -0.00000000
H          -1.10275637        1.02617371       -0.16379150
H          -1.10275637       -1.02617371        0.16379150
H           1.10276226        1.02615991        0.16381325
H           1.10276226       -1.02615991       -0.16381325
6
MD Time 1980.00
C          -0.77497884        0.00000000        0.00000000
C           0.77497788        0.00000000       -0.00000000
H          -1.12723609        1.01810577       -0.17683512
H          -1.12723609       -1.01810577        0.17683512
H           1.12724176        1.01808911        0.17685659
H           1.12724176       -1.01808911       -0.17685659
6
MD Time 1990.00
C          -0.78173439        0.00000000        0.00000000
C           0.78173347        0.00000000       -0.00000000
H          -1.15237058        1.00976654       -0.18954679
H          -1.15237058       -1.00976654        0.18954679
H           1.15237606        1.00974714        0.18956798
H           1.15237606       -1.00974714       -0.18956798
6
MD Time 2000.00
C          -0.78806873        0.00000000        0.00000000
C           0.78806783        0.00000000       -0.00000000
H          -1.17808069        1.00117269       -0.20190564
H          -1.17808069       -1.00117269        0.20190564
H           1.17808602        1.00115078        0.20192658
H           1.17808602       -1.00115078       -0.20192658
6
MD Time 2010.00
C          -0.79398192        0.00000000        0.00000000
C           0.79398104        0.00000000       -0.00000000
H          -1.20428196        0.99233471       -0.21389059
H          -1.20428196       -0.99233471        0.21389059
H           1.20428718        0.99231050        0.21391131
H           1.20428718       -0.99231050       -0.21391131
6
MD Time 2020.00
C          -0.79947661        0.00000000        0.00000000
C           0.79947573        0.00000000       -0.00000000
H          -1.23088424        0.98325717       -0.22548015
H          -1.23088424       -0.98325717        0.22548015
H           1.23088945        0.98323095        0.22550069
H           1.23088945       -0.98323095       -0.22550069
6
MD Time 2030.00
C          -0.80455789        0.00000000        0.00000000
C           0.80455700        0.00000000       -0.00000000
H          -1.25779166        0.97393946       -0.23665236
H          -1.25779166       -0.97393946        0.23665236
H           1.25779691        0.97391153        0.23667276
H           1.25779691       -0.97391153       -0.23667276
6
MD Time 2040.00
C          -0.80923314        0.00000000        0.00000000
C           0.80923223        0.00000000       -0.00000000
H          -1.28490259        0.96437675       -0.24738473
H          -1.28490259       -0.96437675        0.24738473
H           1.28490800        0.96434743        0.24740507
H           1.28490800       -0.96434743       -0.24740507
6
MD Time 2050.00
C          -0.81351178        0.00000000        0.00000000
C           0.81351082        0.00000000       -0.00000000
H          -1.31211010        0.95456118       -0.25765440
H          -1.31211010       -0.95456118        0.25765440
H           1.31211577        0.95453086        0.25767474
H           1.31211577       -0.95453086       -0.25767474
6
MD Time 2060.00
C          -0.81740508        0.00000000        0.00000000
C           0.81740407        0.00000000       -0.00000000
H          -1.33930246        0.94448337       -0.26743831
H          -1.33930246       -0.94448337        0.26743831
H           1.33930849        0.94445238        0.26745873
H           1.33930849       -0.94445238       -0.26745873
6
MD Time 2070.00
C          -0.82092590        0.00000000        0.00000000
C           0.82092481        0.00000000       -0.00000000
H          -1.36636394        0.93413384       -0.27671355
H          -1.36636394       -0.93413384        0.27671355
H           1.36637040        0.93410249        0.27673412
H           1.36637040       -0.93410249       -0.27673412
6
MD Time 2080.00
C          -0.82408840        0.00000000        0.00000000
C           0.82408723        0.00000000       -0.00000000
H          -1.39317575        0.92350450       -0.28545768
H          -1.39317575       -0.92350450        0.28545768
H           1.39318273        0.92347310        0.28547846
H           1.39318273       -0.92347310       -0.28547846
6
MD Time 2090.00
C          -0.82690779        0.00000000        0.00000000
C           0.82690649        0.00000000       -0.00000000
H          -1.41961715        0.91259006       -0.29364916
H          -1.41961715       -0.91259006        0.29364916
H           1.41962484        0.91255906        0.29367030
H           1.41962484       -0.91255906       -0.29367030
6
MD Time 2100.00
C          -0.82939995        0.00000000        0.00000000
C           0.82939852        0.00000000       -0.00000000
H          -1.44556684        0.90138953       -0.30126790
H          -1.44556684       -0.90138953        0.30126790
H           1.44557532        0.90135920        0.30128945
H           1.44557532       -0.90135920       -0.30128945
6
MD Time 2110.00
C          -0.83158124        0.00000000        0.00000000
C           0.83157966        0.00000000       -0.00000000
H          -1.47090402        0.88990700       -0.30829557
H          -1.47090402       -0.88990700        0.30829557
H           1.47091345        0.88987772        0.30831765
H           1.47091345       -0.88987772       -0.30831765
6
MD Time 2120.00
C          -0.83346812        0.00000000        0.00000000
C           0.83346637        0.00000000       -0.00000000
H          -1.49550991        0.87815281       -0.31471614
H          -1.49550991       -0.87815281        0.31471614
H           1.49552032        0.87812478        0.31473881
H           1.49552032       -0.87812478       -0.31473881
6
MD Time 2130.00
C          -0.83507692        0.00000000        0.00000000
C           0.83507497        0.00000000       -0.00000000
H          -1.51926873        0.86614385       -0.32051615
H          -1.51926873       -0.86614385        0.32051615
H           1.51928032        0.86611742        0.32053954
H           1.51928032       -0.86611742       -0.32053954
6
MD Time 2140.00
C          -0.83642358        0.00000000        0.00000000
C           0.83642143        0.00000000       -0.00000000
H          -1.54206920        0.85390430       -0.32568518
H          -1.54206920       -0.85390430        0.32568518
H           1.54208196        0.85387962        0.32570933
H           1.54208196       -0.85387962       -0.32570933
6
MD Time 2150.00
C          -0.83752342        0.00000000        0.00000000
C           0.83752109        0.00000000       -0.00000000
H          -1.56380531        0.84146552       -0.33021598
H          -1.56380531       -0.84146552        0.33021598
H           1.56381920        0.84144271        0.33024090
H           1.56381920       -0.84144271       -0.33024090
6
MD Time 2160.00
C          -0.83839100        0.00000000        0.00000000
C           0.83838848        0.00000000       -0.00000000
H          -1.58437732        0.82886612       -0.33410468
H          -1.58437732       -0.82886612        0.33410468
H           1.58439227        0.82884526        0.33413038
H           1.58439227       -0.82884526       -0.33413038
6
MD Time 2170.00
C          -0.83903987        0.00000000        0.00000000
C           0.83903719        0.00000000       -0.00000000
H          -1.60369255        0.81615174       -0.33735091
H          -1.60369255       -0.81615174        0.33735091
H           1.60370848        0.81613289        0.33737739
H           1.60370848       -0.81613289       -0.33737739
6
MD Time 2180.00
C          -0.83948251        0.00000000        0.00000000
C           0.83947968        0.00000000       -0.00000000
H          -1.62166600        0.80337476       -0.33995785
H          -1.62166600       -0.80337476        0.33995785
H           1.62168282        0.80335795        0.33998511
H           1.62168282       -0.80335795       -0.33998511
6
MD Time 2190.00
C          -0.83973020        0.00000000        0.00000000
C           0.83972724        0.00000000       -0.00000000
H          -1.63822090        0.79059388       -0.34193222
H          -1.63822090       -0.79059388        0.34193222
H           1.63823851        0.79057911        0.34196024
H           1.63823851       -0.79057911       -0.34196024
6
MD Time 2200.00
C          -0.83979289        0.00000000        0.00000000
C           0.83978982        0.00000000       -0.00000000
H          -1.65328912        0.77787363       -0.34328419
H          -1.65328912       -0.77787363        0.34328419
H           1.65330738        0.77786086        0.34331295
H           1.65330738       -0.77786086       -0.34331295
6
MD Time 2210.00
C          -0.83967922        0.00000000        0.00000000
C           0.83967602        0.00000000       -0.00000000
H          -1.66681133        0.76528379       -0.34402722
H          -1.66681133       -0.76528379        0.34402722
H           1.66683037        0.76527306        0.34405679
H           1.66683037       -0.76527306       -0.34405679
6
MD Time 2220.00
C          -0.83939634        0.00000000        0.00000000
C           0.83939303        0.00000000       -0.00000000
H          -1.67873770        0.75289899       -0.34417807
H          -1.67873770       -0.75289899        0.34417807
H           1.67875738        0.75289022        0.34420840
H           1.67875738       -0.75289022       -0.34420840
6
MD Time 2230.00
C          -0.83894997        0.00000000        0.00000000
C           0.83894656        0.00000000       -0.00000000
H          -1.68902761        0.74079799       -0.34375639
H          -1.68902761       -0.74079799        0.34375639
H           1.68904793        0.74079111        0.34378750
H           1.68904793       -0.74079111       -0.34378750
6
MD Time 2240.00
C          -0.83834431        0.00000000        0.00000000
C           0.83834082        0.00000000       -0.00000000
H          -1.69765022        0.72906324       -0.34278466
H          -1.69765022       -0.72906324        0.34278466
H           1.69767100        0.72905813        0.34281650
H           1.69767100       -0.72905813       -0.34281650
6
MD Time 2250.00
C          -0.83758201        0.00000000        0.00000000
C           0.83757848        0.00000000       -0.00000000
H          -1.70458438        0.71778026       -0.34128786
H          -1.70458438       -0.71778026        0.34128786
H           1.70460536        0.71777673        0.34132035
H           1.70460536       -0.71777673       -0.34132035
6
MD Time 2260.00
C          -0.83666419        0.00000000        0.00000000
C           0.83666067        0.00000000       -0.00000000
H          -1.70981881        0.70703707       -0.33929320
H          -1.70981881       -0.70703707        0.33929320
H           1.70983977        0.70703496        0.33932628
H           1.70983977       -0.70703496       -0.33932628
6
MD Time 2270.00
C          -0.83559038        0.00000000        0.00000000
C           0.83558690        0.00000000       -0.00000000
H          -1.71335232        0.69692370       -0.33682984
H          -1.71335232       -0.69692370        0.33682984
H           1.71337301        0.69692280        0.33686343
H           1.71337301       -0.69692280       -0.33686343
6
MD Time 2280.00
C          -0.83435851        0.00000000        0.00000000
C           0.83435512        0.00000000       -0.00000000
H          -1.71519380        0.68753165       -0.33392856
H          -1.71519380       -0.68753165        0.33392856
H           1.71521400        0.68753174        0.33396259
H           1.71521400       -0.68753174       -0.33396259
6
MD Time 2290.00
C          -0.83296490        0.00000000        0.00000000
C           0.83296164        0.00000000       -0.00000000
H          -1.71536251        0.67895329       -0.33062147
H          -1.71536251       -0.67895329        0.33062147
H           1.71538188        0.67895413        0.33065583
H           1.71538188       -0.67895413       -0.33065583
6
MD Time 2300.00
C          -0.83140427        0.00000000        0.00000000
C           0.83140119        0.00000000       -0.00000000
H          -1.71388782        0.67128134       -0.32694153
H          -1.71388782       -0.67128134        0.32694153
H           1.71390611        0.67128268        0.32697615
H           1.71390611       -0.67128268       -0.32697615
6
MD Time 2310.00
C          -0.82966975        0.00000000        0.00000000
C           0.82966693        0.00000000       -0.00000000
H          -1.71080947        0.66460821       -0.32292226
H          -1.71080947       -0.66460821        0.32292226
H           1.71082628        0.66460979        0.32295704
H           1.71082628       -0.66460979       -0.32295704
6
MD Time 2320.00
C          -0.82775296        0.00000000        0.00000000
C           0.82775043        0.00000000       -0.00000000
H          -1.70617705        0.65902532       -0.31859721
H          -1.70617705       -0.65902532        0.31859721
H           1.70619213        0.65902687        0.31863206
H           1.70619213       -0.65902687       -0.31863206
6
MD Time 2330.00
C          -0.82564401        0.00000000        0.00000000
C           0.82564185        0.00000000       -0.00000000
H          -1.70005006        0.65462233       -0.31399952
H          -1.70005006       -0.65462233        0.31399952
H           1.70006293        0.65462360        0.31403433
H           1.70006293       -0.65462360       -0.31403433
6
MD Time 2340.00
C          -0.82333172        0.00000000        0.00000000
C           0.82332996        0.00000000       -0.00000000
H          -1.69249688        0.65148620       -0.30916132
H          -1.69249688       -0.65148620        0.30916132
H           1.69250732        0.65148692        0.30919603
H           1.69250732       -0.65148692       -0.30919603
6
MD Time 2350.00
C          -0.82080366        0.00000000        0.00000000
C           0.82080240        0.00000000       -0.00000000
H          -1.68359448        0.64970010       -0.30411318
H          -1.68359448       -0.64970010        0.30411318
H           1.68360197        0.64970004        0.30414767
H           1.68360197       -0.64970004       -0.30414767
6
MD Time 2360.00
C          -0.81804653        0.00000000        0.00000000
C           0.81804579        0.00000000       -0.00000000
H          -1.67342667        0.64934216       -0.29888338
H          -1.67342667       -0.64934216        0.29888338
H           1.67343104        0.64934109        0.29891763
H           1.67343104       -0.64934109       -0.29891763
6
MD Time 2370.00
C          -0.81504632        0.00000000        0.00000000
C           0.81504612        0.00000000       -0.00000000
H          -1.66208308        0.65048390       -0.29349729
H          -1.66208308       -0.65048390        0.29349729
H           1.66208421        0.65048165        0.29353130
H           1.66208421       -0.65048165       -0.29353130
6
MD Time 2380.00
C          -0.81178873        0.00000000        0.00000000
C           0.81178910        0.00000000       -0.00000000
H          -1.64965714        0.65318856       -0.28797662
H          -1.64965714       -0.65318856        0.28797662
H           1.64965493        0.65318495        0.28801038
H           1.64965493       -0.65318495       -0.28801038
6
MD Time 2390.00
C          -0.80825961        0.00000000        0.00000000
C           0.80826054        0.00000000       -0.00000000
H          -1.63624382        0.65750903       -0.28233865
H          -1.63624382       -0.65750903        0.28233865
H           1.63623825        0.65750396        0.28237222
H           1.63623825       -0.65750396       -0.28237222
6
MD Time 2400.00
C          -0.80444545        0.00000000        0.00000000
C           0.80444695        0.00000000       -0.00000000
H          -1.62193713        0.66348568       -0.27659560
H          -1.62193713       -0.66348568        0.27659560
H           1.62192819        0.66347908        0.27662903
H           1.62192819       -0.66347908       -0.27662903
6
MD Time 2410.00
C          -0.80033392        0.00000000        0.00000000
C           0.80033597        0.00000000       -0.00000000
H          -1.60682737        0.67114395       -0.27075400
H          -1.60682737       -0.67114395        0.27075400
H           1.60681516        0.67113582        0.27078737
H           1.60681516       -0.67113582       -0.27078737
6
MD Time 2420.00
C          -0.79591443        0.00000000        0.00000000
C           0.79591700        0.00000000       -0.00000000
H          -1.59099840        0.68049196       -0.26481420
H          -1.59099840       -0.68049196        0.26481420
H           1.59098303        0.68048234        0.26484762
H           1.59098303       -0.68048234       -0.26484762
6
MD Time 2430.00
C          -0.79117865        0.00000000        0.00000000
C           0.79118176        0.00000000       -0.00000000
H          -1.57452516        0.69151806       -0.25877018
H          -1.57452516       -0.69151806        0.25877018
H           1.57450659        0.69150704        0.25880372
H           1.57450659       -0.69150704       -0.25880372
6
MD Time 2440.00
C          -0.78612107        0.00000000        0.00000000
C           0.78612469        0.00000000       -0.00000000
H          -1.55747116        0.70418869       -0.25260944
H          -1.55747116       -0.70418869        0.25260944
H           1.55744962        0.70417644        0.25264324
H           1.55744962       -0.70417644       -0.25264324
6
MD Time 2450.00
C          -0.78073934        0.00000000        0.00000000
C           0.78074343        0.00000000       -0.00000000
H          -1.53988732        0.71844670       -0.24631341
H          -1.53988732       -0.71844670        0.24631341
H           1.53986297        0.71843343        0.24634758
H           1.53986297       -0.71843343       -0.24634758
6
MD Time 2460.00
C          -0.77503456        0.00000000        0.00000000
C           0.77503907        0.00000000       -0.00000000
H          -1.52181091        0.73421025       -0.23985801
H          -1.52181091       -0.73421025        0.23985801
H           1.52178406        0.73419623        0.23989273
H           1.52178406       -0.73419623       -0.23989273
6
MD Time 2470.00
C          -0.76901142        0.00000000        0.00000000
C           0.76901630        0.00000000       -0.00000000
H          -1.50326593        0.75137255       -0.23321472
H          -1.50326593       -0.75137255        0.23321472
H           1.50323685        0.75135808        0.23325012
H           1.50323685       -0.75135808       -0.23325012
6
MD Time 2480.00
C          -0.76267818        0.00000000        0.00000000
C           0.76268338        0.00000000       -0.00000000
H          -1.48426403        0.76980263       -0.22635175
H          -1.48426403       -0.76980263        0.22635175
H           1.48423309        0.76978805        0.22638800
H           1.48423309       -0.76978805       -0.22638800
6
MD Time 2490.00
C          -0.75604656        0.00000000        0.00000000
C           0.75605200        0.00000000       -0.00000000
H          -1.46480652        0.78934702       -0.21923561
H          -1.46480652       -0.78934702        0.21923561
H           1.46477414        0.78933271        0.21927286
H           1.46477414       -0.78933271       -0.21927286
6
MD Time 2500.00
C          -0.74913142        0.00000000        0.00000000
C           0.74913706        0.00000000       -0.00000000
H          -1.44488703        0.80983258       -0.21183270
H          -1.44488703       -0.80983258        0.21183270
H           1.44485347        0.80981885        0.21187105
H           1.44485347       -0.80981885       -0.21187105
6
MD Time 2510.00
C          -0.74195058        0.00000000        0.00000000
C           0.74195635        0.00000000       -0.00000000
H          -1.42449421        0.83106990       -0.20411089
H          -1.42449421       -0.83106990        0.20411089
H           1.42445987        0.83105712        0.20415047
H           1.42445987       -0.83105712       -0.20415047
6
MD Time 2520.00
C          -0.73452441        0.00000000        0.00000000
C           0.73453024        0.00000000       -0.00000000
H          -1.40361510        0.85285752       -0.19604106
H          -1.40361510       -0.85285752        0.19604106
H           1.40358037        0.85284605        0.19608199
H           1.40358037       -0.85284605       -0.19608199
6
MD Time 2530.00
C          -0.72687558        0.00000000        0.00000000
C           0.72688144        0.00000000       -0.00000000
H          -1.38223812        0.87498644       -0.18759846
H          -1.38223812       -0.87498644        0.18759846
H           1.38220324        0.87497651        0.18764077
H           1.38220324       -0.87497651       -0.18764077
6
MD Time 2540.00
C          -0.71902891        0.00000000        0.00000000
C           0.71903474        0.00000000       -0.00000000
H          -1.36035559        0.89724445       -0.17876362
H          -1.36035559       -0.89724445        0.17876362
H           1.36032086        0.89723635        0.17880738
H           1.36032086       -0.89723635       -0.17880738
6
MD Time 2550.00
C          -0.71101121        0.00000000        0.00000000
C           0.71101696        0.00000000       -0.00000000
H          -1.33796607        0.91942048       -0.16952316
H          -1.33796607       -0.91942048        0.16952316
H           1.33793183        0.91941447        0.16956842
H           1.33793183       -0.91941447       -0.16956842
6
MD Time 2560.00
C          -0.70285126        0.00000000        0.00000000
C           0.70285690        0.00000000       -0.00000000
H          -1.31507615        0.94130852       -0.15987020
H          -1.31507615       -0.94130852        0.15987020
H           1.31504260        0.94130473        0.15991696
H           1.31504260       -0.94130473       -0.15991696
6
MD Time 2570.00
C          -0.69457995        0.00000000        0.00000000
C           0.69458541        0.00000000       -0.00000000
H          -1.29170142        0.96271062       -0.14980440
H          -1.29170142       -0.96271062        0.14980440
H           1.29166891        0.96270932        0.14985269
H           1.29166891       -0.96270932       -0.14985269
6
MD Time 2580.00
C          -0.68623039        0.00000000        0.00000000
C           0.68623565        0.00000000       -0.00000000
H          -1.26786743        0.98343995       -0.13933193
H          -1.26786743       -0.98343995        0.13933193
H           1.26783609        0.98344116        0.13938171
H           1.26783609       -0.98344116       -0.13938171
6
MD Time 2590.00
C          -0.67783822        0.00000000        0.00000000
C           0.67784324        0.00000000       -0.00000000
H          -1.24360966        1.00332240       -0.12846507
H          -1.24360966       -1.00332240        0.12846507
H           1.24357977        1.00332628        0.12851633
H           1.24357977       -1.00332628       -0.12851633
6
MD Time 2600.00
C          -0.66944182        0.00000000        0.00000000
C           0.66944658        0.00000000       -0.00000000
H          -1.21897380        1.02219845       -0.11722181
H          -1.21897380       -1.02219845        0.11722181
H           1.21894547        1.02220495        0.11727448
H           1.21894547       -1.02220495       -0.11727448
6
MD Time 2610.00
C          -0.66108265        0.00000000        0.00000000
C           0.66108712        0.00000000       -0.00000000
H          -1.19401517        1.03992380       -0.10562524
H          -1.19401517       -1.03992380        0.10562524
H           1.19398859        1.03993299        0.10567928
H           1.19398859       -1.03993299       -0.10567928
6
MD Time 2620.00
C          -0.65280544        0.00000000        0.00000000
C           0.65280959        0.00000000       -0.00000000
H          -1.16879852        1.05637026       -0.09370301
H          -1.16879852       -1.05637026        0.09370301
H           1.16877378        1.05638204        0.09375834
H           1.16877378       -1.05638204       -0.09375834
6
MD Time 2630.00
C          -0.64465838        0.00000000        0.00000000
C           0.64466220        0.00000000       -0.00000000
H          -1.14339738        1.07142573       -0.08148666
H          -1.14339738       -1.07142573        0.08148666
H           1.14337463        1.07144010        0.08154322
H           1.14337463       -1.07144010       -0.08154322
6
MD Time 2640.00
C          -0.63669319        0.00000000       -0.00000000
C           0.63669667        0.00000000       -0.00000000
H          -1.11789366        1.08499446       -0.06901108
H          -1.11789366       -1.08499446        0.06901108
H           1.11787296        1.08501127        0.06906877
H           1.11787296       -1.08501127       -0.06906877
6
MD Time 2650.00
C          -0.62896504        0.00000000       -0.00000000
C           0.62896816        0.00000000       -0.00000000
H          -1.09237704        1.09699672       -0.05631379
H          -1.09237704       -1.09699672        0.05631379
H           1.09235849        1.09701590        0.05637254
H           1.09235849       -1.09701590       -0.05637254
6
MD Time 2660.00
C          -0.62153224        0.00000000       -0.00000000
C           0.62153499        0.00000000       -0.00000000
H          -1.06694467        1.10736878       -0.04343447
H          -1.06694467       -1.10736878        0.04343447
H           1.06692832        1.10739018        0.04349418
H           1.06692832       -1.10739018       -0.04349418
6
MD Time 2670.00
C          -0.61445576        0.00000000       -0.00000000
C           0.61445813        0.00000000       -0.00000000
H          -1.04170073        1.11606258       -0.03041432
H          -1.04170073       -1.11606258        0.03041432
H           1.04168661        1.11608603        0.03047490
H           1.04168661       -1.11608603       -0.03047490
6
MD Time 2680.00
C          -0.60779847        0.00000000       -0.00000000
C           0.60780046        0.00000000       -0.00000000
H          -1.01675613        1.12304557       -0.01729558
H          -1.01675613       -1.12304557        0.01729558
H           1.01674427        1.12307091        0.01735693
H           1.01674427       -1.12307091       -0.01735693
6
MD Time 2690.00
C          -0.60162414        0.00000000       -0.00000000
C           0.60162575        0.00000000       -0.00000000
H          -0.99222825        1.12830065       -0.00412094
H          -0.99222825       -1.12830065        0.00412094
H           0.99221864        1.12832767        0.00418296
H           0.99221864       -1.12832767       -0.00418296
6
MD Time 2700.00
C          -0.59599611        0.00000000       -0.00000000
C           0.59599734        0.00000000       -0.00000000
H          -0.96824057        1.13182615        0.00906699
H          -0.96824057       -1.13182615       -0.00906699
H           0.96823321        1.13185463       -0.00900438
H           0.96823321       -1.13185463        0.00900438
6
MD Time 2710.00
C          -0.59097580        0.00000000       -0.00000000
C           0.59097667        0.00000000       -0.00000000
H          -0.94492225        1.13363596        0.02222615
H          -0.94492225       -1.13363596       -0.02222615
H           0.94491711        1.13366568       -0.02216305
H           0.94491711       -1.13366568        0.02216305
6
MD Time 2720.00
C          -0.58662100        0.00000000       -0.00000000
C           0.58662149        0.00000000       -0.00000000
H          -0.92240750        1.13375984        0.03531567
H          -0.92240750       -1.13375984       -0.03531567
H           0.92240453        1.13379054       -0.03525217
H           0.92240453       -1.13379054        0.03525217
6
MD Time 2730.00
C          -0.58298397        0.00000000       -0.00000000
C           0.58298411        0.00000000       -0.00000000
H          -0.90083470        1.13224377        0.04829636
H          -0.90083470       -1.13224377       -0.04829636
H           0.90083384        1.13227518       -0.04823256
H           0.90083384       -1.13227518        0.04823256
6
MD Time 2740.00
C          -0.58010965        0.00000000       -0.00000000
C           0.58010946        0.00000000       -0.00000000
H          -0.88034522        1.12915046        0.06113132
H          -0.88034522       -1.12915046       -0.06113132
H           0.88034639        1.12918229       -0.06106729
H           0.88034639       -1.12918229        0.06106729
6
MD Time 2750.00
C          -0.57803389        0.00000000       -0.00000000
C           0.57803337        0.00000000       -0.00000000
H          -0.86108198        1.12455986        0.07378651
H          -0.86108198       -1.12455986       -0.07378651
H           0.86108510        1.12459181       -0.07372232
H           0.86108510       -1.12459181        0.07372232
6
MD Time 2760.00
C          -0.57678190        0.00000000       -0.00000000
C           0.57678107        0.00000000       -0.00000000
H          -0.84318764        1.11856969        0.08623125
H          -0.84318764       -1.11856969       -0.08623125
H           0.84319262        1.11860143       -0.08616697
H           0.84319262       -1.11860143        0.08616697
6
MD Time 2770.00
C          -0.57636712        0.00000000       -0.00000000
C           0.57636599        0.00000000       -0.00000000
H          -0.82680258        1.11129586        0.09843884
H          -0.82680258       -1.11129586       -0.09843884
H           0.82680930        1.11132706       -0.09837452
H           0.82680930       -1.11132706        0.09837452
6
MD Time 2780.00
C          -0.57679048        0.00000000       -0.00000000
C           0.57678908        0.00000000       -0.00000000
H          -0.81206262        1.10287280        0.11038696
H          -0.81206262       -1.10287280       -0.11038696
H           0.81207097        1.10290311       -0.11032266
H           0.81207097       -1.10290311        0.11032266
6
MD Time 2790.00
C          -0.57804021        0.00000000       -0.00000000
C           0.57803856        0.00000000       -0.00000000
H          -0.79909665        1.09345344        0.12205818
H          -0.79909665       -1.09345344       -0.12205818
H           0.79910651        1.09348249       -0.12199391
H           0.79910651       -1.09348249        0.12199391
6
MD Time 2800.00
C          -0.58009215        0.00000000       -0.00000000
C           0.58009027        0.00000000       -0.00000000
H          -0.78802426        1.08320885        0.13344024
H          -0.78802426       -1.08320885       -0.13344024
H           0.78803550        1.08323629       -0.13337602
H           0.78803550       -1.08323629        0.13337602
6
MD Time 2810.00
C          -0.58291059        0.00000000       -0.00000000
C           0.58290850        0.00000000       -0.00000000
H          -0.77895342        1.07232738        0.14452630
H          -0.77895342       -1.07232738       -0.14452630
H           0.77896592        1.07235287       -0.14446214
H           0.77896592       -1.07235287        0.14446214
6
MD Time 2820.00
C          -0.58644953        0.00000000       -0.00000000
C           0.58644724        0.00000000       -0.00000000
H          -0.77197840        1.06101310        0.15531508
H          -0.77197840       -1.06101310       -0.15531508
H           0.77199204        1.06103628       -0.15525095
H           0.77199204       -1.06103628        0.15525095
6
MD Time 2830.00
C          -0.59065420        0.00000000       -0.00000000
C           0.59065173        0.00000000       -0.00000000
H          -0.76717805        1.04948343        0.16581073
H          -0.76717805       -1.04948343       -0.16581073
H           0.76719273        1.04950399       -0.16574662
H           0.76719273       -1.04950399        0.16574662
6
MD Time 2840.00
C          -0.59546289        0.00000000       -0.00000000
C           0.59546027        0.00000000       -0.00000000
H          -0.76461454        1.03796573        0.17602259
H          -0.76461454       -1.03796573       -0.17602259
H           0.76463017        1.03798338       -0.17595845
H           0.76463017       -1.03798338        0.17595845
6
MD Time 2850.00
C          -0.60080875        0.00000000       -0.00000000
C           0.60080599        0.00000000       -0.00000000
H          -0.76433262        1.02669274        0.18596464
H          -0.76433262       -1.02669274       -0.18596464
H           0.76434910        1.02670725       -0.18590042
H           0.76434910       -1.02670725        0.18590042
6
MD Time 2860.00
C          -0.60662161        0.00000000       -0.00000000
C           0.60661871        0.00000000       -0.00000000
H          -0.76635946        1.01589681        0.19565459
H          -0.76635946       -1.01589681       -0.19565459
H           0.76637673        1.01590803       -0.19559024
H           0.76637673       -1.01590803        0.19559024
6
MD Time 2870.00
C          -0.61282965        0.00000000       -0.00000000
C           0.61282663        0.00000000       -0.00000000
H          -0.77070504        1.00580291        0.20511270
H          -0.77070504       -1.00580291       -0.20511270
H           0.77072305        1.00581073       -0.20504816
H           0.77072305       -1.00581073        0.20504816
6
MD Time 2880.00
C          -0.61936097        0.00000000       -0.00000000
C           0.61935783        0.00000000       -0.00000000
H          -0.77736297        0.99662056        0.21436014
H          -0.77736297       -0.99662056       -0.21436014
H           0.77738169        0.99662501       -0.21429535
H           0.77738169       -0.99662501        0.21429535
6
MD Time 2890.00
C          -0.62614488        0.00000000       -0.00000000
C           0.62614162        0.00000000       -0.00000000
H          -0.78631152        0.98853529        0.22341700
H          -0.78631152       -0.98853529       -0.22341700
H           0.78633095        0.98853645       -0.22335192
H           0.78633095       -0.98853645        0.22335192
6
MD Time 2900.00
C          -0.63311309        0.00000000       -0.00000000
C           0.63310971        0.00000000       -0.00000000
H          -0.79751478        0.98169990        0.23230008
H          -0.79751478       -0.98169990       -0.23230008
H           0.79753494        0.98169799       -0.23223466
H           0.79753494       -0.98169799        0.23223466
6
MD Time 2910.00
C          -0.64020064        0.00000000       -0.00000000
C           0.64019713        0.00000000       -0.00000000
H          -0.81092365        0.97622658        0.24102042
H          -0.81092365       -0.97622658       -0.24102042
H           0.81094458        0.97622190       -0.24095465
H           0.81094458       -0.97622190        0.24095465
6
MD Time 2920.00
C          -0.64734676        0.00000000       -0.00000000
C           0.64734311        0.00000000       -0.00000000
H          -0.82647659        0.97218063        0.24958111
H          -0.82647659       -0.97218063       -0.24958111
H           0.82649834        0.97217356       -0.24951497
H           0.82649834       -0.97217356        0.24951497
6
MD Time 2930.00
C          -0.65449551        0.00000000       -0.00000000
C           0.65449171        0.00000000       -0.00000000
H          -0.84409999        0.96957631        0.25797526
H          -0.84409999       -0.96957631       -0.25797526
H           0.84412265        0.96956732       -0.25790879
H           0.84412265       -0.96956732        0.25790879
6
MD Time 2940.00
C          -0.66159634        0.00000000       -0.00000000
C           0.66159237        0.00000000       -0.00000000
H          -0.86370831        0.96837574        0.26618477
H          -0.86370831       -0.96837574       -0.26618477
H           0.86373196        0.96836532       -0.26611799
H           0.86373196       -0.96836532        0.26611799
6
MD Time 2950.00
C          -0.66860448        0.00000000       -0.00000000
C           0.66860033        0.00000000       -0.00000000
H          -0.88520389        0.96849073        0.27417975
H          -0.88520389       -0.96849073       -0.27417975
H           0.88522861        0.96847944       -0.27411274
H           0.88522861       -0.96847944        0.27411274
6
MD Time 2960.00
C          -0.67548119        0.00000000       -0.00000000
C           0.67547684        0.00000000       -0.00000000
H          -0.90847666        0.96978768        0.28191897
H          -0.90847666       -0.96978768       -0.28191897
H           0.90850258        0.96977599       -0.28185175
H           0.90850258       -0.96977599        0.28185175
6
MD Time 2970.00
C          -0.68219389        0.00000000       -0.00000000
C           0.68218933        0.00000000       -0.00000000
H          -0.93340409        0.97209466        0.28935094
H          -0.93340409       -0.97209466       -0.28935094
H           0.93343126        0.97208317       -0.28928364
H           0.93343126       -0.97208317        0.28928364
6
MD Time 2980.00
C          -0.68871608        0.00000000       -0.00000000
C           0.68871130        0.00000000       -0.00000000
H          -0.95985114        0.97521057        0.29641606
H          -0.95985114       -0.97521057       -0.29641606
H           0.95987965        0.97519965       -0.29634870
H           0.95987965       -0.97519965        0.29634870
6
MD Time 2990.00
C          -0.69502716        0.00000000       -0.00000000
C           0.69502215        0.00000000       -0.00000000
H          -0.98767081        0.97891450        0.30304880
H          -0.98767081       -0.97891450       -0.30304880
H           0.98770070        0.97890469       -0.30298152
H           0.98770070       -0.97890469        0.30298152
