6
MD Time 0.00
C          -1.00425000        0.00000000        0.00000000
C           1.00425000        0.00000000        0.00000000
H          -1.57974232        0.85087479        0.35244388
H          -1.57974232       -0.85087479       -0.35244388
H           1.57974232        0.85087479       -0.35244388
H           1.57974232       -0.85087479        0.35244388
6
MD Time 10.00
C          -1.00409880       -0.00000000        0.00000000
C           1.00409880        0.00000000        0.00000000
H          -1.57965860        0.85115533        0.35237359
H          -1.57965860       -0.85115533       -0.35237359
H           1.57965860        0.85115533       -0.35237359
H           1.57965860       -0.85115533        0.35237359
6
MD Time 20.00
C          -1.00364549       -0.00000000       -0.00000000
C           1.00364549       -0.00000000        0.00000000
H          -1.57940532        0.85199274        0.35216098
H          -1.57940532       -0.85199274       -0.35216098
H           1.57940532        0.85199275       -0.35216098
H           1.57940532       -0.85199275        0.35216098
6
MD Time 30.00
C          -1.00289087       -0.00000000       -0.00000000
C           1.00289086       -0.00000000        0.00000000
H          -1.57897620        0.85337454        0.35180087
H          -1.57897620       -0.85337454       -0.35180087
H           1.57897622        0.85337455       -0.35180088
H           1.57897622       -0.85337455        0.35180088
6
MD Time 40.00
C          -1.00183623       -0.00000000       -0.00000000
C           1.00183623       -0.00000000        0.00000000
H          -1.57836102        0.85528026        0.35128481
H          -1.57836102       -0.85528026       -0.35128481
H           1.57836104        0.85528028       -0.35128483
H           1.57836104       -0.85528028        0.35128483
6
MD Time 50.00
C          -1.00048333       -0.00000000       -0.00000000
C           1.00048333       -0.00000000        0.00000000
H          -1.57754593        0.85768202        0.35060136
H          -1.57754593       -0.85768202       -0.35060136
H           1.57754596        0.85768205       -0.35060138
H           1.57754596       -0.85768205        0.35060138
6
MD Time 60.00
C          -0.99883429       -0.00000000       -0.00000000
C           0.99883429       -0.00000000        0.00000000
H          -1.57651388        0.86054519        0.34973640
H          -1.57651388       -0.86054519       -0.34973640
H           1.57651392        0.86054523       -0.34973642
H           1.57651392       -0.86054523        0.34973642
6
MD Time 70.00
C          -0.99689151       -0.00000000       -0.00000000
C           0.99689151       -0.00000000        0.00000000
H          -1.57524519        0.86382925        0.34867357
H          -1.57524519       -0.86382925       -0.34867357
H           1.57524523        0.86382929       -0.34867359
H           1.57524523       -0.86382929        0.34867359
6
MD Time 80.00
C          -0.99465759       -0.00000000       -0.00000000
C           0.99465758       -0.00000000        0.00000000
H          -1.57371806        0.86748874        0.34739474
H          -1.57371806       -0.86748874       -0.34739474
H           1.57371812        0.86748878       -0.34739477
H           1.57371812       -0.86748878        0.34739477
6
MD Time 90.00
C          -0.99213521       -0.00000000       -0.00000000
C           0.99213520       -0.00000000        0.00000000
H          -1.57190928        0.87147425        0.34588049
H          -1.57190928       -0.87147425       -0.34588049
H           1.57190934        0.87147430       -0.34588052
H           1.57190934       -0.87147430        0.34588052
6
MD Time 100.00
C          -0.98932704       -0.00000000       -0.00000000
C           0.98932703       -0.00000000        0.00000000
H          -1.56979474        0.87573351        0.34411059
H          -1.56979474       -0.87573351       -0.34411059
H           1.56979481        0.87573356       -0.34411062
H           1.56979481       -0.87573356        0.34411062
6
MD Time 110.00
C          -0.98623565       -0.00000000       -0.00000000
C           0.98623564       -0.00000000        0.00000000
H          -1.56735016        0.88021235        0.34206450
H          -1.56735016       -0.88021235       -0.34206450
H           1.56735023        0.88021240       -0.34206454
H           1.56735023       -0.88021240        0.34206454
6
MD Time 120.00
C          -0.98286340       -0.00000000       -0.00000000
C           0.98286339       -0.00000000        0.00000000
H          -1.56455159        0.88485575        0.33972183
H          -1.56455159       -0.88485575       -0.33972183
H           1.56455166        0.88485580       -0.33972187
H           1.56455166       -0.88485580        0.33972187
6
MD Time 130.00
C          -0.97921234       -0.00000000       -0.00000000
C           0.97921233       -0.00000000        0.00000000
H          -1.56137595        0.88960877        0.33706274
H          -1.56137595       -0.88960877       -0.33706274
H           1.56137603        0.88960882       -0.33706278
H           1.56137603       -0.88960882        0.33706278
6
MD Time 140.00
C          -0.97528420       -0.00000000       -0.00000000
C           0.97528419       -0.00000000        0.00000000
H          -1.55780157        0.89441740        0.33406834
H          -1.55780157       -0.89441740       -0.33406834
H           1.55780164        0.89441745       -0.33406838
H           1.55780164       -0.89441745        0.33406838
6
MD Time 150.00
C          -0.97108017       -0.00000000       -0.00000000
C           0.97108030       -0.00000000        0.00000000
H          -1.55380896        0.89922978        0.33072121
H          -1.55380896       -0.89922978       -0.33072121
H           1.55380819        0.89922895       -0.33072078
H           1.55380819       -0.89922895        0.33072078
6
MD Time 160.00
C          -0.96660114       -0.00000000       -0.00000000
C           0.96660141       -0.00000000        0.00000000
H          -1.54937994        0.90399557        0.32700501
H          -1.54937994       -0.90399557       -0.32700501
H           1.54937834        0.90399388       -0.32700410
H           1.54937834       -0.90399388        0.32700410
6
MD Time 170.00
C          -0.96184738       -0.00000000       -0.00000000
C           0.96184779       -0.00000000        0.00000000
H          -1.54449919        0.90866786        0.32290537
H          -1.54449919       -0.90866786       -0.32290537
H           1.54449678        0.90866535       -0.32290399
H           1.54449678       -0.90866535        0.32290399
6
MD Time 180.00
C          -0.95681864       -0.00000000       -0.00000000
C           0.95681918       -0.00000000        0.00000000
H          -1.53915408        0.91320325        0.31840982
H          -1.53915408       -0.91320325       -0.31840982
H           1.53915089        0.91319997       -0.31840800
H           1.53915089       -0.91319997        0.31840800
6
MD Time 190.00
C          -0.95151410       -0.00000000       -0.00000000
C           0.95151476       -0.00000000        0.00000000
H          -1.53333485        0.91756228        0.31350794
H          -1.53333485       -0.91756228       -0.31350794
H           1.53333091        0.91755829       -0.31350570
H           1.53333091       -0.91755829        0.31350570
6
MD Time 200.00
C          -0.94593235       -0.00000000       -0.00000000
C           0.94593313       -0.00000000        0.00000000
H          -1.52703473        0.92170975        0.30819145
H          -1.52703473       -0.92170975       -0.30819145
H           1.52703010        0.92170514       -0.30818881
H           1.52703010       -0.92170514        0.30818881
6
MD Time 210.00
C          -0.94007144       -0.00000000       -0.00000000
C           0.94007233       -0.00000000        0.00000000
H          -1.52025007        0.92561501        0.30245422
H          -1.52025007       -0.92561501       -0.30245422
H           1.52024481        0.92560987       -0.30245121
H           1.52024481       -0.92560987        0.30245121
6
MD Time 220.00
C          -0.93392886       -0.00000000       -0.00000000
C           0.93392984       -0.00000000        0.00000000
H          -1.51298040        0.92925221        0.29629228
H          -1.51298040       -0.92925221       -0.29629228
H           1.51297456        0.92924663       -0.29628894
H           1.51297456       -0.92924663        0.29628894
6
MD Time 230.00
C          -0.92750154        0.00000000       -0.00000000
C           0.92750261       -0.00000000        0.00000000
H          -1.50522842        0.93260037        0.28970385
H          -1.50522842       -0.93260037       -0.28970385
H           1.50522208        0.93259448       -0.28970020
H           1.50522208       -0.93259448        0.28970020
6
MD Time 240.00
C          -0.92078594        0.00000000       -0.00000000
C           0.92078708       -0.00000000        0.00000000
H          -1.49700005        0.93564359        0.28268925
H          -1.49700005       -0.93564359       -0.28268925
H           1.49699328        0.93563749       -0.28268534
H           1.49699328       -0.93563749        0.28268534
6
MD Time 250.00
C          -0.91377806        0.00000000       -0.00000000
C           0.91377925       -0.00000000        0.00000000
H          -1.48830438        0.93837100        0.27525087
H          -1.48830438       -0.93837100       -0.27525087
H           1.48829725        0.93836483       -0.27524673
H           1.48829725       -0.93836483        0.27524673
6
MD Time 260.00
C          -0.90647347        0.00000000       -0.00000000
C           0.90647471       -0.00000000        0.00000000
H          -1.47915362        0.94077684        0.26739305
H          -1.47915362       -0.94077684       -0.26739305
H           1.47914622        0.94077072       -0.26738872
H           1.47914622       -0.94077072        0.26738872
6
MD Time 270.00
C          -0.89886742        0.00000000       -0.00000000
C           0.89886869       -0.00000000        0.00000000
H          -1.46956304        0.94286035        0.25912202
H          -1.46956304       -0.94286035       -0.25912202
H           1.46955545        0.94285442       -0.25911753
H           1.46955545       -0.94285442        0.25911753
6
MD Time 280.00
C          -0.89095490        0.00000000       -0.00000000
C           0.89095620       -0.00000000        0.00000000
H          -1.45955086        0.94462570        0.25044573
H          -1.45955086       -0.94462570       -0.25044573
H           1.45954316        0.94462009       -0.25044112
H           1.45954316       -0.94462009        0.25044112
6
MD Time 290.00
C          -0.88273074        0.00000000       -0.00000000
C           0.88273204       -0.00000000        0.00000000
H          -1.44913814        0.94608181        0.24137378
H          -1.44913814       -0.94608181       -0.24137378
H           1.44913042        0.94607665       -0.24136908
H           1.44913042       -0.94607665        0.24136908
6
MD Time 300.00
C          -0.87418971        0.00000000       -0.00000000
C           0.87419100       -0.00000000        0.00000000
H          -1.43834861        0.94724213        0.23191723
H          -1.43834861       -0.94724213       -0.23191723
H           1.43834095        0.94723754       -0.23191248
H           1.43834095       -0.94723754        0.23191248
6
MD Time 310.00
C          -0.86532668        0.00000000       -0.00000000
C           0.86532794       -0.00000000        0.00000000
H          -1.42720850        0.94812432        0.22208847
H          -1.42720850       -0.94812432       -0.22208847
H           1.42720099        0.94812043       -0.22208369
H           1.42720099       -0.94812043        0.22208369
6
MD Time 320.00
C          -0.85613676        0.00000000       -0.00000000
C           0.85613798       -0.00000000        0.00000000
H          -1.41574632        0.94874991        0.21190104
H          -1.41574632       -0.94874991       -0.21190104
H           1.41573903        0.94874683       -0.21189626
H           1.41573903       -0.94874683        0.21189626
6
MD Time 330.00
C          -0.84661552        0.00000000       -0.00000000
C           0.84661669       -0.00000000        0.00000000
H          -1.40399258        0.94914379        0.20136949
H          -1.40399258       -0.94914379       -0.20136949
H           1.40398558        0.94914161       -0.20136474
H           1.40398558       -0.94914161        0.20136474
6
MD Time 340.00
C          -0.83675918        0.00000000       -0.00000000
C           0.83676030       -0.00000000        0.00000000
H          -1.39197951        0.94933370        0.19050922
H          -1.39197951       -0.94933370       -0.19050922
H           1.39197286        0.94933252       -0.19050450
H           1.39197286       -0.94933252        0.19050450
6
MD Time 350.00
C          -0.82656491        0.00000000       -0.00000000
C           0.82656595       -0.00000000        0.00000000
H          -1.37974072        0.94934958        0.17933629
H          -1.37974072       -0.94934958       -0.17933629
H           1.37973448        0.94934946       -0.17933163
H           1.37973448       -0.94934946        0.17933163
6
MD Time 360.00
C          -0.81603109        0.00000000       -0.00000000
C           0.81603206       -0.00000000        0.00000000
H          -1.36731083        0.94922286        0.16786733
H          -1.36731083       -0.94922286       -0.16786733
H           1.36730506        0.94922387       -0.16786274
H           1.36730506       -0.94922387        0.16786274
6
MD Time 370.00
C          -0.80515773        0.00000000       -0.00000000
C           0.80515861       -0.00000000        0.00000000
H          -1.35472505        0.94898569        0.15611941
H          -1.35472505       -0.94898569       -0.15611941
H           1.35471979        0.94898784       -0.15611488
H           1.35471979       -0.94898784        0.15611488
6
MD Time 380.00
C          -0.79394679        0.00000000       -0.00000000
C           0.79394759       -0.00000000        0.00000000
H          -1.34201876        0.94867004        0.14410992
H          -1.34201876       -0.94867004       -0.14410992
H           1.34201404        0.94867336       -0.14410547
H           1.34201404       -0.94867336        0.14410547
6
MD Time 390.00
C          -0.78240274        0.00000000       -0.00000000
C           0.78240344       -0.00000000        0.00000000
H          -1.32922705        0.94830688        0.13185657
H          -1.32922705       -0.94830688       -0.13185657
H           1.32922287        0.94831136       -0.13185220
H           1.32922287       -0.94831136        0.13185220
6
MD Time 400.00
C          -0.77053303        0.00000000       -0.00000000
C           0.77053364       -0.00000000        0.00000000
H          -1.31638423        0.94792524        0.11937737
H          -1.31638423       -0.94792524       -0.11937737
H           1.31638062        0.94793086       -0.11937307
H           1.31638062       -0.94793086        0.11937307
6
MD Time 410.00
C          -0.75834873        0.00000000       -0.00000000
C           0.75834925       -0.00000000        0.00000000
H          -1.30352346        0.94755138        0.10669066
H          -1.30352346       -0.94755138       -0.10669066
H           1.30352040        0.94755808       -0.10668643
H           1.30352040       -0.94755808        0.10668643
6
MD Time 420.00
C          -0.74586521        0.00000000       -0.00000000
C           0.74586563       -0.00000000        0.00000000
H          -1.29067626        0.94720795        0.09381521
H          -1.29067626       -0.94720795       -0.09381521
H           1.29067373        0.94721565       -0.09381104
H           1.29067373       -0.94721565        0.09381104
6
MD Time 430.00
C          -0.73310288        0.00000000       -0.00000000
C           0.73310322       -0.00000000        0.00000000
H          -1.27787218        0.94691333        0.08077038
H          -1.27787218       -0.94691333       -0.08077038
H           1.27787016        0.94692193       -0.08076626
H           1.27787016       -0.94692193        0.08076626
6
MD Time 440.00
C          -0.72008814        0.00000000       -0.00000000
C           0.72008840       -0.00000000        0.00000000
H          -1.26513854        0.94668102        0.06757628
H          -1.26513854       -0.94668102       -0.06757628
H           1.26513699        0.94669041       -0.06757220
H           1.26513699       -0.94669041        0.06757220
6
MD Time 450.00
C          -0.70685422        0.00000000       -0.00000000
C           0.70685441       -0.00000000        0.00000000
H          -1.25250017        0.94651933        0.05425403
H          -1.25250017       -0.94651933       -0.05425403
H           1.25249905        0.94652937       -0.05424999
H           1.25249905       -0.94652937        0.05424999
6
MD Time 460.00
C          -0.69344232        0.00000000       -0.00000000
C           0.69344245       -0.00000000        0.00000000
H          -1.23997941        0.94643115        0.04082593
H          -1.23997941       -0.94643115       -0.04082593
H           1.23997864        0.94644170       -0.04082191
H           1.23997864       -0.94644170        0.04082191
6
MD Time 470.00
C          -0.67990265        0.00000000       -0.00000000
C           0.67990273       -0.00000000        0.00000000
H          -1.22759607        0.94641407        0.02731574
H          -1.22759607       -0.94641407       -0.02731574
H           1.22759560        0.94642496       -0.02731174
H           1.22759560       -0.94642496        0.02731174
6
MD Time 480.00
C          -0.66629567        0.00000000       -0.00000000
C           0.66629568       -0.00000000        0.00000000
H          -1.21536762        0.94646048        0.01374887
H          -1.21536762       -0.94646048       -0.01374887
H           1.21536753        0.94647179       -0.01374490
H           1.21536753       -0.94647179        0.01374490
6
MD Time 490.00
C          -0.65269318        0.00000000       -0.00000000
C           0.65269315       -0.00000000        0.00000000
H          -1.20330969        0.94655855        0.00015254
H          -1.20330969       -0.94655855       -0.00015254
H           1.20330990        0.94657010       -0.00014859
H           1.20330990       -0.94657010        0.00014859
6
MD Time 500.00
C          -0.63917951        0.00000000       -0.00000000
C           0.63917943       -0.00000000        0.00000000
H          -1.19143633        0.94669252       -0.01344413
H          -1.19143633       -0.94669252        0.01344413
H           1.19143678        0.94670415        0.01344805
H           1.19143678       -0.94670415       -0.01344805
6
MD Time 510.00
C          -0.62585238        0.00000000       -0.00000000
C           0.62585228       -0.00000000        0.00000000
H          -1.17976071        0.94684383       -0.02701009
H          -1.17976071       -0.94684383        0.02701009
H           1.17976132        0.94685536        0.02701398
H           1.17976132       -0.94685536       -0.02701398
6
MD Time 520.00
C          -0.61282359        0.00000000       -0.00000000
C           0.61282347       -0.00000000        0.00000000
H          -1.16829578        0.94699213       -0.04051247
H          -1.16829578       -0.94699213        0.04051247
H           1.16829647        0.94700337        0.04051632
H           1.16829647       -0.94700337       -0.04051632
6
MD Time 530.00
C          -0.60021907        0.00000000       -0.00000000
C           0.60021895       -0.00000000        0.00000000
H          -1.15705505        0.94711642       -0.05391676
H          -1.15705505       -0.94711642        0.05391676
H           1.15705578        0.94712727        0.05392058
H           1.15705578       -0.94712727       -0.05392058
6
MD Time 540.00
C          -0.58817830        0.00000000       -0.00000000
C           0.58817818       -0.00000000        0.00000000
H          -1.14605346        0.94719642       -0.06718711
H          -1.14605346       -0.94719642        0.06718711
H           1.14605416        0.94720671        0.06719089
H           1.14605416       -0.94720671       -0.06719089
6
MD Time 550.00
C          -0.57685265        0.00000000       -0.00000000
C           0.57685255       -0.00000000        0.00000000
H          -1.13530815        0.94721367       -0.08028670
H          -1.13530815       -0.94721367        0.08028670
H           1.13530874        0.94722323        0.08029043
H           1.13530874       -0.94722323       -0.08029043
6
MD Time 560.00
C          -0.56640257        0.00000000       -0.00000000
C           0.56640250       -0.00000000        0.00000000
H          -1.12483923        0.94715277       -0.09317820
H          -1.12483923       -0.94715277        0.09317820
H           1.12483968        0.94716148        0.09318188
H           1.12483968       -0.94716148       -0.09318188
6
MD Time 570.00
C          -0.55699327        0.00000000       -0.00000000
C           0.55699324       -0.00000000        0.00000000
H          -1.11467055        0.94700262       -0.10582433
H          -1.11467055       -0.94700262        0.10582433
H           1.11467072        0.94701027        0.10582793
H           1.11467072       -0.94701027       -0.10582793
6
MD Time 580.00
C          -0.54878898        0.00000000       -0.00000000
C           0.54878899       -0.00000000        0.00000000
H          -1.10483004        0.94675729       -0.11818834
H          -1.10483004       -0.94675729        0.11818834
H           1.10482993        0.94676381        0.11819184
H           1.10482993       -0.94676381       -0.11819184
6
MD Time 590.00
C          -0.54194576        0.00000000       -0.00000000
C           0.54194584       -0.00000000        0.00000000
H          -1.09535032        0.94641719       -0.13023462
H          -1.09535032       -0.94641719        0.13023462
H           1.09534986        0.94642243        0.13023802
H           1.09534986       -0.94642243       -0.13023802
6
MD Time 600.00
C          -0.53660351        0.00000000       -0.00000000
C           0.53660366       -0.00000000        0.00000000
H          -1.08626872        0.94598972       -0.14192927
H          -1.08626872       -0.94598972        0.14192927
H           1.08626780        0.94599350        0.14193252
H           1.08626780       -0.94599350       -0.14193252
6
MD Time 610.00
C          -0.53287751        0.00000000       -0.00000000
C           0.53287775       -0.00000000        0.00000000
H          -1.07762722        0.94548986       -0.15324058
H          -1.07762722       -0.94548986        0.15324058
H           1.07762578        0.94549202        0.15324364
H           1.07762578       -0.94549202       -0.15324364
6
MD Time 620.00
C          -0.53085084        0.00000000        0.00000000
C           0.53085116       -0.00000000        0.00000000
H          -1.06947221        0.94494053       -0.16413952
H          -1.06947221       -0.94494053        0.16413952
H           1.06947025        0.94494106        0.16414239
H           1.06947025       -0.94494106       -0.16414239
6
MD Time 630.00
C          -0.53056829        0.00000000        0.00000000
C           0.53056871       -0.00000000        0.00000000
H          -1.06185404        0.94437280       -0.17460024
H          -1.06185404       -0.94437280        0.17460024
H           1.06185155        0.94437167        0.17460292
H           1.06185155       -0.94437167       -0.17460292
6
MD Time 640.00
C          -0.53203295        0.00000000        0.00000000
C           0.53203345       -0.00000000        0.00000000
H          -1.05482623        0.94382552       -0.18460043
H          -1.05482623       -0.94382552        0.18460043
H           1.05482324        0.94382279        0.18460293
H           1.05482324       -0.94382279       -0.18460293
6
MD Time 650.00
C          -0.53520578        0.00000000        0.00000000
C           0.53520635       -0.00000000        0.00000000
H          -1.04844464        0.94334479       -0.19412166
H          -1.04844464       -0.94334479        0.19412166
H           1.04844121        0.94334051        0.19412399
H           1.04844121       -0.94334051       -0.19412399
6
MD Time 660.00
C          -0.54000844        0.00000000        0.00000000
C           0.54000909       -0.00000000        0.00000000
H          -1.04276633        0.94298286       -0.20314962
H          -1.04276633       -0.94298286        0.20314962
H           1.04276249        0.94297709        0.20315179
H           1.04276249       -0.94297709       -0.20315179
6
MD Time 670.00
C          -0.54632888        0.00000000        0.00000000
C           0.54632958       -0.00000000        0.00000000
H          -1.03784825        0.94279658       -0.21167423
H          -1.03784825       -0.94279658        0.21167423
H           1.03784408        0.94278947        0.21167626
H           1.03784408       -0.94278947       -0.21167626
6
MD Time 680.00
C          -0.55402871        0.00000000        0.00000000
C           0.55402945       -0.00000000        0.00000000
H          -1.03374588        0.94284560       -0.21968963
H          -1.03374588       -0.94284560        0.21968963
H           1.03374145        0.94283725        0.21969154
H           1.03374145       -0.94283725       -0.21969154
6
MD Time 690.00
C          -0.56295165        0.00000000        0.00000000
C           0.56295242       -0.00000000        0.00000000
H          -1.03051165        0.94318992       -0.22719394
H          -1.03051165       -0.94318992        0.22719394
H           1.03050705        0.94318054        0.22719578
H           1.03050705       -0.94318054       -0.22719578
6
MD Time 700.00
C          -0.57293186        0.00000000        0.00000000
C           0.57293265       -0.00000000        0.00000000
H          -1.02819343        0.94388745       -0.23418890
H          -1.02819343       -0.94388745        0.23418890
H           1.02818875        0.94387718        0.23419070
H           1.02818875       -0.94387718       -0.23419070
6
MD Time 710.00
C          -0.58380143        0.00000000        0.00000000
C           0.58380221       -0.00000000        0.00000000
H          -1.02683300        0.94499111       -0.24067921
H          -1.02683300       -0.94499111        0.24067921
H           1.02682836        0.94498019        0.24068103
H           1.02682836       -0.94498019       -0.24068103
6
MD Time 720.00
C          -0.59539664        0.00000000        0.00000000
C           0.59539740       -0.00000000        0.00000000
H          -1.02646477        0.94654622       -0.24667182
H          -1.02646477       -0.94654622        0.24667182
H           1.02646027        0.94653488        0.24667372
H           1.02646027       -0.94653488       -0.24667372
6
MD Time 730.00
C          -0.60756261        0.00000000        0.00000000
C           0.60756332       -0.00000000        0.00000000
H          -1.02711466        0.94858786       -0.25217500
H          -1.02711466       -0.94858786        0.25217500
H           1.02711041        0.94857632        0.25217702
H           1.02711041       -0.94857632       -0.25217702
6
MD Time 740.00
C          -0.62015654        0.00000000        0.00000000
C           0.62015719       -0.00000000        0.00000000
H          -1.02879935        0.95113861       -0.25719738
H          -1.02879935       -0.95113861        0.25719738
H           1.02879547        0.95112718        0.25719962
H           1.02879547       -0.95112718       -0.25719962
6
MD Time 750.00
C          -0.63304957        0.00000000        0.00000000
C           0.63305014       -0.00000000        0.00000000
H          -1.03152590        0.95420702       -0.26174715
H          -1.03152590       -0.95420702        0.26174715
H           1.03152249        0.95419594        0.26174967
H           1.03152249       -0.95419594       -0.26174967
6
MD Time 760.00
C          -0.64612748        0.00000000        0.00000000
C           0.64612796       -0.00000000        0.00000000
H          -1.03529170        0.95778636       -0.26583116
H          -1.03529170       -0.95778636        0.26583116
H           1.03528887        0.95777587        0.26583405
H           1.03528887       -0.95777587       -0.26583405
6
MD Time 770.00
C          -0.65929069        0.00000000        0.00000000
C           0.65929105       -0.00000000        0.00000000
H          -1.04008488        0.96185434       -0.26945440
H          -1.04008488       -0.96185434        0.26945440
H           1.04008269        0.96184465        0.26945769
H           1.04008269       -0.96184465       -0.26945769
6
MD Time 780.00
C          -0.67245349        0.00000000        0.00000000
C           0.67245373       -0.00000000        0.00000000
H          -1.04588485        0.96637336       -0.27261947
H          -1.04588485       -0.96637336        0.27261947
H           1.04588341        0.96636478        0.27262329
H           1.04588341       -0.96636478       -0.27262329
6
MD Time 790.00
C          -0.68554307        0.00000000        0.00000000
C           0.68554317       -0.00000000        0.00000000
H          -1.05266330        0.97129171       -0.27532661
H          -1.05266330       -0.97129171        0.27532661
H           1.05266266        0.97128439        0.27533100
H           1.05266266       -0.97128439       -0.27533100
6
MD Time 800.00
C          -0.69849822        0.00000000        0.00000000
C           0.69849818       -0.00000000        0.00000000
H          -1.06038515        0.97654495       -0.27757359
H          -1.06038515       -0.97654495        0.27757359
H           1.06038535        0.97653900        0.27757858
H           1.06038535       -0.97653900       -0.27757858
6
MD Time 810.00
C          -0.71126801        0.00000000        0.00000000
C           0.71126783       -0.00000000        0.00000000
H          -1.06900970        0.98205797       -0.27935603
H          -1.06900970       -0.98205797        0.27935603
H           1.06901077        0.98205348        0.27936163
H           1.06901077       -0.98205348       -0.27936163
6
MD Time 820.00
C          -0.72381050        0.00000000        0.00000000
C           0.72381017       -0.00000000        0.00000000
H          -1.07849169        0.98774731       -0.28066777
H          -1.07849169       -0.98774731        0.28066777
H           1.07849363        0.98774432        0.28067400
H           1.07849363       -0.98774432       -0.28067400
6
MD Time 830.00
C          -0.73609147        0.00000000        0.00000000
C           0.73609099       -0.00000000        0.00000000
H          -1.08878240        0.99352355       -0.28150143
H          -1.08878240       -0.99352355        0.28150143
H           1.08878521        0.99352206        0.28150830
H           1.08878521       -0.99352206       -0.28150830
6
MD Time 840.00
C          -0.74808331        0.00000000        0.00000000
C           0.74808269       -0.00000000        0.00000000
H          -1.09983057        0.99929372       -0.28184892
H          -1.09983057       -0.99929372        0.28184892
H           1.09983424        0.99929373        0.28185641
H           1.09983424       -0.99929373       -0.28185641
6
MD Time 850.00
C          -0.75976401        0.00000000        0.00000000
C           0.75976325       -0.00000000        0.00000000
H          -1.11158328        1.00496368       -0.28170201
H          -1.11158328       -1.00496368        0.28170201
H           1.11158778        1.00496512        0.28171010
H           1.11158778       -1.00496512       -0.28171010
6
MD Time 860.00
C          -0.77111626        0.00000000        0.00000000
C           0.77111537       -0.00000000        0.00000000
H          -1.12398663        1.01044018       -0.28105287
H          -1.12398663       -1.01044018        0.28105287
H           1.12399191        1.01044298        0.28106155
H           1.12399191       -1.01044298       -0.28106155
6
MD Time 870.00
C          -0.78212671        0.00000000        0.00000000
C           0.78212570       -0.00000000        0.00000000
H          -1.13698637        1.01563276       -0.27989457
H          -1.13698637       -1.01563276        0.27989457
H           1.13699238        1.01563680        0.27990380
H           1.13699238       -1.01563680       -0.27990380
6
MD Time 880.00
C          -0.79278532        0.00000000        0.00000000
C           0.79278419       -0.00000000        0.00000000
H          -1.15052833        1.02045533       -0.27822146
H          -1.15052833       -1.02045533        0.27822146
H           1.15053502        1.02046051        0.27823122
H           1.15053502       -1.02046051       -0.27823122
6
MD Time 890.00
C          -0.80308474        0.00000000        0.00000000
C           0.80308351       -0.00000000        0.00000000
H          -1.16455885        1.02482755       -0.27602957
H          -1.16455885       -1.02482755        0.27602957
H           1.16456616        1.02483371        0.27603980
H           1.16456616       -1.02483371       -0.27603980
6
MD Time 900.00
C          -0.81301993        0.00000000        0.00000000
C           0.81301861       -0.00000000        0.00000000
H          -1.17902505        1.02867583       -0.27331679
H          -1.17902505       -1.02867583        0.27331679
H           1.17903290        1.02868283        0.27332746
H           1.17903290       -1.02868283       -0.27332746
6
MD Time 910.00
C          -0.82258771        0.00000000        0.00000000
C           0.82258631       -0.00000000        0.00000000
H          -1.19387504        1.03193422       -0.27008314
H          -1.19387504       -1.03193422        0.27008314
H           1.19388335        1.03194188        0.27009420
H           1.19388335       -1.03194188       -0.27009420
6
MD Time 920.00
C          -0.83178640        0.00000000        0.00000000
C           0.83178494       -0.00000000        0.00000000
H          -1.20905811        1.03454498       -0.26633083
H          -1.20905811       -1.03454498        0.26633083
H           1.20906680        1.03455313        0.26634223
H           1.20906680       -1.03455313       -0.26634223
6
MD Time 930.00
C          -0.84061560        0.00000000        0.00000000
C           0.84061409       -0.00000000        0.00000000
H          -1.22452486        1.03645903       -0.26206439
H          -1.22452486       -1.03645903        0.26206439
H           1.22453385        1.03646749        0.26207608
H           1.22453385       -1.03646749       -0.26207608
6
MD Time 940.00
C          -0.84907587        0.00000000        0.00000000
C           0.84907433       -0.00000000        0.00000000
H          -1.24022729        1.03763629       -0.25729064
H          -1.24022729       -1.03763629        0.25729064
H           1.24023650        1.03764487        0.25730256
H           1.24023650       -1.03764487       -0.25730256
6
MD Time 950.00
C          -0.85716860        0.00000000        0.00000000
C           0.85716703       -0.00000000        0.00000000
H          -1.25611893        1.03804581       -0.25201868
H          -1.25611893       -1.03804581        0.25201868
H           1.25612827        1.03805434        0.25203080
H           1.25612827       -1.03805434       -0.25203080
6
MD Time 960.00
C          -0.86489574        0.00000000        0.00000000
C           0.86489417       -0.00000000        0.00000000
H          -1.27215486        1.03766593       -0.24625988
H          -1.27215486       -1.03766593        0.24625988
H           1.27216424        1.03767422        0.24627213
H           1.27216424       -1.03767422       -0.24627213
6
MD Time 970.00
C          -0.87225976        0.00000000        0.00000000
C           0.87225816       -0.00000000        0.00000000
H          -1.28829174        1.03648390       -0.24002761
H          -1.28829174       -1.03648390        0.24002761
H           1.28830128        1.03649244        0.24004018
H           1.28830128       -1.03649244       -0.24004018
6
MD Time 980.00
C          -0.87926339        0.00000000        0.00000000
C           0.87926177       -0.00000000        0.00000000
H          -1.30448816        1.03449691       -0.23333753
H          -1.30448816       -1.03449691        0.23333753
H           1.30449777        1.03450552        0.23335036
H           1.30449777       -1.03450552       -0.23335036
6
MD Time 990.00
C          -0.88590958        0.00000000        0.00000000
C           0.88590797       -0.00000000        0.00000000
H          -1.32070442        1.03171094       -0.22620708
H          -1.32070442       -1.03171094        0.22620708
H           1.32071402        1.03171943        0.22622013
H           1.32071402       -1.03171943       -0.22622013
6
MD Time 1000.00
C          -0.89220140        0.00000000        0.00000000
C           0.89219977       -0.00000000        0.00000000
H          -1.33690266        1.02814078       -0.21865540
H          -1.33690266       -1.02814078        0.21865540
H           1.33691232        1.02814943        0.21866876
H           1.33691232       -1.02814943       -0.21866876
6
MD Time 1010.00
C          -0.89814189        0.00000000        0.00000000
C           0.89814027       -0.00000000        0.00000000
H          -1.35304716        1.02381049       -0.21070334
H          -1.35304716       -1.02381049        0.21070334
H           1.35305679        1.02381911        0.21071697
H           1.35305679       -1.02381911       -0.21071697
6
MD Time 1020.00
C          -0.90373405        0.00000000        0.00000000
C           0.90373245       -0.00000000        0.00000000
H          -1.36910417        1.01875247       -0.20237310
H          -1.36910417       -1.01875247        0.20237310
H           1.36911368        1.01876088        0.20238695
H           1.36911368       -1.01876088       -0.20238695
6
MD Time 1030.00
C          -0.90898072        0.00000000        0.00000000
C           0.90897916       -0.00000000        0.00000000
H          -1.38504210        1.01300737       -0.19368801
H          -1.38504210       -1.01300737        0.19368801
H           1.38505137        1.01301537        0.19370203
H           1.38505137       -1.01301537       -0.19370203
6
MD Time 1040.00
C          -0.91388456        0.00000000        0.00000000
C           0.91388305       -0.00000000        0.00000000
H          -1.40083149        1.00662365       -0.18467237
H          -1.40083149       -1.00662365        0.18467237
H           1.40084045        1.00663106        0.18468653
H           1.40084045       -1.00663106       -0.18468653
6
MD Time 1050.00
C          -0.91844799        0.00000000        0.00000000
C           0.91844655       -0.00000000        0.00000000
H          -1.41644513        0.99965711       -0.17535116
H          -1.41644513       -0.99965711        0.17535116
H           1.41645368        0.99966376        0.17536541
H           1.41645368       -0.99966376       -0.17536541
6
MD Time 1060.00
C          -0.92267316        0.00000000        0.00000000
C           0.92267180       -0.00000000        0.00000000
H          -1.43185793        0.99217025       -0.16574975
H          -1.43185793       -0.99217025        0.16574975
H           1.43186598        0.99217597        0.16576407
H           1.43186598       -0.99217597       -0.16576407
6
MD Time 1070.00
C          -0.92656194        0.00000000        0.00000000
C           0.92656069       -0.00000000        0.00000000
H          -1.44704694        0.98423153       -0.15589367
H          -1.44704694       -0.98423153        0.15589367
H           1.44705439        0.98423617        0.15590801
H           1.44705439       -0.98423617       -0.15590801
6
MD Time 1080.00
C          -0.93011593        0.00000000        0.00000000
C           0.93011479       -0.00000000        0.00000000
H          -1.46199110        0.97591449       -0.14580823
H          -1.46199110       -0.97591449        0.14580823
H           1.46199789        0.97591791        0.14582258
H           1.46199789       -0.97591791       -0.14582258
6
MD Time 1090.00
C          -0.93333647        0.00000000        0.00000000
C           0.93333545       -0.00000000        0.00000000
H          -1.47667111        0.96729674       -0.13551832
H          -1.47667111       -0.96729674        0.13551832
H           1.47667716        0.96729884        0.13553266
H           1.47667716       -0.96729884       -0.13553266
6
MD Time 1100.00
C          -0.93622466        0.00000000        0.00000000
C           0.93622378       -0.00000000        0.00000000
H          -1.49106907        0.95845887       -0.12504804
H          -1.49106907       -0.95845887        0.12504804
H           1.49107432        0.95845953        0.12506234
H           1.49107432       -0.95845953       -0.12506234
6
MD Time 1110.00
C          -0.93878145        0.00000000        0.00000000
C           0.93878071       -0.00000000        0.00000000
H          -1.50516810        0.94948310       -0.11442045
H          -1.50516810       -0.94948310        0.11442045
H           1.50517249        0.94948226        0.11443471
H           1.50517249       -0.94948226       -0.11443471
6
MD Time 1120.00
C          -0.94100772        0.00000000        0.00000000
C           0.94100713       -0.00000000        0.00000000
H          -1.51895183        0.94045203       -0.10365734
H          -1.51895183       -0.94045203        0.10365734
H           1.51895534        0.94044965        0.10367154
H           1.51895534       -0.94044965       -0.10367154
6
MD Time 1130.00
C          -0.94290432        0.00000000        0.00000000
C           0.94290388       -0.00000000        0.00000000
H          -1.53240392        0.93144722       -0.09277899
H          -1.53240392       -0.93144722        0.09277899
H           1.53240652        0.93144327        0.09279315
H           1.53240652       -0.93144327       -0.09279315
6
MD Time 1140.00
C          -0.94447223        0.00000000        0.00000000
C           0.94447194       -0.00000000        0.00000000
H          -1.54550735        0.92254773       -0.08180407
H          -1.54550735       -0.92254773        0.08180407
H           1.54550905        0.92254225        0.08181818
H           1.54550905       -0.92254225       -0.08181818
6
MD Time 1150.00
C          -0.94571263        0.00000000        0.00000000
C           0.94571249       -0.00000000        0.00000000
H          -1.55824386        0.91382879       -0.07074950
H          -1.55824386       -0.91382879        0.07074950
H           1.55824466        0.91382183        0.07076356
H           1.55824466       -0.91382183       -0.07076356
6
MD Time 1160.00
C          -0.94662703        0.00000000        0.00000000
C           0.94662704       -0.00000000        0.00000000
H          -1.57059327        0.90536049       -0.05963045
H          -1.57059327       -0.90536049        0.05963045
H           1.57059321        0.90535212        0.05964448
H           1.57059321       -0.90535212       -0.05964448
6
MD Time 1170.00
C          -0.94721739        0.00000000        0.00000000
C           0.94721754       -0.00000000        0.00000000
H          -1.58253289        0.89720660       -0.04846039
H          -1.58253289       -0.89720660        0.04846039
H           1.58253202        0.89719696        0.04847441
H           1.58253202       -0.89719696       -0.04847441
6
MD Time 1180.00
C          -0.94748617        0.00000000        0.00000000
C           0.94748644       -0.00000000        0.00000000
H          -1.59403702        0.88942366       -0.03725126
H          -1.59403702       -0.88942366        0.03725126
H           1.59403541        0.88941287        0.03726527
H           1.59403541       -0.88941287       -0.03726527
6
MD Time 1190.00
C          -0.94743643        0.00000000        0.00000000
C           0.94743681       -0.00000000        0.00000000
H          -1.60507653        0.88206017       -0.02601359
H          -1.60507653       -0.88206017        0.02601359
H           1.60507427        0.88204841        0.02602760
H           1.60507427       -0.88204841       -0.02602760
6
MD Time 1200.00
C          -0.94707188        0.00000000        0.00000000
C           0.94707235       -0.00000000        0.00000000
H          -1.61561864        0.87515618       -0.01475681
H          -1.61561864       -0.87515618        0.01475681
H           1.61561584        0.87514364        0.01477084
H           1.61561584       -0.87514364       -0.01477084
6
MD Time 1210.00
C          -0.94639690        0.00000000        0.00000000
C           0.94639744       -0.00000000        0.00000000
H          -1.62562685        0.86874301       -0.00348951
H          -1.62562685       -0.86874301        0.00348951
H           1.62562361        0.86872990        0.00350358
H           1.62562361       -0.86872990       -0.00350358
6
MD Time 1220.00
C          -0.94541650        0.00000000        0.00000000
C           0.94541710        0.00000000        0.00000000
H          -1.63506104        0.86284334        0.00778023
H          -1.63506104       -0.86284334       -0.00778023
H           1.63505748        0.86282986       -0.00776613
H           1.63505748       -0.86282986        0.00776613
6
MD Time 1230.00
C          -0.94413632        0.00000000        0.00000000
C           0.94413694        0.00000000        0.00000000
H          -1.64387780        0.85747143        0.01904457
H          -1.64387780       -0.85747143       -0.01904457
H           1.64387406        0.85745783       -0.01903042
H           1.64387406       -0.85745783        0.01903042
6
MD Time 1240.00
C          -0.94256251        0.00000000        0.00000000
C           0.94256315        0.00000000        0.00000000
H          -1.65203091        0.85263367        0.03029555
H          -1.65203091       -0.85263367       -0.03029555
H           1.65202711        0.85262018       -0.03028135
H           1.65202711       -0.85262018        0.03028135
6
MD Time 1250.00
C          -0.94070172        0.00000000        0.00000000
C           0.94070227        0.00000000        0.00000000
H          -1.65947174        0.84832906        0.04152484
H          -1.65947174       -0.84832906       -0.04152484
H           1.65946848        0.84831616       -0.04151061
H           1.65946848       -0.84831616        0.04151061
6
MD Time 1260.00
C          -0.93856083        0.00000000        0.00000000
C           0.93856126        0.00000000        0.00000000
H          -1.66615065        0.84455035        0.05272354
H          -1.66615065       -0.84455035       -0.05272354
H           1.66614807        0.84453826       -0.05270926
H           1.66614807       -0.84453826        0.05270926
6
MD Time 1270.00
C          -0.93614694        0.00000000        0.00000000
C           0.93614724        0.00000000        0.00000000
H          -1.67201720        0.84128454        0.06388190
H          -1.67201720       -0.84128454       -0.06388190
H           1.67201539        0.84127345       -0.06386760
H           1.67201539       -0.84127345        0.06386760
6
MD Time 1280.00
C          -0.93346723        0.00000000        0.00000000
C           0.93346738        0.00000000        0.00000000
H          -1.67702114        0.83851381        0.07498928
H          -1.67702114       -0.83851381       -0.07498928
H           1.67702020        0.83850390       -0.07497495
H           1.67702020       -0.83850390        0.07497495
6
MD Time 1290.00
C          -0.93052875        0.00000000        0.00000000
C           0.93052875        0.00000000        0.00000000
H          -1.68111334        0.83621646        0.08603396
H          -1.68111334       -0.83621646       -0.08603396
H           1.68111335        0.83620789       -0.08601961
H           1.68111335       -0.83620789        0.08601961
6
MD Time 1300.00
C          -0.92733839        0.00000000        0.00000000
C           0.92733821        0.00000000        0.00000000
H          -1.68424660        0.83436772        0.09700314
H          -1.68424660       -0.83436772       -0.09700314
H           1.68424763        0.83436060       -0.09698876
H           1.68424763       -0.83436060        0.09698876
6
MD Time 1310.00
C          -0.92390265        0.00000000        0.00000000
C           0.92390230        0.00000000        0.00000000
H          -1.68637642        0.83294050        0.10788290
H          -1.68637642       -0.83294050       -0.10788290
H           1.68637850        0.83293495       -0.10786852
H           1.68637850       -0.83293495        0.10786852
6
MD Time 1320.00
C          -0.92022761        0.00000000        0.00000000
C           0.92022707        0.00000000        0.00000000
H          -1.68746170        0.83190618        0.11865827
H          -1.68746170       -0.83190618       -0.11865827
H           1.68746486        0.83190226       -0.11864388
H           1.68746486       -0.83190226        0.11864388
6
MD Time 1330.00
C          -0.91631879        0.00000000        0.00000000
C           0.91631807        0.00000000        0.00000000
H          -1.68746539        0.83123522        0.12931323
H          -1.68746539       -0.83123522       -0.12931323
H           1.68746963        0.83123299       -0.12929882
H           1.68746963       -0.83123299        0.12929882
6
MD Time 1340.00
C          -0.91218110        0.00000000        0.00000000
C           0.91218020        0.00000000        0.00000000
H          -1.68635499        0.83089776        0.13983081
H          -1.68635499       -0.83089776       -0.13983081
H           1.68636030        0.83089725       -0.13981639
H           1.68636030       -0.83089725        0.13981639
6
MD Time 1350.00
C          -0.90781875        0.00000000        0.00000000
C           0.90781767        0.00000000        0.00000000
H          -1.68410302        0.83086415        0.15019320
H          -1.68410302       -0.83086415       -0.15019320
H           1.68410938        0.83086535       -0.15017876
H           1.68410938       -0.83086535        0.15017876
6
MD Time 1360.00
C          -0.90323522        0.00000000        0.00000000
C           0.90323398        0.00000000        0.00000000
H          -1.68068739        0.83110541        0.16038187
H          -1.68068739       -0.83110541       -0.16038187
H           1.68069475        0.83110829       -0.16036740
H           1.68069475       -0.83110829        0.16036740
6
MD Time 1370.00
C          -0.89843323        0.00000000        0.00000000
C           0.89843183        0.00000000        0.00000000
H          -1.67609169        0.83159360        0.17037764
H          -1.67609169       -0.83159360       -0.17037764
H           1.67609999        0.83159812       -0.17036314
H           1.67609999       -0.83159812        0.17036314
6
MD Time 1380.00
C          -0.89341472        0.00000000        0.00000000
C           0.89341317        0.00000000        0.00000000
H          -1.67030540        0.83230226        0.18016091
H          -1.67030540       -0.83230226       -0.18016091
H           1.67031457        0.83230835       -0.18014634
H           1.67031457       -0.83230835        0.18014634
6
MD Time 1390.00
C          -0.88818083        0.00000000        0.00000000
C           0.88817916        0.00000000        0.00000000
H          -1.66332410        0.83320667        0.18971170
H          -1.66332410       -0.83320667       -0.18971170
H           1.66333405        0.83321425       -0.18969706
H           1.66333405       -0.83321425        0.18969706
6
MD Time 1400.00
C          -0.88273194        0.00000000        0.00000000
C           0.88273015        0.00000000        0.00000000
H          -1.65514954        0.83428419        0.19900988
H          -1.65514954       -0.83428419       -0.19900988
H           1.65516018        0.83429314       -0.19899513
H           1.65516018       -0.83429314        0.19899513
6
MD Time 1410.00
C          -0.87706767        0.00000000        0.00000000
C           0.87706579        0.00000000        0.00000000
H          -1.64578978        0.83551449        0.20803526
H          -1.64578978       -0.83551449       -0.20803526
H           1.64580099        0.83552469       -0.20802038
H           1.64580099       -0.83552469        0.20802038
6
MD Time 1420.00
C          -0.87118691        0.00000000        0.00000000
C           0.87118495        0.00000000        0.00000000
H          -1.63525918        0.83687983        0.21676779
H          -1.63525918       -0.83687983       -0.21676779
H           1.63527084        0.83689115       -0.21675274
H           1.63527084       -0.83689115        0.21675274
6
MD Time 1430.00
C          -0.86508788        0.00000000        0.00000000
C           0.86508586        0.00000000        0.00000000
H          -1.62357841        0.83836529        0.22518766
H          -1.62357841       -0.83836529       -0.22518766
H           1.62359040        0.83837757       -0.22517241
H           1.62359040       -0.83837757        0.22517241
6
MD Time 1440.00
C          -0.85876816        0.00000000        0.00000000
C           0.85876611        0.00000000        0.00000000
H          -1.61077445        0.83995896        0.23327549
H          -1.61077445       -0.83995896       -0.23327549
H           1.61078665        0.83997204       -0.23326000
H           1.61078665       -0.83997204        0.23326000
6
MD Time 1450.00
C          -0.85222481        0.00000000        0.00000000
C           0.85222274        0.00000000        0.00000000
H          -1.59688051        0.84165212        0.24101248
H          -1.59688051       -0.84165212       -0.24101248
H           1.59689277        0.84166584       -0.24099670
H           1.59689277       -0.84166584        0.24099670
6
MD Time 1460.00
C          -0.84545439        0.00000000        0.00000000
C           0.84545234        0.00000000        0.00000000
H          -1.58193590        0.84343943        0.24838050
H          -1.58193590       -0.84343943       -0.24838050
H           1.58194808        0.84345360       -0.24836439
H           1.58194808       -0.84345360        0.24836439
6
MD Time 1470.00
C          -0.83845314        0.00000000        0.00000000
C           0.83845113        0.00000000        0.00000000
H          -1.56598593        0.84531901        0.25536227
H          -1.56598593       -0.84531901       -0.25536227
H           1.56599789        0.84533345       -0.25534578
H           1.56599789       -0.84533345        0.25534578
6
MD Time 1480.00
C          -0.83121704        0.00000000        0.00000000
C           0.83121509        0.00000000        0.00000000
H          -1.54908165        0.84729254        0.26194146
H          -1.54908165       -0.84729254       -0.26194146
H           1.54909325        0.84730707       -0.26192453
H           1.54909325       -0.84730707        0.26192453
6
MD Time 1490.00
C          -0.82374198        0.00000000        0.00000000
C           0.82374011        0.00000000        0.00000000
H          -1.53127965        0.84936528        0.26810276
H          -1.53127965       -0.84936528       -0.26810276
H           1.53129075        0.84937972       -0.26808535
H           1.53129075       -0.84937972        0.26808535
6
MD Time 1500.00
C          -0.81602395        0.00000000        0.00000000
C           0.81602219        0.00000000        0.00000000
H          -1.51264171        0.85154604        0.27383198
H          -1.51264171       -0.85154604       -0.27383198
H           1.51265218        0.85156021       -0.27381403
H           1.51265218       -0.85156021        0.27381403
6
MD Time 1510.00
C          -0.80805923        0.00000000        0.00000000
C           0.80805759        0.00000000        0.00000000
H          -1.49323442        0.85384702        0.27911606
H          -1.49323442       -0.85384702       -0.27911606
H           1.49324413        0.85386075       -0.27909752
H           1.49324413       -0.85386075        0.27909752
6
MD Time 1520.00
C          -0.79984459        0.00000000        0.00000000
C           0.79984310        0.00000000        0.00000000
H          -1.47312872        0.85628364        0.28394311
H          -1.47312872       -0.85628364       -0.28394311
H           1.47313755        0.85629675       -0.28392394
H           1.47313755       -0.85629675        0.28392394
6
MD Time 1530.00
C          -0.79137761        0.00000000        0.00000000
C           0.79137629        0.00000000        0.00000000
H          -1.45239938        0.85887418        0.28830235
H          -1.45239938       -0.85887418       -0.28830235
H           1.45240722        0.85888654       -0.28828250
H           1.45240722       -0.85888654        0.28828250
6
MD Time 1540.00
C          -0.78265696        0.00000000        0.00000000
C           0.78265582        0.00000000        0.00000000
H          -1.43112439        0.86163940        0.29218403
H          -1.43112439       -0.86163940       -0.29218403
H           1.43113114        0.86165087       -0.29216346
H           1.43113114       -0.86165087        0.29216346
6
MD Time 1550.00
C          -0.77368273        0.00000000        0.00000000
C           0.77368179        0.00000000        0.00000000
H          -1.40938429        0.86460196        0.29557934
H          -1.40938429       -0.86460196       -0.29557934
H           1.40938988        0.86461243       -0.29555801
H           1.40938988       -0.86461243        0.29555801
6
MD Time 1560.00
C          -0.76445684        0.00000000        0.00000000
C           0.76445610        0.00000000        0.00000000
H          -1.38726150        0.86778576        0.29848020
H          -1.38726150       -0.86778576       -0.29848020
H           1.38726586        0.86779514       -0.29845808
H           1.38726586       -0.86779514        0.29845808
6
MD Time 1570.00
C          -0.75498343        0.00000000        0.00000000
C           0.75498291        0.00000000        0.00000000
H          -1.36483952        0.87121521        0.30087915
H          -1.36483952       -0.87121521       -0.30087915
H           1.36484260        0.87122343       -0.30085622
H           1.36484260       -0.87122343        0.30085622
6
MD Time 1580.00
C          -0.74526937        0.00000000        0.00000000
C           0.74526907        0.00000000        0.00000000
H          -1.34220221        0.87491432        0.30276906
H          -1.34220221       -0.87491432       -0.30276906
H           1.34220398        0.87492133       -0.30274530
H           1.34220398       -0.87492133        0.30274530
6
MD Time 1590.00
C          -0.73532473        0.00000000        0.00000000
C           0.73532465        0.00000000        0.00000000
H          -1.31943303        0.87890575        0.30414295
H          -1.31943303       -0.87890575       -0.30414295
H           1.31943349        0.87891155       -0.30411835
H           1.31943349       -0.87891155        0.30411835
6
MD Time 1600.00
C          -0.72516335        0.00000000        0.00000000
C           0.72516349        0.00000000        0.00000000
H          -1.29661434        0.88320992        0.30499375
H          -1.29661434       -0.88320992       -0.30499375
H           1.29661350        0.88321453       -0.30496831
H           1.29661350       -0.88321453        0.30496831
6
MD Time 1610.00
C          -0.71480342        0.00000000        0.00000000
C           0.71480377        0.00000000        0.00000000
H          -1.27382676        0.88784391        0.30531410
H          -1.27382676       -0.88784391       -0.30531410
H           1.27382465        0.88784738       -0.30528784
H           1.27382465       -0.88784738        0.30528784
6
MD Time 1620.00
C          -0.70426807        0.00000000        0.00000000
C           0.70426862        0.00000000        0.00000000
H          -1.25114856        0.89282061        0.30509625
H          -1.25114856       -0.89282061       -0.30509625
H           1.25114525        0.89282302       -0.30506919
H           1.25114525       -0.89282302        0.30506919
6
MD Time 1630.00
C          -0.69358605        0.00000000        0.00000000
C           0.69358680        0.00000000        0.00000000
H          -1.22865530        0.89814782        0.30433188
H          -1.22865530       -0.89814782       -0.30433188
H           1.22865085        0.89814929       -0.30430405
H           1.22865085       -0.89814929        0.30430405
6
MD Time 1640.00
C          -0.68279237        0.00000000        0.00000000
C           0.68279329        0.00000000        0.00000000
H          -1.20641941        0.90382753        0.30301218
H          -1.20641941       -0.90382753       -0.30301218
H           1.20641390        0.90382819       -0.30298361
H           1.20641390       -0.90382819        0.30298361
6
MD Time 1650.00
C          -0.67192891        0.00000000        0.00000000
C           0.67192999        0.00000000        0.00000000
H          -1.18451003        0.90985534        0.30112786
H          -1.18451003       -0.90985534       -0.30112786
H           1.18450357        0.90985536       -0.30109859
H           1.18450357       -0.90985536        0.30109859
6
MD Time 1660.00
C          -0.66104509        0.00000000        0.00000000
C           0.66104631        0.00000000        0.00000000
H          -1.16299292        0.91622013        0.29866934
H          -1.16299292       -0.91622013       -0.29866934
H           1.16298563        0.91621968       -0.29863943
H           1.16298563       -0.91621968        0.29863943
6
MD Time 1670.00
C          -0.65019839        0.00000000        0.00000000
C           0.65019975        0.00000000        0.00000000
H          -1.14193062        0.92290398        0.29562710
H          -1.14193062       -0.92290398       -0.29562710
H           1.14192250        0.92290303       -0.29559644
H           1.14192250       -0.92290303        0.29559644
6
MD Time 1680.00
C          -0.63945481        0.00000000        0.00000000
C           0.63945629        0.00000000        0.00000000
H          -1.12138237        0.92988194        0.29199177
H          -1.12138237       -0.92988194       -0.29199177
H           1.12137356        0.92988070       -0.29196043
H           1.12137356       -0.92988070        0.29196043
6
MD Time 1690.00
C          -0.62888913        0.00000000        0.00000000
C           0.62889071        0.00000000        0.00000000
H          -1.10140463        0.93712268        0.28775483
H          -1.10140463       -0.93712268       -0.28775483
H           1.10139525        0.93712131       -0.28772284
H           1.10139525       -0.93712131        0.28772284
6
MD Time 1700.00
C          -0.61858494        0.00000000        0.00000000
C           0.61858658        0.00000000        0.00000000
H          -1.08205133        0.94458879        0.28290889
H          -1.08205133       -0.94458879       -0.28290889
H           1.08204151        0.94458751       -0.28287631
H           1.08204151       -0.94458751        0.28287631
6
MD Time 1710.00
C          -0.60863426        0.00000000        0.00000000
C           0.60863596        0.00000000        0.00000000
H          -1.06337426        0.95223756        0.27744827
H          -1.06337426       -0.95223756       -0.27744827
H           1.06336414        0.95223661       -0.27741515
H           1.06336414       -0.95223661        0.27741515
6
MD Time 1720.00
C          -0.59913681        0.00000000        0.00000000
C           0.59913853        0.00000000        0.00000000
H          -1.04542355        0.96002181        0.27136945
H          -1.04542355       -0.96002181       -0.27136945
H           1.04541327        0.96002134       -0.27133582
H           1.04541327       -0.96002134        0.27133582
6
MD Time 1730.00
C          -0.59019861        0.00000000        0.00000000
C           0.59020034        0.00000000        0.00000000
H          -1.02824807        0.96789072        0.26467147
H          -1.02824807       -0.96789072       -0.26467147
H           1.02823774        0.96789094       -0.26463739
H           1.02823774       -0.96789094        0.26463739
6
MD Time 1740.00
C          -0.58193006        0.00000000        0.00000000
C           0.58193177        0.00000000        0.00000000
H          -1.01189578        0.97579095        0.25735636
H          -1.01189578       -0.97579095       -0.25735636
H           1.01188553        0.97579206       -0.25732189
H           1.01188553       -0.97579206        0.25732189
6
MD Time 1750.00
C          -0.57444322        0.00000000        0.00000000
C           0.57444491        0.00000000        0.00000000
H          -0.99641409        0.98366771        0.24942947
H          -0.99641409       -0.98366771       -0.24942947
H           0.99640402        0.98366979       -0.24939462
H           0.99640402       -0.98366979        0.24939462
6
MD Time 1760.00
C          -0.56784850        0.00000000        0.00000000
C           0.56785014        0.00000000        0.00000000
H          -0.98184998        0.99146566        0.24089961
H          -0.98184998       -0.99146566       -0.24089961
H           0.98184019        0.99146886       -0.24086440
H           0.98184019       -0.99146886        0.24086440
6
MD Time 1770.00
C          -0.56225069        0.00000000        0.00000000
C           0.56225226        0.00000000        0.00000000
H          -0.96825011        0.99913007        0.23177917
H          -0.96825011       -0.99913007       -0.23177917
H           0.96824070        0.99913452       -0.23174365
H           0.96824070       -0.99913452        0.23174365
6
MD Time 1780.00
C          -0.55774464        0.00000000        0.00000000
C           0.55774614        0.00000000        0.00000000
H          -0.95566069        1.00660779        0.22208415
H          -0.95566069       -1.00660779       -0.22208415
H           0.95565172        1.00661354       -0.22204834
H           0.95565172       -1.00661354        0.22204834
6
MD Time 1790.00
C          -0.55441089        0.00000000       -0.00000000
C           0.55441230        0.00000000        0.00000000
H          -0.94412718        1.01384798        0.21183399
H          -0.94412718       -1.01384798       -0.21183399
H           0.94411874        1.01385511       -0.21179792
H           0.94411874       -1.01385511        0.21179792
6
MD Time 1800.00
C          -0.55231151        0.00000000       -0.00000000
C           0.55231282        0.00000000        0.00000000
H          -0.93369393        1.02080298        0.20105138
H          -0.93369393       -1.02080298       -0.20105138
H           0.93368607        1.02081158       -0.20101509
H           0.93368607       -1.02081158        0.20101509
6
MD Time 1810.00
C          -0.55148666        0.00000000       -0.00000000
C           0.55148787        0.00000000        0.00000000
H          -0.92440357        1.02742890        0.18976198
H          -0.92440357       -1.02742890       -0.18976198
H           0.92439635        1.02743907       -0.18972551
H           0.92439635       -1.02743907        0.18972551
6
MD Time 1820.00
C          -0.55195225        0.00000000       -0.00000000
C           0.55195335        0.00000000        0.00000000
H          -0.91629640        1.03368618        0.17799409
H          -0.91629640       -1.03368618       -0.17799409
H           0.91628983        1.03369787       -0.17795747
H           0.91628983       -1.03369787        0.17795747
6
MD Time 1830.00
C          -0.55369892        0.00000000       -0.00000000
C           0.55369991        0.00000000        0.00000000
H          -0.90940964        1.03953978        0.16577828
H          -0.90940964       -1.03953978       -0.16577828
H           0.90940375        1.03955291       -0.16574149
H           0.90940375       -1.03955291        0.16574149
6
MD Time 1840.00
C          -0.55669251        0.00000000       -0.00000000
C           0.55669338        0.00000000        0.00000000
H          -0.90377676        1.04495941        0.15314694
H          -0.90377676       -1.04495941       -0.15314694
H           0.90377154        1.04497393       -0.15311001
H           0.90377154       -1.04497393        0.15311001
6
MD Time 1850.00
C          -0.56087593        0.00000000       -0.00000000
C           0.56087669        0.00000000        0.00000000
H          -0.89942674        1.04991964        0.14013400
H          -0.89942674       -1.04991964       -0.14013400
H           0.89942218        1.04993538       -0.14009692
H           0.89942218       -1.04993538        0.14009692
6
MD Time 1860.00
C          -0.56617226        0.00000000       -0.00000000
C           0.56617292        0.00000000        0.00000000
H          -0.89638350        1.05439982        0.12677452
H          -0.89638350       -1.05439982       -0.12677452
H           0.89637957        1.05441645       -0.12673724
H           0.89637957       -1.05441645        0.12673724
6
MD Time 1870.00
C          -0.57248869        0.00000000       -0.00000000
C           0.57248925        0.00000000        0.00000000
H          -0.89466534        1.05838363        0.11310430
H          -0.89466534       -1.05838363       -0.11310430
H           0.89466201        1.05840099       -0.11306683
H           0.89466201       -1.05840099        0.11306683
6
MD Time 1880.00
C          -0.57972082        0.00000000       -0.00000000
C           0.57972128        0.00000000        0.00000000
H          -0.89428456        1.06185916        0.09915965
H          -0.89428456       -1.06185916       -0.09915965
H           0.89428178        1.06187705       -0.09912199
H           0.89428178       -1.06187705        0.09912199
6
MD Time 1890.00
C          -0.58775709        0.00000000       -0.00000000
C           0.58775747        0.00000000        0.00000000
H          -0.89524719        1.06481841        0.08497709
H          -0.89524719       -1.06481841       -0.08497709
H           0.89524492        1.06483655       -0.08493922
H           0.89524492       -1.06483655        0.08493922
6
MD Time 1900.00
C          -0.59648288        0.00000000       -0.00000000
C           0.59648318        0.00000000        0.00000000
H          -0.89755288        1.06725687        0.07059306
H          -0.89755288       -1.06725687       -0.07059306
H           0.89755107        1.06727512       -0.07055501
H           0.89755107       -1.06727512        0.07055501
6
MD Time 1910.00
C          -0.60578407        0.00000000       -0.00000000
C           0.60578431        0.00000000        0.00000000
H          -0.90119492        1.06917334        0.05604380
H          -0.90119492       -1.06917334       -0.05604380
H           0.90119351        1.06919138       -0.05600556
H           0.90119351       -1.06919138        0.05600556
6
MD Time 1920.00
C          -0.61555000        0.00000000       -0.00000000
C           0.61555018        0.00000000        0.00000000
H          -0.90616040        1.07056928        0.04136508
H          -0.90616040       -1.07056928       -0.04136508
H           0.90615932        1.07058688       -0.04132666
H           0.90615932       -1.07058688        0.04132666
6
MD Time 1930.00
C          -0.62567562        0.00000000       -0.00000000
C           0.62567575        0.00000000        0.00000000
H          -0.91243050        1.07144863        0.02659212
H          -0.91243050       -1.07144863       -0.02659212
H           0.91242970        1.07146554       -0.02655353
H           0.91242970       -1.07146554        0.02655353
6
MD Time 1940.00
C          -0.63606307        0.00000000       -0.00000000
C           0.63606317        0.00000000        0.00000000
H          -0.91998089        1.07181744        0.01175941
H          -0.91998089       -1.07181744       -0.01175941
H           0.91998030        1.07183330       -0.01172066
H           0.91998030       -1.07183330        0.01172066
6
MD Time 1950.00
C          -0.64662260        0.00000000       -0.00000000
C           0.64662267        0.00000000        0.00000000
H          -0.92878219        1.07168339       -0.00309932
H          -0.92878219       -1.07168339        0.00309932
H           0.92878175        1.07169795        0.00313822
H           0.92878175       -1.07169795       -0.00313822
6
MD Time 1960.00
C          -0.65727301        0.00000000       -0.00000000
C           0.65727307        0.00000000        0.00000000
H          -0.93880051        1.07105567       -0.01795126
H          -0.93880051       -1.07105567        0.01795126
H           0.93880016        1.07106865        0.01799028
H           0.93880016       -1.07106865       -0.01799028
6
MD Time 1970.00
C          -0.66794172        0.00000000       -0.00000000
C           0.66794176        0.00000000        0.00000000
H          -0.94999803        1.06994459       -0.03276448
H          -0.94999803       -1.06994459        0.03276448
H           0.94999772        1.06995577        0.03280361
H           0.94999772       -1.06995577       -0.03280361
6
MD Time 1980.00
C          -0.67856447        0.00000000       -0.00000000
C           0.67856452        0.00000000        0.00000000
H          -0.96233353        1.06836137       -0.04750809
H          -0.96233353       -1.06836137        0.04750809
H           0.96233320        1.06837043        0.04754730
H           0.96233320       -1.06837043       -0.04754730
6
MD Time 1990.00
C          -0.68908498        0.00000000       -0.00000000
C           0.68908504        0.00000000        0.00000000
H          -0.97576291        1.06631770       -0.06215220
H          -0.97576291       -1.06631770        0.06215220
H           0.97576253        1.06632446        0.06219146
H           0.97576253       -1.06632446       -0.06219146
6
MD Time 2000.00
C          -0.69945433        0.00000000       -0.00000000
C           0.69945440        0.00000000        0.00000000
H          -0.99023967        1.06382569       -0.07666800
H          -0.99023967       -1.06382569        0.07666800
H           0.99023919        1.06382985        0.07670727
H           0.99023919       -1.06382985       -0.07670727
6
MD Time 2010.00
C          -0.70963038        0.00000000       -0.00000000
C           0.70963047        0.00000000        0.00000000
H          -1.00571523        1.06089728       -0.09102772
H          -1.00571523       -1.06089728        0.09102772
H           1.00571463        1.06089874        0.09106699
H           1.00571463       -1.06089874       -0.09106699
6
MD Time 2020.00
C          -0.71957715        0.00000000       -0.00000000
C           0.71957727       -0.00000000        0.00000000
H          -1.02213923        1.05754423       -0.10520471
H          -1.02213923       -1.05754423        0.10520471
H           1.02213849        1.05754282        0.10524394
H           1.02213849       -1.05754282       -0.10524394
6
MD Time 2030.00
C          -0.72926421        0.00000000       -0.00000000
C           0.72926436       -0.00000000        0.00000000
H          -1.03945966        1.05377765       -0.11917333
H          -1.03945966       -1.05377765        0.11917333
H           1.03945877        1.05377333        0.11921249
H           1.03945877       -1.05377333       -0.11921249
6
MD Time 2040.00
C          -0.73866612        0.00000000       -0.00000000
C           0.73866629       -0.00000000        0.00000000
H          -1.05762292        1.04960789       -0.13290895
H          -1.05762292       -1.04960789        0.13290895
H           1.05762189        1.04960060        0.13294803
H           1.05762189       -1.04960060       -0.13294803
6
MD Time 2050.00
C          -0.74776189        0.00000000       -0.00000000
C           0.74776208       -0.00000000        0.00000000
H          -1.07657377        1.04504416       -0.14638791
H          -1.07657377       -1.04504416        0.14638791
H           1.07657261        1.04503397        0.14642688
H           1.07657261       -1.04503397       -0.14642688
6
MD Time 2060.00
C          -0.75653451        0.00000000       -0.00000000
C           0.75653472       -0.00000000        0.00000000
H          -1.09625525        1.04009452       -0.15958739
H          -1.09625525       -1.04009452        0.15958739
H           1.09625398        1.04008150        0.15962626
H           1.09625398       -1.04008150       -0.15962626
6
MD Time 2070.00
C          -0.76497058        0.00000000       -0.00000000
C           0.76497080       -0.00000000        0.00000000
H          -1.11660848        1.03476565       -0.17248538
H          -1.11660848       -1.03476565        0.17248538
H           1.11660714        1.03474994        0.17252416
H           1.11660714       -1.03474994       -0.17252416
6
MD Time 2080.00
C          -0.77305989        0.00000000       -0.00000000
C           0.77306011       -0.00000000        0.00000000
H          -1.13757254        1.02906291       -0.18506060
H          -1.13757254       -1.02906291        0.18506060
H           1.13757118        1.02904468        0.18509927
H           1.13757118       -1.02904468       -0.18509927
6
MD Time 2090.00
C          -0.78079509        0.00000000       -0.00000000
C           0.78079531       -0.00000000        0.00000000
H          -1.15908432        1.02299030       -0.19729236
H          -1.15908432       -1.02299030        0.19729236
H           1.15908301        1.02296974        0.19733096
H           1.15908301       -1.02296974       -0.19733096
6
MD Time 2100.00
C          -0.78817146        0.00000000       -0.00000000
C           0.78817166       -0.00000000        0.00000000
H          -1.18107836        1.01655061       -0.20916058
H          -1.18107836       -1.01655061        0.20916058
H           1.18107715        1.01652795        0.20919913
H           1.18107715       -1.01652795       -0.20919913
6
MD Time 2110.00
C          -0.79518660        0.00000000       -0.00000000
C           0.79518677       -0.00000000        0.00000000
H          -1.20348678        1.00974564       -0.22064573
H          -1.20348678       -1.00974564        0.22064573
H           1.20348577        1.00972112        0.22068425
H           1.20348577       -1.00972112       -0.22068425
6
MD Time 2120.00
C          -0.80184023        0.00000000       -0.00000000
C           0.80184035       -0.00000000        0.00000000
H          -1.22623931        1.00257643       -0.23172876
H          -1.22623931       -1.00257643        0.23172876
H           1.22623857        1.00255032        0.23176729
H           1.22623857       -1.00255032       -0.23176729
6
MD Time 2130.00
C          -0.80813397        0.00000000       -0.00000000
C           0.80813403       -0.00000000        0.00000000
H          -1.24926324        0.99504369       -0.24239121
H          -1.24926324       -0.99504369        0.24239121
H           1.24926286        0.99501625        0.24242979
H           1.24926286       -0.99501625       -0.24242979
6
MD Time 2140.00
C          -0.81407113        0.00000000       -0.00000000
C           0.81407112       -0.00000000        0.00000000
H          -1.27248361        0.98714813       -0.25261519
H          -1.27248361       -0.98714813        0.25261519
H           1.27248368        0.98711965        0.25265385
H           1.27248368       -0.98711965       -0.25265385
6
MD Time 2150.00
C          -0.81965656        0.00000000       -0.00000000
C           0.81965648       -0.00000000        0.00000000
H          -1.29582343        0.97889124       -0.26238357
H          -1.29582343       -0.97889124        0.26238357
H           1.29582385        0.97886154        0.26242218
H           1.29582385       -0.97886154       -0.26242218
6
MD Time 2160.00
C          -0.82489642        0.00000000       -0.00000000
C           0.82489627       -0.00000000        0.00000000
H          -1.31920362        0.97027502       -0.27167980
H          -1.31920362       -0.97027502        0.27167980
H           1.31920449        0.97024439        0.27171841
H           1.31920449       -0.97024439       -0.27171841
6
MD Time 2170.00
C          -0.82979807        0.00000000       -0.00000000
C           0.82979783       -0.00000000        0.00000000
H          -1.34254364        0.96130327       -0.28048832
H          -1.34254364       -0.96130327        0.28048832
H           1.34254505        0.96127199        0.28052698
H           1.34254505       -0.96127199       -0.28052698
6
MD Time 2180.00
C          -0.83436982        0.00000000       -0.00000000
C           0.83436948       -0.00000000        0.00000000
H          -1.36576173        0.95198184       -0.28879463
H          -1.36576173       -0.95198184        0.28879463
H           1.36576376        0.95195018        0.28883339
H           1.36576376       -0.95195018       -0.28883339
6
MD Time 2190.00
C          -0.83862082        0.00000000       -0.00000000
C           0.83862035       -0.00000000        0.00000000
H          -1.38877532        0.94231915       -0.29658544
H          -1.38877532       -0.94231915        0.29658544
H           1.38877806        0.94228738        0.29662435
H           1.38877806       -0.94228738       -0.29662435
6
MD Time 2200.00
C          -0.84256084        0.00000000       -0.00000000
C           0.84256024       -0.00000000        0.00000000
H          -1.41150153        0.93232668       -0.30384884
H          -1.41150153       -0.93232668        0.30384884
H           1.41150505        0.93229504        0.30388795
H           1.41150505       -0.93229504       -0.30388795
6
MD Time 2210.00
C          -0.84620014        0.00000000       -0.00000000
C           0.84619940       -0.00000000        0.00000000
H          -1.43385767        0.92201937       -0.31057451
H          -1.43385767       -0.92201937        0.31057451
H           1.43386204        0.92198811        0.31061386
H           1.43386204       -0.92198811       -0.31061386
6
MD Time 2220.00
C          -0.84954929        0.00000000       -0.00000000
C           0.84954840       -0.00000000        0.00000000
H          -1.45576181        0.91141605       -0.31675389
H          -1.45576181       -0.91141605        0.31675389
H           1.45576708        0.91138537        0.31679352
H           1.45576708       -0.91138537       -0.31679352
6
MD Time 2230.00
C          -0.85261902        0.00000000       -0.00000000
C           0.85261797       -0.00000000        0.00000000
H          -1.47713332        0.90053967       -0.32238030
H          -1.47713332       -0.90053967        0.32238030
H           1.47713953        0.90050977        0.32242025
H           1.47713953       -0.90050977       -0.32242025
6
MD Time 2240.00
C          -0.85542004        0.00000000       -0.00000000
C           0.85541882       -0.00000000        0.00000000
H          -1.49789344        0.88941756       -0.32744919
H          -1.49789344       -0.88941756        0.32744919
H           1.49790063        0.88938861        0.32748950
H           1.49790063       -0.88938861       -0.32748950
6
MD Time 2250.00
C          -0.85796293        0.00000000       -0.00000000
C           0.85796155       -0.00000000        0.00000000
H          -1.51796592        0.87808160       -0.33195821
H          -1.51796592       -0.87808160        0.33195821
H           1.51797409        0.87805374        0.33199889
H           1.51797409       -0.87805374       -0.33199889
6
MD Time 2260.00
C          -0.86025798        0.00000000       -0.00000000
C           0.86025644       -0.00000000        0.00000000
H          -1.53727749        0.86656822       -0.33590733
H          -1.53727749       -0.86656822        0.33590733
H           1.53728664        0.86654157        0.33594840
H           1.53728664       -0.86654157       -0.33594840
6
MD Time 2270.00
C          -0.86231510        0.00000000       -0.00000000
C           0.86231340       -0.00000000        0.00000000
H          -1.55575843        0.85491846       -0.33929894
H          -1.55575843       -0.85491846        0.33929894
H           1.55576854        0.85489312        0.33934042
H           1.55576854       -0.85489312       -0.33934042
6
MD Time 2280.00
C          -0.86414366        0.00000000       -0.00000000
C           0.86414180       -0.00000000        0.00000000
H          -1.57334305        0.84317785       -0.34213792
H          -1.57334305       -0.84317785        0.34213792
H           1.57335410        0.84315389        0.34217982
H           1.57335410       -0.84315389       -0.34217982
6
MD Time 2290.00
C          -0.86575240        0.00000000       -0.00000000
C           0.86575039       -0.00000000        0.00000000
H          -1.58997018        0.83139627       -0.34443165
H          -1.58997018       -0.83139627        0.34443165
H           1.58998212        0.83137374        0.34447397
H           1.58998212       -0.83137374       -0.34447397
6
MD Time 2300.00
C          -0.86714937        0.00000000       -0.00000000
C           0.86714722       -0.00000000        0.00000000
H          -1.60558352        0.81962777       -0.34618999
H          -1.60558352       -0.81962777        0.34618999
H           1.60559628        0.81960669        0.34623272
H           1.60559628       -0.81960669       -0.34623272
6
MD Time 2310.00
C          -0.86834182        0.00000000       -0.00000000
C           0.86833954       -0.00000000        0.00000000
H          -1.62013203        0.80793023       -0.34742526
H          -1.62013203       -0.80793023        0.34742526
H           1.62014553        0.80791060        0.34746840
H           1.62014553       -0.80791060       -0.34746840
6
MD Time 2320.00
C          -0.86933612        0.00000000       -0.00000000
C           0.86933374       -0.00000000        0.00000000
H          -1.63357024        0.79636516       -0.34815217
H          -1.63357024       -0.79636516        0.34815217
H           1.63358439        0.79634694        0.34819569
H           1.63358439       -0.79634694       -0.34819569
6
MD Time 2330.00
C          -0.87013776        0.00000000       -0.00000000
C           0.87013528       -0.00000000        0.00000000
H          -1.64585849        0.78499723       -0.34838765
H          -1.64585849       -0.78499723        0.34838765
H           1.64587318        0.78498038        0.34843154
H           1.64587318       -0.78498038       -0.34843154
6
MD Time 2340.00
C          -0.87075121        0.00000000       -0.00000000
C           0.87074866       -0.00000000        0.00000000
H          -1.65696319        0.77389399       -0.34815080
H          -1.65696319       -0.77389399        0.34815080
H           1.65697830        0.77387842        0.34819503
H           1.65697830       -0.77387842       -0.34819503
6
MD Time 2350.00
C          -0.87117996        0.00000000       -0.00000000
C           0.87117737       -0.00000000        0.00000000
H          -1.66685697        0.76312536       -0.34746264
H          -1.66685697       -0.76312536        0.34746264
H           1.66687235        0.76311100        0.34750717
H           1.66687235       -0.76311100       -0.34750717
6
MD Time 2360.00
C          -0.87142647        0.00000000       -0.00000000
C           0.87142386       -0.00000000        0.00000000
H          -1.67551877        0.75276323       -0.34634592
H          -1.67551877       -0.75276323        0.34634592
H           1.67553428        0.75274996        0.34639073
H           1.67553428       -0.75274996       -0.34639073
6
MD Time 2370.00
C          -0.87149211        0.00000000       -0.00000000
C           0.87148950       -0.00000000        0.00000000
H          -1.68293399        0.74288094       -0.34482490
H          -1.68293399       -0.74288094        0.34482490
H           1.68294948        0.74286863        0.34486994
H           1.68294948       -0.74286863       -0.34486994
6
MD Time 2380.00
C          -0.87137722        0.00000000       -0.00000000
C           0.87137464       -0.00000000        0.00000000
H          -1.68909444        0.73355276       -0.34292501
H          -1.68909444       -0.73355276        0.34292501
H           1.68910975        0.73354126        0.34297025
H           1.68910975       -0.73354126       -0.34297025
6
MD Time 2390.00
C          -0.87108104        0.00000000       -0.00000000
C           0.87107852       -0.00000000        0.00000000
H          -1.69399836        0.72485333       -0.34067262
H          -1.69399836       -0.72485333        0.34067262
H           1.69401331        0.72484248        0.34071801
H           1.69401331       -0.72484248       -0.34071801
6
MD Time 2400.00
C          -0.87060171        0.00000000       -0.00000000
C           0.87059942       -0.00000000        0.00000000
H          -1.69765067        0.71685712       -0.33809475
H          -1.69765067       -0.71685712        0.33809475
H           1.69766431        0.71684663        0.33814001
H           1.69766431       -0.71684663       -0.33814001
6
MD Time 2410.00
C          -0.86993650        0.00000000       -0.00000000
C           0.86993445       -0.00000000        0.00000000
H          -1.70006171        0.70963765       -0.33521838
H          -1.70006171       -0.70963765        0.33521838
H           1.70007386        0.70962734        0.33526348
H           1.70007386       -0.70962734       -0.33526348
6
MD Time 2420.00
C          -0.86908158        0.00000000       -0.00000000
C           0.86907981       -0.00000000        0.00000000
H          -1.70124808        0.70326694       -0.33207039
H          -1.70124808       -0.70326694        0.33207039
H           1.70125859        0.70325664        0.33211530
H           1.70125859       -0.70325664       -0.33211530
6
MD Time 2430.00
C          -0.86803226        0.00000000       -0.00000000
C           0.86803079       -0.00000000        0.00000000
H          -1.70123198        0.69781478       -0.32867706
H          -1.70123198       -0.69781478        0.32867706
H           1.70124069        0.69780435        0.32872176
H           1.70124069       -0.69780435       -0.32872176
6
MD Time 2440.00
C          -0.86678295        0.00000000       -0.00000000
C           0.86678180       -0.00000000        0.00000000
H          -1.70004079        0.69334798       -0.32506358
H          -1.70004079       -0.69334798        0.32506358
H           1.70004757        0.69333725        0.32510806
H           1.70004757       -0.69333725       -0.32510806
6
MD Time 2450.00
C          -0.86532735        0.00000000       -0.00000000
C           0.86532655       -0.00000000        0.00000000
H          -1.69770650        0.68992947       -0.32125364
H          -1.69770650       -0.68992947        0.32125364
H           1.69771121        0.68991830        0.32129789
H           1.69771121       -0.68991830       -0.32129789
6
MD Time 2460.00
C          -0.86365852        0.00000000       -0.00000000
C           0.86365808       -0.00000000        0.00000000
H          -1.69426508        0.68761750       -0.31726894
H          -1.69426508       -0.68761750        0.31726894
H           1.69426763        0.68760578        0.31731298
H           1.69426763       -0.68760578       -0.31731298
6
MD Time 2470.00
C          -0.86176902        0.00000000       -0.00000000
C           0.86176896       -0.00000000        0.00000000
H          -1.68975576        0.68646469       -0.31312876
H          -1.68975576       -0.68646469        0.31312876
H           1.68975608        0.68645232        0.31317262
H           1.68975608       -0.68645232       -0.31317262
6
MD Time 2480.00
C          -0.85965111        0.00000000       -0.00000000
C           0.85965143       -0.00000000        0.00000000
H          -1.68422014        0.68651703       -0.30884953
H          -1.68422014       -0.68651703        0.30884953
H           1.68421818        0.68650393        0.30889324
H           1.68421818       -0.68650393       -0.30889324
6
MD Time 2490.00
C          -0.85729686        0.00000000       -0.00000000
C           0.85729757       -0.00000000        0.00000000
H          -1.67770130        0.68781288       -0.30444438
H          -1.67770130       -0.68781288        0.30444438
H           1.67769704        0.68779900        0.30448800
H           1.67769704       -0.68779900       -0.30448800
6
MD Time 2500.00
C          -0.85469843        0.00000000       -0.00000000
C           0.85469953       -0.00000000        0.00000000
H          -1.67024272        0.69038193       -0.29992284
H          -1.67024272       -0.69038193        0.29992284
H           1.67023617        0.69036724        0.29996643
H           1.67023617       -0.69036724       -0.29996643
6
MD Time 2510.00
C          -0.85184821        0.00000000       -0.00000000
C           0.85184968       -0.00000000        0.00000000
H          -1.66188730        0.69424412       -0.29529049
H          -1.66188730       -0.69424412        0.29529049
H           1.66187849        0.69422863        0.29533415
H           1.66187849       -0.69422863       -0.29533415
6
MD Time 2520.00
C          -0.84873903        0.00000000       -0.00000000
C           0.84874087       -0.00000000        0.00000000
H          -1.65267629        0.69940867       -0.29054882
H          -1.65267629       -0.69940867        0.29054882
H           1.65266531        0.69939242        0.29059263
H           1.65266531       -0.69939242       -0.29059263
6
MD Time 2530.00
C          -0.84536442        0.00000000       -0.00000000
C           0.84536660       -0.00000000        0.00000000
H          -1.64264834        0.70587311       -0.28569504
H          -1.64264834       -0.70587311        0.28569504
H           1.64263530        0.70585617        0.28573912
H           1.64263530       -0.70585617       -0.28573912
6
MD Time 2540.00
C          -0.84171874        0.00000000       -0.00000000
C           0.84172124       -0.00000000        0.00000000
H          -1.63183862        0.71362241       -0.28072218
H          -1.63183862       -0.71362241        0.28072218
H           1.63182366        0.71360489        0.28076664
H           1.63182366       -0.71360489       -0.28076664
6
MD Time 2550.00
C          -0.83779736        0.00000000       -0.00000000
C           0.83780016       -0.00000000        0.00000000
H          -1.62027813        0.72262837       -0.27561916
H          -1.62027813       -0.72262837        0.27561916
H           1.62026140        0.72261040        0.27566414
H           1.62026140       -0.72261040       -0.27566414
6
MD Time 2560.00
C          -0.83359683        0.00000000       -0.00000000
C           0.83359990       -0.00000000        0.00000000
H          -1.60799319        0.73284911       -0.27037114
H          -1.60799319       -0.73284911        0.27037114
H           1.60797489        0.73283085        0.27041676
H           1.60797489       -0.73283085       -0.27041676
6
MD Time 2570.00
C          -0.82911495        0.00000000       -0.00000000
C           0.82911825       -0.00000000        0.00000000
H          -1.59500528        0.74422887       -0.26495986
H          -1.59500528       -0.74422887        0.26495986
H           1.59498561        0.74421051        0.26500626
H           1.59498561       -0.74421051       -0.26500626
6
MD Time 2580.00
C          -0.82435083        0.00000000       -0.00000000
C           0.82435431       -0.00000000        0.00000000
H          -1.58133100        0.75669814       -0.25936426
H          -1.58133100       -0.75669814        0.25936426
H           1.58131020        0.75667987        0.25941158
H           1.58131020       -0.75667987       -0.25941158
6
MD Time 2590.00
C          -0.81930491        0.00000000       -0.00000000
C           0.81930854       -0.00000000        0.00000000
H          -1.56698252        0.77017403       -0.25356110
H          -1.56698252       -0.77017403        0.25356110
H           1.56696081        0.77015607        0.25360946
H           1.56696081       -0.77015607       -0.25360946
6
MD Time 2600.00
C          -0.81397894        0.00000000       -0.00000000
C           0.81398269       -0.00000000        0.00000000
H          -1.55196807        0.78456112       -0.24752571
H          -1.55196807       -0.78456112        0.24752571
H           1.55194569        0.78454367        0.24757524
H           1.55194569       -0.78454367       -0.24757524
6
MD Time 2610.00
C          -0.80837589        0.00000000       -0.00000000
C           0.80837981       -0.00000000        0.00000000
H          -1.53629314        0.79975259       -0.24123290
H          -1.53629314       -0.79975259        0.24123290
H           1.53626978        0.79973566        0.24128354
H           1.53626978       -0.79973566       -0.24128354
6
MD Time 2620.00
C          -0.80250000        0.00000000       -0.00000000
C           0.80250405       -0.00000000        0.00000000
H          -1.51996064        0.81563137       -0.23465753
H          -1.51996064       -0.81563137        0.23465753
H           1.51993652        0.81561519        0.23470938
H           1.51993652       -0.81561519       -0.23470938
6
MD Time 2630.00
C          -0.79635656        0.00000000       -0.00000000
C           0.79636069        0.00000000        0.00000000
H          -1.50297283        0.83207211       -0.22777557
H          -1.50297283       -0.83207211        0.22777557
H           1.50294819        0.83205688        0.22782873
H           1.50294819       -0.83205688       -0.22782873
6
MD Time 2640.00
C          -0.78995184        0.00000000       -0.00000000
C           0.78995602        0.00000000        0.00000000
H          -1.48533227        0.84894292       -0.22056481
H          -1.48533227       -0.84894292        0.22056481
H           1.48530735        0.84892886        0.22061935
H           1.48530735       -0.84892886       -0.22061935
6
MD Time 2650.00
C          -0.78329309        0.00000000       -0.00000000
C           0.78329728        0.00000000        0.00000000
H          -1.46704298        0.86610737       -0.21300554
H          -1.46704298       -0.86610737        0.21300554
H           1.46701798        0.86609467        0.21306152
H           1.46701798       -0.86609467       -0.21306152
6
MD Time 2660.00
C          -0.77638844        0.00000000       -0.00000000
C           0.77639261        0.00000000        0.00000000
H          -1.44811150        0.88342649       -0.20508115
H          -1.44811150       -0.88342649        0.20508115
H           1.44808664        0.88341533        0.20513862
H           1.44808664       -0.88341533       -0.20513862
6
MD Time 2670.00
C          -0.76924689        0.00000000       -0.00000000
C           0.76925100        0.00000000        0.00000000
H          -1.42854790        0.90076079       -0.19677860
H          -1.42854790       -0.90076079        0.19677860
H           1.42852336        0.90075132        0.19683760
H           1.42852336       -0.90075132       -0.19683760
6
MD Time 2680.00
C          -0.76187837        0.00000000       -0.00000000
C           0.76188240        0.00000000        0.00000000
H          -1.40836660        0.91797213       -0.18808882
H          -1.40836660       -0.91797213        0.18808882
H           1.40834256        0.91796448        0.18814936
H           1.40834256       -0.91796448       -0.18814936
6
MD Time 2690.00
C          -0.75429384        0.00000000       -0.00000000
C           0.75429775        0.00000000        0.00000000
H          -1.38758703        0.93492549       -0.17900688
H          -1.38758703       -0.93492549        0.17900688
H           1.38756365        0.93491978        0.17906896
H           1.38756365       -0.93491978       -0.17906896
6
MD Time 2700.00
C          -0.74650534        0.00000000       -0.00000000
C           0.74650913        0.00000000        0.00000000
H          -1.36623414        0.95149058       -0.16953216
H          -1.36623414       -0.95149058        0.16953216
H           1.36621157        0.95148688        0.16959578
H           1.36621157       -0.95148688       -0.16959578
6
MD Time 2710.00
C          -0.73852628        0.00000000       -0.00000000
C           0.73852990        0.00000000        0.00000000
H          -1.34433876        0.96754321       -0.15966835
H          -1.34433876       -0.96754321        0.15966835
H           1.34431712        0.96754157        0.15973347
H           1.34431712       -0.96754157       -0.15973347
6
MD Time 2720.00
C          -0.73037156        0.00000000       -0.00000000
C           0.73037502        0.00000000        0.00000000
H          -1.32193778        0.98296649       -0.14942335
H          -1.32193778       -0.98296649        0.14942335
H           1.32191719        0.98296693        0.14948993
H           1.32191719       -0.98296693       -0.14948993
6
MD Time 2730.00
C          -0.72205794        0.00000000       -0.00000000
C           0.72206120        0.00000000        0.00000000
H          -1.29907429        0.99765182       -0.13880915
H          -1.29907429       -0.99765182        0.13880915
H           1.29905483        0.99765435        0.13887715
H           1.29905483       -0.99765435       -0.13887715
6
MD Time 2740.00
C          -0.71360426        0.00000000       -0.00000000
C           0.71360730        0.00000000        0.00000000
H          -1.27579745        1.01149968       -0.12784159
H          -1.27579745       -1.01149968        0.12784159
H           1.27577930        1.01150440        0.12791097
H           1.27577930       -1.01150440       -0.12791097
6
MD Time 2750.00
C          -0.70503182        0.00000000       -0.00000000
C           0.70503463        0.00000000        0.00000000
H          -1.25216261        1.02442047       -0.11654015
H          -1.25216261       -1.02442047        0.11654015
H           1.25214583        1.02442734        0.11661085
H           1.25214583       -1.02442734       -0.11661085
6
MD Time 2760.00
C          -0.69636475        0.00000000       -0.00000000
C           0.69636731        0.00000000        0.00000000
H          -1.22823096        1.03633477       -0.10492760
H          -1.22823096       -1.03633477        0.10492760
H           1.22821569        1.03634387        0.10499957
H           1.22821569       -1.03634387       -0.10499957
6
MD Time 2770.00
C          -0.68763034        0.00000000       -0.00000000
C           0.68763263        0.00000000        0.00000000
H          -1.20406951        1.04717404       -0.09302975
H          -1.20406951       -1.04717404        0.09302975
H           1.20405579        1.04718528        0.09310291
H           1.20405579       -1.04718528       -0.09310291
6
MD Time 2780.00
C          -0.67885945        0.00000000       -0.00000000
C           0.67886147        0.00000000        0.00000000
H          -1.17975074        1.05688066       -0.08087507
H          -1.17975074       -1.05688066        0.08087507
H           1.17973868        1.05689411        0.08094936
H           1.17973868       -1.05689411       -0.08094936
6
MD Time 2790.00
C          -0.67008683        0.00000000       -0.00000000
C           0.67008857        0.00000000        0.00000000
H          -1.15535256        1.06540852       -0.06849437
H          -1.15535256       -1.06540852        0.06849437
H           1.15534216        1.06542404        0.06856970
H           1.15534216       -1.06542404       -0.06856970
6
MD Time 2800.00
C          -0.66135148        0.00000000       -0.00000000
C           0.66135293        0.00000000        0.00000000
H          -1.13095792        1.07272286       -0.05592045
H          -1.13095792       -1.07272286        0.05592045
H           1.13094925        1.07274048        0.05599675
H           1.13094925       -1.07274048       -0.05599675
6
MD Time 2810.00
C          -0.65269684        0.00000000       -0.00000000
C           0.65269801        0.00000000        0.00000000
H          -1.10665480        1.07880084       -0.04318773
H          -1.10665480       -1.07880084        0.04318773
H           1.10664785        1.07882036        0.04326490
H           1.10664785       -1.07882036       -0.04326490
6
MD Time 2820.00
C          -0.64417099        0.00000000       -0.00000000
C           0.64417186        0.00000000        0.00000000
H          -1.08253592        1.08363134       -0.03033187
H          -1.08253592       -1.08363134        0.03033187
H           1.08253069        1.08365271        0.03040983
H           1.08253069       -1.08365271       -0.03040983
6
MD Time 2830.00
C          -0.63582664        0.00000000       -0.00000000
C           0.63582723        0.00000000        0.00000000
H          -1.05869870        1.08721543       -0.01738943
H          -1.05869870       -1.08721543        0.01738943
H           1.05869514        1.08723842        0.01746808
H           1.05869514       -1.08723842       -0.01746808
6
MD Time 2840.00
C          -0.62772101        0.00000000       -0.00000000
C           0.62772132        0.00000000        0.00000000
H          -1.03524503        1.08956631       -0.00439740
H          -1.03524503       -1.08956631        0.00439740
H           1.03524311        1.08959074        0.00447664
H           1.03524311       -1.08959074       -0.00447664
6
MD Time 2850.00
C          -0.61991549        0.00000000       -0.00000000
C           0.61991555        0.00000000        0.00000000
H          -1.01228122        1.09070956        0.00860717
H          -1.01228122       -1.09070956       -0.00860717
H           1.01228087        1.09073518       -0.00852741
H           1.01228087       -1.09073518        0.00852741
6
MD Time 2860.00
C          -0.61247505        0.00000000       -0.00000000
C           0.61247486        0.00000000        0.00000000
H          -0.98991774        1.09068328        0.02158760
H          -0.98991774       -1.09068328       -0.02158760
H           0.98991887        1.09070982       -0.02150741
H           0.98991887       -1.09070982        0.02150741
6
MD Time 2870.00
C          -0.60546733        0.00000000       -0.00000000
C           0.60546691        0.00000000        0.00000000
H          -0.96826894        1.08953826        0.03450810
H          -0.96826894       -1.08953826       -0.03450810
H           0.96827145        1.08956531       -0.03442756
H           0.96827145       -1.08956531        0.03442756
6
MD Time 2880.00
C          -0.59896153        0.00000000       -0.00000000
C           0.59896089        0.00000000        0.00000000
H          -0.94745255        1.08733790        0.04733419
H          -0.94745255       -1.08733790       -0.04733419
H           0.94745634        1.08736516       -0.04725337
H           0.94745634       -1.08736516        0.04725337
6
MD Time 2890.00
C          -0.59302687        0.00000000       -0.00000000
C           0.59302604        0.00000000        0.00000000
H          -0.92758903        1.08415841        0.06003326
H          -0.92758903       -1.08415841       -0.06003326
H           0.92759398        1.08418555       -0.05995222
H           0.92759398       -1.08418555        0.05995222
6
MD Time 2900.00
C          -0.58773095        0.00000000       -0.00000000
C           0.58772994        0.00000000        0.00000000
H          -0.90880058        1.08008855        0.07257503
H          -0.90880058       -1.08008855       -0.07257503
H           0.90880659        1.08011531       -0.07249383
H           0.90880659       -1.08011531        0.07249383
6
MD Time 2910.00
C          -0.58313769        0.00000000       -0.00000000
C           0.58313651        0.00000000        0.00000000
H          -0.89120996        1.07522945        0.08493205
H          -0.89120996       -1.07522945       -0.08493205
H           0.89121691        1.07525550       -0.08485072
H           0.89121691       -1.07525550        0.08485072
6
MD Time 2920.00
C          -0.57930526        0.00000000       -0.00000000
C           0.57930394        0.00000000        0.00000000
H          -0.87493894        1.06969390        0.09708011
H          -0.87493894       -1.06969390       -0.09708011
H           0.87494672        1.06971897       -0.09699870
H           0.87494672       -1.06971897        0.09699870
6
MD Time 2930.00
C          -0.57628396        0.00000000       -0.00000000
C           0.57628253        0.00000000        0.00000000
H          -0.86010654        1.06360556        0.10899861
H          -0.86010654       -1.06360556       -0.10899861
H           0.86011504        1.06362932       -0.10891714
H           0.86011504       -1.06362932        0.10891714
6
MD Time 2940.00
C          -0.57411424        0.00000000       -0.00000000
C           0.57411271        0.00000000        0.00000000
H          -0.84682709        1.05709755        0.12067082
H          -0.84682709       -1.05709755       -0.12067082
H           0.84683620        1.05711974       -0.12058929
H           0.84683620       -1.05711974        0.12058929
6
MD Time 2950.00
C          -0.57282492        0.00000000       -0.00000000
C           0.57282331        0.00000000        0.00000000
H          -0.83520811        1.05031078        0.13208394
H          -0.83520811       -1.05031078       -0.13208394
H           0.83521772        1.05033112       -0.13200235
H           0.83521772       -1.05033112        0.13200235
6
MD Time 2960.00
C          -0.57243191        0.00000000       -0.00000000
C           0.57243023        0.00000000        0.00000000
H          -0.82534821        1.04339153        0.14322908
H          -0.82534821       -1.04339153       -0.14322908
H           0.82535823        1.04340982       -0.14314742
H           0.82535823       -1.04340982        0.14314742
6
MD Time 2970.00
C          -0.57293741        0.00000000       -0.00000000
C           0.57293567        0.00000000        0.00000000
H          -0.81733507        1.03648879        0.15410099
H          -0.81733507       -1.03648879       -0.15410099
H           0.81734542        1.03650480       -0.15401924
H           0.81734542       -1.03650480        0.15401924
6
MD Time 2980.00
C          -0.57432973        0.00000000       -0.00000000
C           0.57432794        0.00000000        0.00000000
H          -0.81124357        1.02975074        0.16469761
H          -0.81124357       -1.02975074       -0.16469761
H           0.81125418        1.02976437       -0.16461575
H           0.81125418       -1.02976437        0.16461575
6
MD Time 2990.00
C          -0.57658369        0.00000000       -0.00000000
C           0.57658187        0.00000000        0.00000000
H          -0.80713426        1.02332106        0.17501938
H          -0.80713426       -1.02332106       -0.17501938
H           0.80714506        1.02333235       -0.17493741
H           0.80714506       -1.02333235        0.17493741
